*SPEF "ieee 1481-1999"
*DESIGN "acc8"
*DATE "12:30:00 Saturday September 19, 2026"
*VENDOR "The OpenROAD Project"
*PROGRAM "OpenROAD"
*VERSION "edf00dff99f6c40d67a30c0e22a8191c5d2ed9d6"
*DESIGN_FLOW "NAME_SCOPE LOCAL" "PIN_CAP NONE"
*DIVIDER /
*DELIMITER :
*BUS_DELIMITER []
*T_UNIT 1 NS
*C_UNIT 1 PF
*R_UNIT 1 OHM
*L_UNIT 1 HENRY

*NAME_MAP
*3 acc[0]
*4 acc[1]
*5 acc[2]
*6 acc[3]
*7 acc[4]
*8 acc[5]
*9 acc[6]
*10 acc[7]
*11 clk
*12 data_in[0]
*13 data_in[1]
*14 data_in[2]
*15 data_in[3]
*16 data_in[4]
*17 data_in[5]
*18 data_in[6]
*19 data_in[7]
*20 rst
*21 _00_
*22 _01_
*23 _02_
*24 _03_
*25 _04_
*26 _05_
*27 _06_
*28 _07_
*29 _08_
*30 _09_
*31 _10_
*32 _11_
*33 _12_
*34 _13_
*35 _14_
*36 _15_
*37 _16_
*38 _17_
*39 _18_
*40 _19_
*41 _20_
*42 _21_
*43 _22_
*44 _23_
*45 _24_
*46 _25_
*47 _26_
*48 _27_
*49 _28_
*50 _29_
*51 _30_
*52 _31_
*53 _32_
*54 _33_
*55 _34_
*56 _35_
*57 _36_
*58 _37_
*59 _38_
*60 _39_
*61 _40_
*62 _41_
*63 adder\.high\.sum\[0\]
*64 adder\.high\.sum\[1\]
*65 adder\.high\.sum\[2\]
*66 adder\.high\.sum\[3\]
*67 adder\.low\.p\[0\]
*68 adder\.low\.sum\[1\]
*69 adder\.low\.sum\[2\]
*70 adder\.low\.sum\[3\]
*71 clknet_0_clk
*72 clknet_1_0__leaf_clk
*73 clknet_1_1__leaf_clk
*74 net1
*75 net10
*76 net11
*77 net12
*78 net13
*79 net14
*80 net15
*81 net16
*82 net17
*83 net2
*84 net3
*85 net4
*86 net5
*87 net6
*88 net7
*89 net8
*90 net9
*91 FILLER_0_11
*92 FILLER_0_23
*93 FILLER_0_29
*94 FILLER_0_3
*95 FILLER_0_46
*96 FILLER_0_50
*97 FILLER_0_55
*98 FILLER_0_60
*99 FILLER_10_15
*100 FILLER_10_27
*101 FILLER_10_29
*102 FILLER_10_3
*103 FILLER_10_41
*104 FILLER_10_48
*105 FILLER_10_57
*106 FILLER_1_23
*107 FILLER_1_52
*108 FILLER_1_57
*109 FILLER_2_18
*110 FILLER_2_25
*111 FILLER_2_32
*112 FILLER_2_38
*113 FILLER_2_64
*114 FILLER_3_11
*115 FILLER_3_3
*116 FILLER_3_55
*117 FILLER_3_7
*118 FILLER_4_23
*119 FILLER_4_44
*120 FILLER_5_15
*121 FILLER_5_6
*122 FILLER_5_64
*123 FILLER_6_15
*124 FILLER_6_22
*125 FILLER_6_29
*126 FILLER_6_3
*127 FILLER_7_27
*128 FILLER_7_33
*129 FILLER_7_41
*130 FILLER_7_54
*131 FILLER_8_14
*132 FILLER_8_20
*133 FILLER_8_24
*134 FILLER_8_29
*135 FILLER_8_3
*136 FILLER_8_37
*137 FILLER_8_41
*138 FILLER_9_15
*139 FILLER_9_36
*140 FILLER_9_52
*141 FILLER_9_57
*142 FILLER_9_7
*143 PHY_EDGE_ROW_0_Left_11
*144 PHY_EDGE_ROW_0_Right_0
*145 PHY_EDGE_ROW_10_Left_21
*146 PHY_EDGE_ROW_10_Right_10
*147 PHY_EDGE_ROW_1_Left_12
*148 PHY_EDGE_ROW_1_Right_1
*149 PHY_EDGE_ROW_2_Left_13
*150 PHY_EDGE_ROW_2_Right_2
*151 PHY_EDGE_ROW_3_Left_14
*152 PHY_EDGE_ROW_3_Right_3
*153 PHY_EDGE_ROW_4_Left_15
*154 PHY_EDGE_ROW_4_Right_4
*155 PHY_EDGE_ROW_5_Left_16
*156 PHY_EDGE_ROW_5_Right_5
*157 PHY_EDGE_ROW_6_Left_17
*158 PHY_EDGE_ROW_6_Right_6
*159 PHY_EDGE_ROW_7_Left_18
*160 PHY_EDGE_ROW_7_Right_7
*161 PHY_EDGE_ROW_8_Left_19
*162 PHY_EDGE_ROW_8_Right_8
*163 PHY_EDGE_ROW_9_Left_20
*164 PHY_EDGE_ROW_9_Right_9
*165 TAP_TAPCELL_ROW_0_22
*166 TAP_TAPCELL_ROW_0_23
*167 TAP_TAPCELL_ROW_10_33
*168 TAP_TAPCELL_ROW_10_34
*169 TAP_TAPCELL_ROW_1_24
*170 TAP_TAPCELL_ROW_2_25
*171 TAP_TAPCELL_ROW_3_26
*172 TAP_TAPCELL_ROW_4_27
*173 TAP_TAPCELL_ROW_5_28
*174 TAP_TAPCELL_ROW_6_29
*175 TAP_TAPCELL_ROW_7_30
*176 TAP_TAPCELL_ROW_8_31
*177 TAP_TAPCELL_ROW_9_32
*178 _42_
*179 _43_
*180 _44_
*181 _45_
*182 _46_
*183 _47_
*184 _48_
*185 _49_
*186 _50_
*187 _51_
*188 _52_
*189 _53_
*190 _54_
*191 _55_
*192 _56_
*193 _57_
*194 _58_
*195 _59_
*196 _60_
*197 _61_
*198 _62_
*199 _63_
*200 _64_
*201 _65_
*202 _66_
*203 _67_
*204 _68_
*205 _69_
*206 _70_
*207 _71_
*208 _72_
*209 _73_
*210 _74_
*211 _75_
*212 _76_
*213 _77_
*214 _78_
*215 _79_
*216 _80_
*217 _81_
*218 _82_
*219 _83_
*220 _84_
*221 _85_
*222 _86_
*223 _87_
*224 _88_
*225 _89_
*226 _90_
*227 _91_
*228 _92_
*229 _93_
*230 _94_
*231 _95_
*232 _96_
*233 _97_
*234 _98_
*235 _99_
*236 clkbuf_0_clk
*237 clkbuf_1_0__f_clk
*238 clkbuf_1_1__f_clk
*239 input1
*240 input2
*241 input3
*242 input4
*243 input5
*244 input6
*245 input7
*246 input8
*247 input9
*248 output10
*249 output11
*250 output12
*251 output13
*252 output14
*253 output15
*254 output16
*255 output17

*PORTS
acc[0] O
acc[1] O
acc[2] O
acc[3] O
acc[4] O
acc[5] O
acc[6] O
acc[7] O
clk I
data_in[0] I
data_in[1] I
data_in[2] I
data_in[3] I
data_in[4] I
data_in[5] I
data_in[6] I
data_in[7] I
rst I

*D_NET *3 0.00154965
*CONN
*P acc[0] O
*I *248:X O *D sky130_fd_sc_hd__buf_2
*CAP
1 acc[0] 0.000461132
2 *248:X 0.000461132
3 acc[0] acc[7] 0
4 acc[0] *211:A 0.000204802
5 acc[0] *239:A 8.28789e-05
6 acc[0] *246:A 0.000339707
7 acc[0] *255:A 0
8 acc[0] *75:14 0
*RES
1 *248:X acc[0] 11.2668 
*END

*D_NET *4 0.000525063
*CONN
*P acc[1] O
*I *249:X O *D sky130_fd_sc_hd__buf_2
*CAP
1 acc[1] 0.000216258
2 *249:X 0.000216258
3 acc[1] *188:B 0
4 acc[1] *240:A 9.25475e-05
*RES
1 *249:X acc[1] 5.41503 
*END

*D_NET *5 0.00107772
*CONN
*P acc[2] O
*I *250:X O *D sky130_fd_sc_hd__buf_2
*CAP
1 acc[2] 0.000309201
2 *250:X 0.000309201
3 acc[2] *188:B 7.04609e-05
4 acc[2] *241:A 0.00032069
5 acc[2] *250:A 6.81633e-05
*RES
1 *250:X acc[2] 10.185 
*END

*D_NET *6 0.000883854
*CONN
*P acc[3] O
*I *251:X O *D sky130_fd_sc_hd__buf_2
*CAP
1 acc[3] 0.000417929
2 *251:X 0.000417929
3 acc[3] *183:A 2.26018e-05
4 acc[3] *241:A 0
5 acc[3] *242:A 0
6 acc[3] *251:A 1.83847e-05
7 acc[3] *77:38 7.00889e-06
*RES
1 *251:X acc[3] 10.53 
*END

*D_NET *7 0.000671733
*CONN
*P acc[4] O
*I *252:X O *D sky130_fd_sc_hd__buf_2
*CAP
1 acc[4] 0.000308724
2 *252:X 0.000308724
3 acc[4] acc[5] 2.24901e-05
4 acc[4] *243:A 2.81454e-05
5 acc[4] *252:A 3.64998e-06
*RES
1 *252:X acc[4] 7.1793 
*END

*D_NET *8 0.000599614
*CONN
*P acc[5] O
*I *253:X O *D sky130_fd_sc_hd__buf_2
*CAP
1 acc[5] 0.000259639
2 *253:X 0.000259639
3 acc[5] *202:A 5.78448e-05
4 acc[4] acc[5] 2.24901e-05
*RES
1 *253:X acc[5] 5.92503 
*END

*D_NET *9 0.000662369
*CONN
*P acc[6] O
*I *254:X O *D sky130_fd_sc_hd__buf_2
*CAP
1 acc[6] 0.000211209
2 *254:X 0.000211209
3 acc[6] acc[7] 8.95716e-05
4 acc[6] *226:A 4.40358e-05
5 acc[6] *81:12 0.000106344
*RES
1 *254:X acc[6] 5.92503 
*END

*D_NET *10 0.000512264
*CONN
*P acc[7] O
*I *255:X O *D sky130_fd_sc_hd__buf_2
*CAP
1 acc[7] 0.000167674
2 *255:X 0.000167674
3 acc[7] *211:A 4.43871e-06
4 acc[7] *246:A 7.92997e-05
5 acc[7] *255:A 3.60648e-06
6 acc[0] acc[7] 0
7 acc[6] acc[7] 8.95716e-05
*RES
1 *255:X acc[7] 4.90503 
*END

*D_NET *11 0.00144998
*CONN
*P clk I
*I *236:A I *D sky130_fd_sc_hd__clkbuf_16
*CAP
1 clk 0.000602702
2 *236:A 0.000602702
3 *236:A *197:B 0.000164874
4 *236:A *233:CLK 0
5 *236:A *243:A 7.97013e-05
*RES
1 clk *236:A 11.2535 
*END

*D_NET *12 0.0016151
*CONN
*P data_in[0] I
*I *239:A I *D sky130_fd_sc_hd__clkbuf_1
*CAP
1 data_in[0] 0.000449999
2 *239:A 0.000449999
3 *239:A *178:A 0.000229154
4 *239:A *228:RESET_B 2.10433e-05
5 *239:A *247:A 0.000209936
6 *239:A *76:12 7.21296e-06
7 *239:A *90:14 0.000164874
8 acc[0] *239:A 8.28789e-05
*RES
1 data_in[0] *239:A 12.1368 
*END

*D_NET *13 0.00177988
*CONN
*P data_in[1] I
*I *240:A I *D sky130_fd_sc_hd__clkbuf_1
*CAP
1 data_in[1] 0.000637174
2 *240:A 0.000637174
3 *240:A *186:A 0.000164874
4 *240:A *214:B 0
5 *240:A *247:A 8.49085e-05
6 *240:A *36:16 0.000163199
7 *240:A *76:12 0
8 acc[1] *240:A 9.25475e-05
*RES
1 data_in[1] *240:A 8.2477 
*END

*D_NET *14 0.0021866
*CONN
*P data_in[2] I
*I *241:A I *D sky130_fd_sc_hd__buf_1
*CAP
1 data_in[2] 0.000734435
2 *241:A 0.000734435
3 *241:A *188:B 2.09211e-05
4 *241:A *215:B1 4.99524e-05
5 *241:A *216:B 7.52827e-05
6 *241:A *33:14 0.000137578
7 *241:A *39:29 0
8 *241:A *77:18 4.77719e-05
9 *241:A *90:14 6.55328e-05
10 acc[2] *241:A 0.00032069
11 acc[3] *241:A 0
*RES
1 data_in[2] *241:A 21.4 
*END

*D_NET *15 0.00111187
*CONN
*P data_in[3] I
*I *242:A I *D sky130_fd_sc_hd__clkbuf_1
*CAP
1 data_in[3] 0.000480637
2 *242:A 0.000480637
3 *242:A *251:A 0.0001506
4 acc[3] *242:A 0
*RES
1 data_in[3] *242:A 12.285 
*END

*D_NET *16 0.000630269
*CONN
*P data_in[4] I
*I *243:A I *D sky130_fd_sc_hd__clkbuf_1
*CAP
1 data_in[4] 0.000261211
2 *243:A 0.000261211
3 *243:A *233:CLK 0
4 acc[4] *243:A 2.81454e-05
5 *236:A *243:A 7.97013e-05
*RES
1 data_in[4] *243:A 7.3443 
*END

*D_NET *17 0.0010364
*CONN
*P data_in[5] I
*I *244:A I *D sky130_fd_sc_hd__clkbuf_1
*CAP
1 data_in[5] 0.000518198
2 *244:A 0.000518198
*RES
1 data_in[5] *244:A 12.825 
*END

*D_NET *18 0.00105353
*CONN
*P data_in[6] I
*I *245:A I *D sky130_fd_sc_hd__clkbuf_1
*CAP
1 data_in[6] 0.000511306
2 *245:A 0.000511306
3 *245:A *52:10 3.09164e-05
*RES
1 data_in[6] *245:A 12.825 
*END

*D_NET *19 0.0024134
*CONN
*P data_in[7] I
*I *246:A I *D sky130_fd_sc_hd__clkbuf_1
*CAP
1 data_in[7] 0.000473098
2 *246:A 0.000473098
3 *246:A *211:A 0.000610913
4 *246:A *226:A 5.05094e-05
5 *246:A *227:A 3.50152e-06
6 *246:A *255:A 4.82919e-05
7 *246:A *75:14 8.65905e-05
8 *246:A *75:23 0.000177857
9 *246:A *90:89 7.05395e-05
10 acc[0] *246:A 0.000339707
11 acc[7] *246:A 7.92997e-05
*RES
1 data_in[7] *246:A 15.3935 
*END

*D_NET *20 0.000772644
*CONN
*P rst I
*I *247:A I *D sky130_fd_sc_hd__clkbuf_4
*CAP
1 rst 0.000175047
2 *247:A 0.000175047
3 *247:A *178:A 0.000127705
4 *239:A *247:A 0.000209936
5 *240:A *247:A 8.49085e-05
*RES
1 rst *247:A 6.18003 
*END

*D_NET *21 0.000341411
*CONN
*I *228:RESET_B I *D sky130_fd_sc_hd__dfrtp_1
*I *178:Y O *D sky130_fd_sc_hd__inv_2
*CAP
1 *228:RESET_B 0.000142587
2 *178:Y 0.000142587
3 *228:RESET_B *178:A 9.50342e-06
4 *228:RESET_B *220:B 0
5 *228:RESET_B *75:14 2.56899e-05
6 *239:A *228:RESET_B 2.10433e-05
*RES
1 *178:Y *228:RESET_B 7.9775 
*END

*D_NET *22 0.000666469
*CONN
*I *229:RESET_B I *D sky130_fd_sc_hd__dfrtp_1
*I *221:Y O *D sky130_fd_sc_hd__inv_2
*CAP
1 *229:RESET_B 0.000333235
2 *221:Y 0.000333235
*RES
1 *221:Y *229:RESET_B 5.5675 
*END

*D_NET *23 0.00153469
*CONN
*I *230:RESET_B I *D sky130_fd_sc_hd__dfrtp_1
*I *222:Y O *D sky130_fd_sc_hd__inv_2
*CAP
1 *230:RESET_B 0.000436431
2 *222:Y 0.000436431
3 *230:RESET_B *194:A1 0.000118081
4 *230:RESET_B *194:B1 7.67415e-06
5 *230:RESET_B *195:B 4.46271e-05
6 *230:RESET_B *196:C1 0.00012657
7 *230:RESET_B *230:CLK 4.6368e-06
8 *230:RESET_B *232:RESET_B 0.000195075
9 *230:RESET_B *32:27 1.33293e-05
10 *230:RESET_B *41:46 1.91597e-05
11 *230:RESET_B *42:41 8.90199e-05
12 *230:RESET_B *77:18 4.36534e-05
*RES
1 *222:Y *230:RESET_B 12.7475 
*END

*D_NET *24 0.000296082
*CONN
*I *231:RESET_B I *D sky130_fd_sc_hd__dfrtp_1
*I *223:Y O *D sky130_fd_sc_hd__inv_2
*CAP
1 *231:RESET_B 3.59859e-05
2 *223:Y 3.59859e-05
3 *231:RESET_B *182:A 8.08439e-05
4 *231:RESET_B *223:A 0.000143266
*RES
1 *223:Y *231:RESET_B 7.235 
*END

*D_NET *25 0.00170465
*CONN
*I *232:RESET_B I *D sky130_fd_sc_hd__dfrtp_1
*I *224:Y O *D sky130_fd_sc_hd__inv_2
*CAP
1 *232:RESET_B 0.000496429
2 *224:Y 0.000496429
3 *232:RESET_B *217:A 4.11729e-05
4 *232:RESET_B *230:CLK 3.2505e-05
5 *232:RESET_B *79:26 2.49909e-05
6 *232:RESET_B *90:29 0.000418051
7 *230:RESET_B *232:RESET_B 0.000195075
*RES
1 *224:Y *232:RESET_B 14.1725 
*END

*D_NET *26 0.000349755
*CONN
*I *233:RESET_B I *D sky130_fd_sc_hd__dfrtp_1
*I *225:Y O *D sky130_fd_sc_hd__inv_2
*CAP
1 *233:RESET_B 0.000121481
2 *225:Y 0.000121481
3 *233:RESET_B *210:A2 0
4 *233:RESET_B *29:19 9.24049e-05
5 *233:RESET_B *46:21 0
6 *233:RESET_B *79:26 1.4389e-05
*RES
1 *225:Y *233:RESET_B 7.94 
*END

*D_NET *27 0.000313596
*CONN
*I *234:RESET_B I *D sky130_fd_sc_hd__dfrtp_1
*I *226:Y O *D sky130_fd_sc_hd__inv_2
*CAP
1 *234:RESET_B 7.36252e-05
2 *226:Y 7.36252e-05
3 *234:RESET_B *226:A 0.000166346
*RES
1 *226:Y *234:RESET_B 7.49 
*END

*D_NET *28 0.000907713
*CONN
*I *235:RESET_B I *D sky130_fd_sc_hd__dfrtp_1
*I *227:Y O *D sky130_fd_sc_hd__inv_2
*CAP
1 *235:RESET_B 0.000178816
2 *227:Y 0.000178816
3 *235:RESET_B *189:B 9.37731e-05
4 *235:RESET_B *211:A 0.000122325
5 *235:RESET_B *219:A 0.00012904
6 *235:RESET_B *39:10 6.57032e-05
7 *235:RESET_B *74:10 0.000139238
*RES
1 *227:Y *235:RESET_B 9.905 
*END

*D_NET *29 0.00347313
*CONN
*I *208:C1 I *D sky130_fd_sc_hd__o211a_1
*I *206:A1 I *D sky130_fd_sc_hd__a31o_1
*I *201:A I *D sky130_fd_sc_hd__nand2_1
*I *181:A I *D sky130_fd_sc_hd__nand2_1
*I *179:Y O *D sky130_fd_sc_hd__nand2_1
*CAP
1 *208:C1 0.00029727
2 *206:A1 1.60636e-05
3 *201:A 0.000173442
4 *181:A 0.000110611
5 *179:Y 0
6 *29:38 0.000540647
7 *29:19 0.000705217
8 *29:4 0.000415073
9 *181:A *179:A 2.69203e-05
10 *181:A *79:32 5.062e-06
11 *201:A *201:B 0.000216047
12 *201:A *202:B 3.00381e-05
13 *206:A1 *200:A_N 4.00541e-06
14 *206:A1 *253:A 0
15 *208:C1 *206:A2 0
16 *208:C1 *207:B 0.000220207
17 *208:C1 *208:A1 3.90495e-05
18 *208:C1 *208:B1 4.77757e-05
19 *208:C1 *210:A2 4.82863e-05
20 *208:C1 *48:25 4.66826e-05
21 *29:19 *210:A2 0
22 *29:19 *233:D 0
23 *29:19 *79:26 8.15602e-05
24 *29:19 *79:32 3.52139e-06
25 *29:19 *80:10 9.54399e-05
26 *29:38 *200:A_N 4.21973e-05
27 *29:38 *253:A 4.66108e-05
28 *29:38 *48:25 8.34281e-06
29 *29:38 *80:10 3.09233e-05
30 *29:38 *80:21 0.000129735
31 *233:RESET_B *29:19 9.24049e-05
*RES
1 *179:Y *29:4 1.6 
2 *29:4 *181:A 3.265 
3 *29:4 *29:19 7.34 
4 *29:19 *201:A 6.825 
5 *29:19 *29:38 5.735 
6 *29:38 *206:A1 1.96 
7 *29:38 *208:C1 10.775 
*END

*D_NET *30 9.24855e-05
*CONN
*I *181:B I *D sky130_fd_sc_hd__nand2_1
*I *180:X O *D sky130_fd_sc_hd__or2_1
*CAP
1 *181:B 1.9184e-05
2 *180:X 1.9184e-05
3 *181:B *179:A 4.82863e-05
4 *181:B *31:10 5.83121e-06
*RES
1 *180:X *181:B 3.65 
*END

*D_NET *31 0.00266514
*CONN
*I *196:C1 I *D sky130_fd_sc_hd__a311o_1
*I *195:A I *D sky130_fd_sc_hd__nand2_1
*I *181:Y O *D sky130_fd_sc_hd__nand2_1
*CAP
1 *196:C1 0.000489793
2 *195:A 6.98907e-05
3 *181:Y 0.000212374
4 *31:10 0.000772058
5 *195:A *195:B 9.50342e-06
6 *195:A *197:A 9.54399e-05
7 *195:A *32:27 0
8 *195:A *72:10 7.53115e-05
9 *195:A *72:27 4.99619e-05
10 *196:C1 *196:B1 9.53428e-06
11 *196:C1 *222:A 8.8266e-05
12 *196:C1 *237:A 9.53428e-06
13 *196:C1 *32:27 0.000186993
14 *31:10 *179:A 1.47347e-05
15 *31:10 *197:A 0.000210846
16 *31:10 *233:CLK 0.000186627
17 *31:10 *72:10 5.18691e-05
18 *181:B *31:10 5.83121e-06
19 *230:RESET_B *196:C1 0.00012657
*RES
1 *181:Y *31:10 9 
2 *31:10 *195:A 5.685 
3 *31:10 *196:C1 11.895 
*END

*D_NET *32 0.00274873
*CONN
*I *194:B1 I *D sky130_fd_sc_hd__a31o_1
*I *196:B1 I *D sky130_fd_sc_hd__a311o_1
*I *193:A_N I *D sky130_fd_sc_hd__nand2b_1
*I *182:Y O *D sky130_fd_sc_hd__nor2_1
*CAP
1 *194:B1 0.000192615
2 *196:B1 2.74413e-05
3 *193:A_N 7.56012e-05
4 *182:Y 0
5 *32:27 0.000745487
6 *32:4 0.000601032
7 *193:A_N *42:41 3.70488e-05
8 *194:B1 *194:A1 1.41165e-05
9 *194:B1 *194:A2 0.000270708
10 *194:B1 *41:46 4.11718e-05
11 *194:B1 *46:10 0.000234251
12 *196:B1 *194:A2 1.37328e-05
13 *32:27 *197:A 0
14 *32:27 *217:B 0.000137563
15 *32:27 *222:A 5.05521e-05
16 *32:27 *223:A 0
17 *32:27 *232:D 7.82232e-05
18 *32:27 *237:A 0
19 *32:27 *46:10 1.16578e-05
20 *195:A *32:27 0
21 *196:C1 *196:B1 9.53428e-06
22 *196:C1 *32:27 0.000186993
23 *230:RESET_B *194:B1 7.67415e-06
24 *230:RESET_B *32:27 1.33293e-05
*RES
1 *182:Y *32:4 1.6 
2 *32:4 *193:A_N 3.025 
3 *32:4 *32:27 13.42 
4 *32:27 *196:B1 2.215 
5 *32:27 *194:B1 6.205 
*END

*D_NET *33 0.00128727
*CONN
*I *191:B1 I *D sky130_fd_sc_hd__a211o_1
*I *215:A1 I *D sky130_fd_sc_hd__o211ai_1
*I *183:X O *D sky130_fd_sc_hd__and2_1
*CAP
1 *191:B1 3.7138e-05
2 *215:A1 0
3 *183:X 0.000272978
4 *33:14 0.000310116
5 *191:B1 *191:A1 0.000108511
6 *191:B1 *191:A2 2.72392e-05
7 *33:14 *188:A 4.40028e-05
8 *33:14 *190:B 0
9 *33:14 *191:A1 5.54803e-05
10 *33:14 *191:A2 9.00196e-05
11 *33:14 *213:B1 0
12 *33:14 *250:A 1.16854e-05
13 *33:14 *36:25 8.23457e-05
14 *33:14 *38:10 8.51879e-05
15 *33:14 *39:29 0
16 *33:14 *40:6 2.49909e-05
17 *241:A *33:14 0.000137578
*RES
1 *183:X *33:14 10.895 
2 *33:14 *215:A1 1.6 
3 *33:14 *191:B1 3.115 
*END

*D_NET *34 0.00323215
*CONN
*I *194:A1 I *D sky130_fd_sc_hd__a31o_1
*I *196:A1 I *D sky130_fd_sc_hd__a311o_1
*I *217:A I *D sky130_fd_sc_hd__nand2_1
*I *184:Y O *D sky130_fd_sc_hd__nand2_1
*CAP
1 *194:A1 0.000176747
2 *196:A1 0
3 *217:A 0.00058222
4 *184:Y 0.000234796
5 *34:31 0.000209842
6 *34:10 0.000850112
7 *194:A1 *194:A2 3.24882e-05
8 *194:A1 *194:A3 0.00019746
9 *194:A1 *41:46 4.66108e-05
10 *217:A *230:CLK 0.000113291
11 *217:A *72:27 8.96272e-05
12 *34:10 *216:B 8.65905e-05
13 *34:10 *41:46 8.35193e-05
14 *34:10 *42:41 0.000110517
15 *34:10 *77:30 0
16 *34:10 *79:26 7.13969e-05
17 *34:31 *41:46 8.45475e-05
18 *34:31 *79:26 8.90199e-05
19 *194:B1 *194:A1 1.41165e-05
20 *230:RESET_B *194:A1 0.000118081
21 *232:RESET_B *217:A 4.11729e-05
*RES
1 *184:Y *34:10 7.815 
2 *34:10 *217:A 11.535 
3 *34:10 *34:31 3.125 
4 *34:31 *196:A1 1.6 
5 *34:31 *194:A1 5.17 
*END

*D_NET *35 0.000888925
*CONN
*I *215:A2 I *D sky130_fd_sc_hd__o211ai_1
*I *191:C1 I *D sky130_fd_sc_hd__a211o_1
*I *185:Y O *D sky130_fd_sc_hd__nor2_1
*CAP
1 *215:A2 5.45377e-05
2 *191:C1 4.68656e-05
3 *185:Y 0.000189383
4 *35:6 0.000290787
5 *191:C1 *216:B 2.55338e-05
6 *191:C1 *77:38 0
7 *215:A2 *191:A2 8.4841e-05
8 *35:6 *191:A2 0.000162409
9 *35:6 *77:30 3.45679e-05
*RES
1 *185:Y *35:6 4.12 
2 *35:6 *191:C1 6.47 
3 *35:6 *215:A2 2.395 
*END

*D_NET *36 0.00290515
*CONN
*I *187:A I *D sky130_fd_sc_hd__inv_2
*I *191:A1 I *D sky130_fd_sc_hd__a211o_1
*I *215:B1 I *D sky130_fd_sc_hd__o211ai_1
*I *190:C_N I *D sky130_fd_sc_hd__or3b_1
*I *186:Y O *D sky130_fd_sc_hd__nand2_1
*CAP
1 *187:A 1.90984e-05
2 *191:A1 0.000225407
3 *215:B1 1.84372e-05
4 *190:C_N 0
5 *186:Y 7.16509e-05
6 *36:25 0.000325471
7 *36:16 0.000282555
8 *36:6 0.000291677
9 *187:A *186:A 4.00541e-06
10 *191:A1 *191:A2 3.56211e-05
11 *215:B1 *216:B 5.12462e-05
12 *36:6 *186:A 6.90876e-05
13 *36:16 *186:A 6.90876e-05
14 *36:16 *190:A 8.52845e-05
15 *36:16 *213:A1 0.000238137
16 *36:16 *213:B1 0.000125092
17 *36:16 *214:A 4.82863e-05
18 *36:16 *214:B 0.000137571
19 *36:16 *39:29 1.42807e-05
20 *36:16 *40:6 8.0687e-05
21 *36:16 *90:14 0.000234354
22 *36:25 *40:6 9.47972e-06
23 *36:25 *90:14 9.13949e-06
24 *191:B1 *191:A1 0.000108511
25 *240:A *36:16 0.000163199
26 *241:A *215:B1 4.99524e-05
27 *33:14 *191:A1 5.54803e-05
28 *33:14 *36:25 8.23457e-05
*RES
1 *186:Y *36:6 3.085 
2 *36:6 *36:16 11.185 
3 *36:16 *190:C_N 1.6 
4 *36:16 *36:25 1.5 
5 *36:25 *215:B1 6.215 
6 *36:25 *191:A1 5.095 
7 *36:6 *187:A 1.96 
*END

*D_NET *37 0.000991394
*CONN
*I *213:A1 I *D sky130_fd_sc_hd__o21ai_1
*I *187:Y O *D sky130_fd_sc_hd__inv_2
*CAP
1 *213:A1 0.000198331
2 *187:Y 0.000198331
3 *213:A1 *188:A 0.000102612
4 *213:A1 *213:B1 4.77719e-05
5 *213:A1 *214:B 0.000158435
6 *213:A1 *38:10 4.77757e-05
7 *36:16 *213:A1 0.000238137
*RES
1 *187:Y *213:A1 11.715 
*END

*D_NET *38 0.000698184
*CONN
*I *213:A2 I *D sky130_fd_sc_hd__o21ai_1
*I *190:B I *D sky130_fd_sc_hd__or3b_1
*I *188:Y O *D sky130_fd_sc_hd__nor2_1
*CAP
1 *213:A2 0
2 *190:B 5.2984e-05
3 *188:Y 0.00012816
4 *38:10 0.000181144
5 *190:B *213:B1 2.81245e-05
6 *38:10 *188:A 0.000174808
7 *213:A1 *38:10 4.77757e-05
8 *33:14 *190:B 0
9 *33:14 *38:10 8.51879e-05
*RES
1 *188:Y *38:10 4.24 
2 *38:10 *190:B 6.47 
3 *38:10 *213:A2 1.6 
*END

*D_NET *39 0.00391038
*CONN
*I *190:A I *D sky130_fd_sc_hd__or3b_1
*I *213:B1 I *D sky130_fd_sc_hd__o21ai_1
*I *220:A I *D sky130_fd_sc_hd__and2_1
*I *189:Y O *D sky130_fd_sc_hd__nand2_1
*CAP
1 *190:A 1.5611e-05
2 *213:B1 0.00014632
3 *220:A 0.000228854
4 *189:Y 0.000371264
5 *39:29 0.00043143
6 *39:10 0.000869618
7 *190:A *40:6 8.52845e-05
8 *213:B1 *188:A 2.04923e-05
9 *220:A *220:B 0.000241483
10 *220:A *228:D 7.67345e-05
11 *220:A *229:CLK 1.1477e-05
12 *220:A *73:14 0
13 *220:A *77:18 0.00018352
14 *39:10 *189:B 0.000174548
15 *39:10 *228:D 9.71067e-05
16 *39:10 *229:CLK 9.89114e-05
17 *39:10 *234:CLK 7.73812e-05
18 *39:10 *73:10 0.000186092
19 *39:10 *73:14 0.000118513
20 *39:10 *74:10 0
21 *39:29 *229:CLK 6.14376e-05
22 *39:29 *229:D 4.80505e-05
23 *39:29 *74:10 0
24 *190:B *213:B1 2.81245e-05
25 *213:A1 *213:B1 4.77719e-05
26 *235:RESET_B *39:10 6.57032e-05
27 *241:A *39:29 0
28 *33:14 *213:B1 0
29 *33:14 *39:29 0
30 *36:16 *190:A 8.52845e-05
31 *36:16 *213:B1 0.000125092
32 *36:16 *39:29 1.42807e-05
*RES
1 *189:Y *39:10 12.2025 
2 *39:10 *220:A 9.5625 
3 *39:10 *39:29 4.9575 
4 *39:29 *213:B1 6.495 
5 *39:29 *190:A 4.395 
*END

*D_NET *40 0.00165715
*CONN
*I *214:A I *D sky130_fd_sc_hd__and2_1
*I *215:C1 I *D sky130_fd_sc_hd__o211ai_1
*I *191:A2 I *D sky130_fd_sc_hd__a211o_1
*I *190:X O *D sky130_fd_sc_hd__or3b_1
*CAP
1 *214:A 0.000108283
2 *215:C1 2.08101e-05
3 *191:A2 0.000159132
4 *190:X 0
5 *40:6 0.000342023
6 *40:4 0.000270364
7 *214:A *214:B 4.82919e-05
8 *214:A *90:14 5.93869e-05
9 *190:A *40:6 8.52845e-05
10 *191:A1 *191:A2 3.56211e-05
11 *191:B1 *191:A2 2.72392e-05
12 *215:A2 *191:A2 8.4841e-05
13 *33:14 *191:A2 9.00196e-05
14 *33:14 *40:6 2.49909e-05
15 *35:6 *191:A2 0.000162409
16 *36:16 *214:A 4.82863e-05
17 *36:16 *40:6 8.0687e-05
18 *36:25 *40:6 9.47972e-06
*RES
1 *190:X *40:4 1.6 
2 *40:4 *40:6 2.865 
3 *40:6 *191:A2 5.425 
4 *40:6 *215:C1 1.96 
5 *40:4 *214:A 3.79 
*END

*D_NET *41 0.00350206
*CONN
*I *194:A2 I *D sky130_fd_sc_hd__a31o_1
*I *196:A2 I *D sky130_fd_sc_hd__a311o_1
*I *217:B I *D sky130_fd_sc_hd__nand2_1
*I *216:A I *D sky130_fd_sc_hd__and2_1
*I *191:X O *D sky130_fd_sc_hd__a211o_1
*CAP
1 *194:A2 7.03427e-05
2 *196:A2 0
3 *217:B 0.000293339
4 *216:A 0
5 *191:X 3.0307e-05
6 *41:46 0.000483993
7 *41:16 0.000511248
8 *41:8 0.000661867
9 *194:A2 *194:A3 0.00019746
10 *217:B *195:B 0
11 *217:B *218:B 0
12 *217:B *223:A 4.4123e-05
13 *217:B *231:CLK 0
14 *41:8 *77:30 7.23533e-05
15 *41:8 *84:16 2.66935e-05
16 *41:16 *182:A 0
17 *41:16 *216:B 0.000198939
18 *41:16 *223:A 5.16418e-05
19 *41:16 *42:41 5.42949e-05
20 *41:46 *223:A 0
21 *41:46 *77:30 4.9968e-05
22 *41:46 *79:26 1.1561e-05
23 *41:46 *84:16 1.44259e-05
24 *194:A1 *194:A2 3.24882e-05
25 *194:A1 *41:46 4.66108e-05
26 *194:B1 *194:A2 0.000270708
27 *194:B1 *41:46 4.11718e-05
28 *196:B1 *194:A2 1.37328e-05
29 *230:RESET_B *41:46 1.91597e-05
30 *32:27 *217:B 0.000137563
31 *34:10 *41:46 8.35193e-05
32 *34:31 *41:46 8.45475e-05
*RES
1 *191:X *41:8 4.47 
2 *41:8 *41:16 7.135 
3 *41:16 *216:A 3.6 
4 *41:16 *217:B 8.28 
5 *41:8 *41:46 9.08 
6 *41:46 *196:A2 1.6 
7 *41:46 *194:A2 4.48 
*END

*D_NET *42 0.00364955
*CONN
*I *194:A3 I *D sky130_fd_sc_hd__a31o_1
*I *196:A3 I *D sky130_fd_sc_hd__a311o_1
*I *193:B I *D sky130_fd_sc_hd__nand2b_1
*I *192:Y O *D sky130_fd_sc_hd__nand2_1
*CAP
1 *194:A3 3.4047e-05
2 *196:A3 0
3 *193:B 5.3958e-06
4 *192:Y 0.000243162
5 *42:41 0.000696523
6 *42:12 0.000911034
7 *42:12 *182:B 5.7344e-05
8 *42:12 *192:B 1.47256e-05
9 *42:12 *231:CLK 0
10 *42:12 *231:D 0
11 *42:12 *251:A 5.83121e-06
12 *42:12 *78:12 0.000105841
13 *42:41 *182:A 4.82919e-05
14 *42:41 *195:B 1.66731e-05
15 *42:41 *216:B 6.35977e-05
16 *42:41 *230:CLK 0.000119774
17 *42:41 *230:D 0.000275548
18 *42:41 *79:26 0.000172797
19 *42:41 *84:10 8.8266e-05
20 *42:41 *84:16 0.0001049
21 *193:A_N *42:41 3.70488e-05
22 *194:A1 *194:A3 0.00019746
23 *194:A2 *194:A3 0.00019746
24 *230:RESET_B *42:41 8.90199e-05
25 *34:10 *42:41 0.000110517
26 *41:16 *42:41 5.42949e-05
*RES
1 *192:Y *42:12 9.815 
2 *42:12 *193:B 1.70875 
3 *42:12 *42:41 20.57 
4 *42:41 *196:A3 1.6 
5 *42:41 *194:A3 3.43 
*END

*D_NET *43 0.00015904
*CONN
*I *218:A I *D sky130_fd_sc_hd__xnor2_1
*I *193:Y O *D sky130_fd_sc_hd__nand2b_1
*CAP
1 *218:A 7.95201e-05
2 *193:Y 7.95201e-05
*RES
1 *193:Y *218:A 4.34 
*END

*D_NET *44 0.00293488
*CONN
*I *195:B I *D sky130_fd_sc_hd__nand2_1
*I *194:X O *D sky130_fd_sc_hd__a31o_1
*CAP
1 *195:B 0.00136467
2 *194:X 0.00136467
3 *195:B *230:D 1.92979e-05
4 *195:B *231:CLK 1.93765e-05
5 *195:B *72:10 3.09233e-05
6 *195:B *90:29 6.51314e-05
7 *195:A *195:B 9.50342e-06
8 *217:B *195:B 0
9 *230:RESET_B *195:B 4.46271e-05
10 *42:41 *195:B 1.66731e-05
*RES
1 *194:X *195:B 12.1777 
*END

*D_NET *45 0.000588402
*CONN
*I *197:A I *D sky130_fd_sc_hd__and2_1
*I *195:Y O *D sky130_fd_sc_hd__nand2_1
*CAP
1 *197:A 0.000141058
2 *195:Y 0.000141058
3 *197:A *232:D 0
4 *195:A *197:A 9.54399e-05
5 *31:10 *197:A 0.000210846
6 *32:27 *197:A 0
*RES
1 *195:Y *197:A 10.62 
*END

*D_NET *46 0.00415961
*CONN
*I *206:A2 I *D sky130_fd_sc_hd__a31o_1
*I *201:B I *D sky130_fd_sc_hd__nand2_1
*I *210:A1 I *D sky130_fd_sc_hd__a21oi_1
*I *197:B I *D sky130_fd_sc_hd__and2_1
*I *196:X O *D sky130_fd_sc_hd__a311o_1
*CAP
1 *206:A2 8.35314e-05
2 *201:B 0.000215869
3 *210:A1 0
4 *197:B 0.000295649
5 *196:X 0.000237244
6 *46:34 0.000476911
7 *46:21 0.000391534
8 *46:10 0.000746918
9 *197:B *232:D 6.6925e-05
10 *197:B *237:A 0.000186204
11 *201:B *198:B 4.82919e-05
12 *201:B *209:A1 5.05521e-05
13 *206:A2 *198:A 0.000159964
14 *206:A2 *210:A2 0
15 *46:10 *237:A 0
16 *46:10 *79:26 7.19794e-05
17 *46:21 *210:A2 9.50342e-06
18 *46:21 *212:A 8.08439e-05
19 *46:21 *225:A 0
20 *46:21 *237:A 0
21 *46:21 *79:26 4.92096e-05
22 *46:21 *90:29 0
23 *46:21 *90:41 0
24 *46:21 *90:89 0
25 *46:34 *209:A1 0.000131782
26 *46:34 *209:A2 0
27 *46:34 *210:A2 0.000175901
28 *46:34 *210:B1 5.39718e-05
29 *46:34 *90:89 0
30 *194:B1 *46:10 0.000234251
31 *201:A *201:B 0.000216047
32 *208:C1 *206:A2 0
33 *233:RESET_B *46:21 0
34 *236:A *197:B 0.000164874
35 *32:27 *46:10 1.16578e-05
*RES
1 *196:X *46:10 7.41 
2 *46:10 *197:B 9.915 
3 *46:10 *46:21 4.185 
4 *46:21 *210:A1 3.6 
5 *46:21 *46:34 6.32 
6 *46:34 *201:B 5.965 
7 *46:34 *206:A2 7.49 
*END

*D_NET *47 0.00146589
*CONN
*I *209:A1 I *D sky130_fd_sc_hd__a21o_1
*I *206:B1 I *D sky130_fd_sc_hd__a31o_1
*I *200:A_N I *D sky130_fd_sc_hd__nand2b_1
*I *198:Y O *D sky130_fd_sc_hd__nor2_1
*CAP
1 *209:A1 0.000259606
2 *206:B1 0
3 *200:A_N 3.48055e-05
4 *198:Y 0
5 *47:10 0.000114256
6 *47:4 0.000339056
7 *200:A_N *200:B 5.17316e-05
8 *200:A_N *253:A 2.20447e-05
9 *200:A_N *48:25 1.62913e-05
10 *209:A1 *209:B1 5.06989e-05
11 *209:A1 *210:B1 4.82863e-05
12 *47:10 *198:A 0.000183043
13 *47:10 *199:B 1.52184e-05
14 *47:10 *210:A2 0
15 *47:10 *80:10 1.70935e-05
16 *47:10 *80:21 8.52172e-05
17 *201:B *209:A1 5.05521e-05
18 *206:A1 *200:A_N 4.00541e-06
19 *29:38 *200:A_N 4.21973e-05
20 *46:34 *209:A1 0.000131782
*RES
1 *198:Y *47:4 1.6 
2 *47:4 *47:10 6.4 
3 *47:10 *200:A_N 2.755 
4 *47:10 *206:B1 1.6 
5 *47:4 *209:A1 6.19 
*END

*D_NET *48 0.00105464
*CONN
*I *208:A1 I *D sky130_fd_sc_hd__o211a_1
*I *206:A3 I *D sky130_fd_sc_hd__a31o_1
*I *200:B I *D sky130_fd_sc_hd__nand2b_1
*I *199:Y O *D sky130_fd_sc_hd__nand2_1
*CAP
1 *208:A1 8.99676e-05
2 *206:A3 0
3 *200:B 8.13691e-05
4 *199:Y 3.3915e-05
5 *48:25 0.000162765
6 *48:10 0.000188081
7 *200:B *253:A 2.40143e-05
8 *208:A1 *207:B 0.000164874
9 *48:10 *198:A 9.54469e-05
10 *48:10 *199:B 5.21046e-05
11 *200:A_N *200:B 5.17316e-05
12 *200:A_N *48:25 1.62913e-05
13 *208:C1 *208:A1 3.90495e-05
14 *208:C1 *48:25 4.66826e-05
15 *29:38 *48:25 8.34281e-06
*RES
1 *199:Y *48:10 6.725 
2 *48:10 *200:B 3.20875 
3 *48:10 *48:25 1.5 
4 *48:25 *206:A3 1.6 
5 *48:25 *208:A1 3.775 
*END

*D_NET *49 0.000862996
*CONN
*I *202:A I *D sky130_fd_sc_hd__xnor2_1
*I *200:Y O *D sky130_fd_sc_hd__nand2b_1
*CAP
1 *202:A 0.000285182
2 *200:Y 0.000285182
3 *202:A *253:A 0.000234786
4 acc[5] *202:A 5.78448e-05
*RES
1 *200:Y *202:A 12.645 
*END

*D_NET *50 0.000258573
*CONN
*I *202:B I *D sky130_fd_sc_hd__xnor2_1
*I *201:Y O *D sky130_fd_sc_hd__nand2_1
*CAP
1 *202:B 0.000114267
2 *201:Y 0.000114267
3 *201:A *202:B 3.00381e-05
*RES
1 *201:Y *202:B 5.03 
*END

*D_NET *51 0.00284969
*CONN
*I *208:A2 I *D sky130_fd_sc_hd__o211a_1
*I *205:A_N I *D sky130_fd_sc_hd__and2b_1
*I *209:B1 I *D sky130_fd_sc_hd__a21o_1
*I *203:Y O *D sky130_fd_sc_hd__nor2_1
*CAP
1 *208:A2 0.000343015
2 *205:A_N 0.00010472
3 *209:B1 0.000218471
4 *203:Y 0
5 *51:17 0.000524588
6 *51:4 0.000295324
7 *205:A_N *207:A 0.000119866
8 *205:A_N *52:27 0.000119866
9 *205:A_N *81:22 0.000178331
10 *208:A2 *203:A 3.26035e-05
11 *208:A2 *204:B 1.31828e-05
12 *208:A2 *207:B 1.31297e-05
13 *208:A2 *208:B1 0.000229158
14 *208:A2 *52:27 0.000195688
15 *209:B1 *203:B 8.52883e-05
16 *209:B1 *209:A2 8.52845e-05
17 *51:17 *203:A 0.000175234
18 *51:17 *203:B 4.04686e-05
19 *51:17 *204:B 2.47705e-05
20 *209:A1 *209:B1 5.06989e-05
*RES
1 *203:Y *51:4 1.6 
2 *51:4 *209:B1 5.515 
3 *51:4 *51:17 4.145 
4 *51:17 *205:A_N 6.465 
5 *51:17 *208:A2 8.73 
*END

*D_NET *52 0.00245892
*CONN
*I *209:A2 I *D sky130_fd_sc_hd__a21o_1
*I *208:B1 I *D sky130_fd_sc_hd__o211a_1
*I *205:B I *D sky130_fd_sc_hd__and2b_1
*I *204:Y O *D sky130_fd_sc_hd__nand2_1
*CAP
1 *209:A2 0.000164288
2 *208:B1 5.51433e-05
3 *205:B 0.000133408
4 *204:Y 0.000182074
5 *52:27 0.000328607
6 *52:10 0.000424657
7 *205:B *203:A 3.86284e-05
8 *208:B1 *207:B 7.04705e-05
9 *209:A2 *203:B 7.63204e-05
10 *209:A2 *204:B 4.92206e-05
11 *209:A2 *210:A2 0
12 *52:10 *203:A 8.37979e-05
13 *52:10 *204:A 4.89295e-05
14 *52:27 *207:A 4.30166e-05
15 *52:27 *207:B 4.21973e-05
16 *52:27 *81:22 9.47972e-06
17 *205:A_N *52:27 0.000119866
18 *208:A2 *208:B1 0.000229158
19 *208:A2 *52:27 0.000195688
20 *208:C1 *208:B1 4.77757e-05
21 *209:B1 *209:A2 8.52845e-05
22 *245:A *52:10 3.09164e-05
23 *46:34 *209:A2 0
*RES
1 *204:Y *52:10 6.63 
2 *52:10 *205:B 5.37 
3 *52:10 *52:27 4.865 
4 *52:27 *208:B1 3.79 
5 *52:27 *209:A2 9.05 
*END

*D_NET *53 0.000485549
*CONN
*I *207:A I *D sky130_fd_sc_hd__xnor2_1
*I *205:X O *D sky130_fd_sc_hd__and2b_1
*CAP
1 *207:A 6.33582e-05
2 *205:X 6.33582e-05
3 *207:A *81:22 0.00019595
4 *205:A_N *207:A 0.000119866
5 *52:27 *207:A 4.30166e-05
*RES
1 *205:X *207:A 5.39 
*END

*D_NET *54 0.00104169
*CONN
*I *207:B I *D sky130_fd_sc_hd__xnor2_1
*I *206:X O *D sky130_fd_sc_hd__a31o_1
*CAP
1 *207:B 0.000259968
2 *206:X 0.000259968
3 *207:B *81:22 1.08758e-05
4 *208:A1 *207:B 0.000164874
5 *208:A2 *207:B 1.31297e-05
6 *208:B1 *207:B 7.04705e-05
7 *208:C1 *207:B 0.000220207
8 *52:27 *207:B 4.21973e-05
*RES
1 *206:X *207:B 9.23 
*END

*D_NET *55 0.000648008
*CONN
*I *210:A2 I *D sky130_fd_sc_hd__a21oi_1
*I *208:X O *D sky130_fd_sc_hd__o211a_1
*CAP
1 *210:A2 0.000207159
2 *208:X 0.000207159
3 *210:A2 *198:A 0
4 *210:A2 *80:10 0
5 *206:A2 *210:A2 0
6 *208:C1 *210:A2 4.82863e-05
7 *209:A2 *210:A2 0
8 *233:RESET_B *210:A2 0
9 *29:19 *210:A2 0
10 *46:21 *210:A2 9.50342e-06
11 *46:34 *210:A2 0.000175901
12 *47:10 *210:A2 0
*RES
1 *208:X *210:A2 11.07 
*END

*D_NET *56 0.000278935
*CONN
*I *210:B1 I *D sky130_fd_sc_hd__a21oi_1
*I *209:X O *D sky130_fd_sc_hd__a21o_1
*CAP
1 *210:B1 8.83386e-05
2 *209:X 8.83386e-05
3 *209:A1 *210:B1 4.82863e-05
4 *46:34 *210:B1 5.39718e-05
*RES
1 *209:X *210:B1 8.775 
*END

*D_NET *57 0.000371742
*CONN
*I *212:A I *D sky130_fd_sc_hd__xnor2_1
*I *210:Y O *D sky130_fd_sc_hd__a21oi_1
*CAP
1 *212:A 0.000111052
2 *210:Y 0.000111052
3 *212:A *79:26 4.77719e-05
4 *212:A *90:39 2.10214e-05
5 *46:21 *212:A 8.08439e-05
*RES
1 *210:Y *212:A 9.63 
*END

*D_NET *58 0.00179418
*CONN
*I *212:B I *D sky130_fd_sc_hd__xnor2_1
*I *211:Y O *D sky130_fd_sc_hd__xnor2_1
*CAP
1 *212:B 0.000392348
2 *211:Y 0.000392348
3 *212:B *189:A 0.000267325
4 *212:B *189:B 0.000271408
5 *212:B *220:B 0
6 *212:B *224:A 8.52883e-05
7 *212:B *238:A 5.93081e-05
8 *212:B *73:8 8.87364e-05
9 *212:B *75:14 7.63125e-05
10 *212:B *90:39 0.000161101
*RES
1 *211:Y *212:B 16.53 
*END

*D_NET *59 0.000789527
*CONN
*I *214:B I *D sky130_fd_sc_hd__and2_1
*I *213:Y O *D sky130_fd_sc_hd__o21ai_1
*CAP
1 *214:B 0.000198468
2 *213:Y 0.000198468
3 *214:B *90:14 4.82919e-05
4 *213:A1 *214:B 0.000158435
5 *214:A *214:B 4.82919e-05
6 *240:A *214:B 0
7 *36:16 *214:B 0.000137571
*RES
1 *213:Y *214:B 10.77 
*END

*D_NET *60 0.00156506
*CONN
*I *216:B I *D sky130_fd_sc_hd__and2_1
*I *215:Y O *D sky130_fd_sc_hd__o211ai_1
*CAP
1 *216:B 0.000308301
2 *215:Y 0.000308301
3 *216:B *77:18 0.000184909
4 *216:B *77:30 4.99619e-05
5 *216:B *84:10 1.60203e-05
6 *216:B *84:16 0.000196376
7 *191:C1 *216:B 2.55338e-05
8 *215:B1 *216:B 5.12462e-05
9 *241:A *216:B 7.52827e-05
10 *34:10 *216:B 8.65905e-05
11 *41:16 *216:B 0.000198939
12 *42:41 *216:B 6.35977e-05
*RES
1 *215:Y *216:B 14.895 
*END

*D_NET *61 0.000623385
*CONN
*I *218:B I *D sky130_fd_sc_hd__xnor2_1
*I *217:Y O *D sky130_fd_sc_hd__nand2_1
*CAP
1 *218:B 0.000191779
2 *217:Y 0.000191779
3 *218:B *231:CLK 0.000120186
4 *218:B *72:27 0.00011964
5 *217:B *218:B 0
*RES
1 *217:Y *218:B 10.41 
*END

*D_NET *62 0.00149183
*CONN
*I *220:B I *D sky130_fd_sc_hd__and2_1
*I *219:X O *D sky130_fd_sc_hd__or2_1
*CAP
1 *220:B 0.000392978
2 *219:X 0.000392978
3 *220:B *219:A 7.63204e-05
4 *220:B *228:D 9.66106e-05
5 *220:B *74:10 0.000291459
6 *220:B *75:14 0
7 *212:B *220:B 0
8 *220:A *220:B 0.000241483
9 *228:RESET_B *220:B 0
*RES
1 *219:X *220:B 16.875 
*END

*D_NET *63 0.00089057
*CONN
*I *232:D I *D sky130_fd_sc_hd__dfrtp_1
*I *197:X O *D sky130_fd_sc_hd__and2_1
*CAP
1 *232:D 0.000316271
2 *197:X 0.000316271
3 *232:D *223:A 6.06887e-05
4 *232:D *90:41 5.21912e-05
5 *197:A *232:D 0
6 *197:B *232:D 6.6925e-05
7 *32:27 *232:D 7.82232e-05
*RES
1 *197:X *232:D 12.36 
*END

*D_NET *64 0.000142198
*CONN
*I *233:D I *D sky130_fd_sc_hd__dfrtp_1
*I *202:Y O *D sky130_fd_sc_hd__xnor2_1
*CAP
1 *233:D 7.1099e-05
2 *202:Y 7.1099e-05
3 *29:19 *233:D 0
*RES
1 *202:Y *233:D 8.325 
*END

*D_NET *65 0.000475857
*CONN
*I *234:D I *D sky130_fd_sc_hd__dfrtp_1
*I *207:Y O *D sky130_fd_sc_hd__xnor2_1
*CAP
1 *234:D 0.000177753
2 *207:Y 0.000177753
3 *234:D *203:A 3.62197e-05
4 *234:D *81:22 8.41307e-05
*RES
1 *207:Y *234:D 9.58875 
*END

*D_NET *66 0.00028771
*CONN
*I *235:D I *D sky130_fd_sc_hd__dfrtp_1
*I *212:Y O *D sky130_fd_sc_hd__xnor2_1
*CAP
1 *235:D 7.08234e-05
2 *212:Y 7.08234e-05
3 *235:D *235:CLK 1.4389e-05
4 *235:D *238:A 3.6227e-05
5 *235:D *90:29 9.54469e-05
*RES
1 *212:Y *235:D 8.775 
*END

*D_NET *67 0.000861174
*CONN
*I *228:D I *D sky130_fd_sc_hd__dfrtp_1
*I *220:X O *D sky130_fd_sc_hd__and2_1
*CAP
1 *228:D 0.000276927
2 *220:X 0.000276927
3 *228:D *74:10 3.68682e-05
4 *220:A *228:D 7.67345e-05
5 *220:B *228:D 9.66106e-05
6 *39:10 *228:D 9.71067e-05
*RES
1 *220:X *228:D 11.535 
*END

*D_NET *68 0.000192896
*CONN
*I *229:D I *D sky130_fd_sc_hd__dfrtp_1
*I *214:X O *D sky130_fd_sc_hd__and2_1
*CAP
1 *229:D 7.24226e-05
2 *214:X 7.24226e-05
3 *229:D *74:10 0
4 *39:29 *229:D 4.80505e-05
*RES
1 *214:X *229:D 8.325 
*END

*D_NET *69 0.00140584
*CONN
*I *230:D I *D sky130_fd_sc_hd__dfrtp_1
*I *216:X O *D sky130_fd_sc_hd__and2_1
*CAP
1 *230:D 0.000427735
2 *216:X 0.000427735
3 *230:D *77:18 0.00013433
4 *230:D *84:10 8.55298e-05
5 *230:D *90:29 3.56649e-05
6 *195:B *230:D 1.92979e-05
7 *42:41 *230:D 0.000275548
*RES
1 *216:X *230:D 13.515 
*END

*D_NET *70 0.000488966
*CONN
*I *231:D I *D sky130_fd_sc_hd__dfrtp_1
*I *218:Y O *D sky130_fd_sc_hd__xnor2_1
*CAP
1 *231:D 0.000197597
2 *218:Y 0.000197597
3 *231:D *231:CLK 9.37731e-05
4 *42:12 *231:D 0
*RES
1 *218:Y *231:D 9.975 
*END

*D_NET *71 0.00243612
*CONN
*I *238:A I *D sky130_fd_sc_hd__clkbuf_16
*I *237:A I *D sky130_fd_sc_hd__clkbuf_16
*I *236:X O *D sky130_fd_sc_hd__clkbuf_16
*CAP
1 *238:A 0.000387694
2 *237:A 0.000428577
3 *236:X 0
4 *71:4 0.000816271
5 *237:A *79:26 0
6 *237:A *90:41 0.000230876
7 *238:A *189:A 4.89295e-05
8 *238:A *224:A 7.44125e-05
9 *238:A *235:CLK 1.18961e-06
10 *238:A *79:26 2.75092e-05
11 *238:A *90:29 6.94735e-06
12 *238:A *90:39 0.000122435
13 *196:C1 *237:A 9.53428e-06
14 *197:B *237:A 0.000186204
15 *212:B *238:A 5.93081e-05
16 *235:D *238:A 3.6227e-05
17 *32:27 *237:A 0
18 *46:10 *237:A 0
19 *46:21 *237:A 0
*RES
1 *236:X *71:4 1.6 
2 *71:4 *237:A 12.425 
3 *71:4 *238:A 11.42 
*END

*D_NET *72 0.00412053
*CONN
*I *233:CLK I *D sky130_fd_sc_hd__dfrtp_1
*I *232:CLK I *D sky130_fd_sc_hd__dfrtp_1
*I *230:CLK I *D sky130_fd_sc_hd__dfrtp_1
*I *231:CLK I *D sky130_fd_sc_hd__dfrtp_1
*I *237:X O *D sky130_fd_sc_hd__clkbuf_16
*CAP
1 *233:CLK 0.000229013
2 *232:CLK 0
3 *230:CLK 0.00058865
4 *231:CLK 0.000307391
5 *237:X 4.43379e-05
6 *72:27 0.00071296
7 *72:10 0.00055459
8 *72:8 0.000396239
9 *230:CLK *79:26 4.77719e-05
10 *233:CLK *252:A 8.2644e-05
11 *233:CLK *86:12 4.94326e-05
12 *195:A *72:10 7.53115e-05
13 *195:A *72:27 4.99619e-05
14 *195:B *231:CLK 1.93765e-05
15 *195:B *72:10 3.09233e-05
16 *217:A *230:CLK 0.000113291
17 *217:A *72:27 8.96272e-05
18 *217:B *231:CLK 0
19 *218:B *231:CLK 0.000120186
20 *218:B *72:27 0.00011964
21 *230:RESET_B *230:CLK 4.6368e-06
22 *231:D *231:CLK 9.37731e-05
23 *232:RESET_B *230:CLK 3.2505e-05
24 *236:A *233:CLK 0
25 *243:A *233:CLK 0
26 *31:10 *233:CLK 0.000186627
27 *31:10 *72:10 5.18691e-05
28 *42:12 *231:CLK 0
29 *42:41 *230:CLK 0.000119774
*RES
1 *237:X *72:8 4.05 
2 *72:8 *72:10 2.91 
3 *72:10 *231:CLK 9.12 
4 *72:10 *72:27 4.865 
5 *72:27 *230:CLK 10.045 
6 *72:27 *232:CLK 1.6 
7 *72:8 *233:CLK 9.06 
*END

*D_NET *73 0.00379084
*CONN
*I *234:CLK I *D sky130_fd_sc_hd__dfrtp_1
*I *235:CLK I *D sky130_fd_sc_hd__dfrtp_1
*I *228:CLK I *D sky130_fd_sc_hd__dfrtp_1
*I *229:CLK I *D sky130_fd_sc_hd__dfrtp_1
*I *238:X O *D sky130_fd_sc_hd__clkbuf_16
*CAP
1 *234:CLK 0.000340282
2 *235:CLK 0.000370981
3 *228:CLK 0
4 *229:CLK 0.000233044
5 *238:X 0.00038241
6 *73:14 0.000319749
7 *73:10 0.000542991
8 *73:8 0.000807997
9 *229:CLK *90:29 0
10 *234:CLK *189:B 1.6783e-05
11 *234:CLK *203:A 9.09788e-06
12 *234:CLK *90:29 0
13 *234:CLK *90:89 0
14 *73:8 *189:A 0.000109377
15 *212:B *73:8 8.87364e-05
16 *220:A *229:CLK 1.1477e-05
17 *220:A *73:14 0
18 *235:D *235:CLK 1.4389e-05
19 *238:A *235:CLK 1.18961e-06
20 *39:10 *229:CLK 9.89114e-05
21 *39:10 *234:CLK 7.73812e-05
22 *39:10 *73:10 0.000186092
23 *39:10 *73:14 0.000118513
24 *39:29 *229:CLK 6.14376e-05
*RES
1 *238:X *73:8 8.19 
2 *73:8 *73:10 2.145 
3 *73:10 *73:14 1.83 
4 *73:14 *229:CLK 8.34 
5 *73:14 *228:CLK 3.6 
6 *73:10 *235:CLK 7.77 
7 *73:8 *234:CLK 8.85 
*END

*D_NET *74 0.00254317
*CONN
*I *219:A I *D sky130_fd_sc_hd__or2_1
*I *189:A I *D sky130_fd_sc_hd__nand2_1
*I *239:X O *D sky130_fd_sc_hd__clkbuf_1
*CAP
1 *219:A 8.42867e-05
2 *189:A 7.41552e-05
3 *239:X 0.000502622
4 *74:10 0.000661064
5 *219:A *189:B 3.4222e-05
6 *219:A *75:14 0
7 *74:10 *76:12 0
8 *74:10 *90:14 8.8266e-05
9 *212:B *189:A 0.000267325
10 *220:B *219:A 7.63204e-05
11 *220:B *74:10 0.000291459
12 *228:D *74:10 3.68682e-05
13 *229:D *74:10 0
14 *235:RESET_B *219:A 0.00012904
15 *235:RESET_B *74:10 0.000139238
16 *238:A *189:A 4.89295e-05
17 *39:10 *74:10 0
18 *39:29 *74:10 0
19 *73:8 *189:A 0.000109377
*RES
1 *239:X *74:10 13.935 
2 *74:10 *189:A 6.12 
3 *74:10 *219:A 6 
*END

*D_NET *75 0.00315919
*CONN
*I *219:B I *D sky130_fd_sc_hd__or2_1
*I *189:B I *D sky130_fd_sc_hd__nand2_1
*I *248:A I *D sky130_fd_sc_hd__buf_2
*I *228:Q O *D sky130_fd_sc_hd__dfrtp_1
*CAP
1 *219:B 0
2 *189:B 0.000224708
3 *248:A 0
4 *228:Q 0.00042182
5 *75:23 0.000298151
6 *75:14 0.000495263
7 *189:B *90:29 2.97004e-06
8 *189:B *90:89 1.94892e-05
9 *75:14 *226:A 4.35348e-05
10 *75:14 *255:A 0.000379649
11 *75:23 *226:A 0.000316421
12 acc[0] *75:14 0
13 *212:B *189:B 0.000271408
14 *212:B *75:14 7.63125e-05
15 *219:A *189:B 3.4222e-05
16 *219:A *75:14 0
17 *220:B *75:14 0
18 *228:RESET_B *75:14 2.56899e-05
19 *234:CLK *189:B 1.6783e-05
20 *235:RESET_B *189:B 9.37731e-05
21 *246:A *75:14 8.65905e-05
22 *246:A *75:23 0.000177857
23 *39:10 *189:B 0.000174548
*RES
1 *228:Q *75:14 13.94 
2 *75:14 *248:A 1.6 
3 *75:14 *75:23 3.225 
4 *75:23 *189:B 14.88 
5 *75:23 *219:B 1.6 
*END

*D_NET *76 0.00287621
*CONN
*I *249:A I *D sky130_fd_sc_hd__buf_2
*I *186:B I *D sky130_fd_sc_hd__nand2_1
*I *188:B I *D sky130_fd_sc_hd__nor2_1
*I *229:Q O *D sky130_fd_sc_hd__dfrtp_1
*CAP
1 *249:A 0
2 *186:B 0
3 *188:B 0.000933667
4 *229:Q 0.000301826
5 *76:14 0.000992321
6 *76:12 0.000360479
7 *188:B *188:A 4.77757e-05
8 *188:B *250:A 4.77757e-05
9 *76:12 *178:A 9.37731e-05
10 acc[1] *188:B 0
11 acc[2] *188:B 7.04609e-05
12 *239:A *76:12 7.21296e-06
13 *240:A *76:12 0
14 *241:A *188:B 2.09211e-05
15 *74:10 *76:12 0
*RES
1 *229:Q *76:12 10.07 
2 *76:12 *76:14 0.795 
3 *76:14 *188:B 20.85 
4 *76:14 *186:B 1.6 
5 *76:12 *249:A 1.6 
*END

*D_NET *77 0.00417489
*CONN
*I *184:B I *D sky130_fd_sc_hd__nand2_1
*I *185:B I *D sky130_fd_sc_hd__nor2_1
*I *183:B I *D sky130_fd_sc_hd__and2_1
*I *250:A I *D sky130_fd_sc_hd__buf_2
*I *230:Q O *D sky130_fd_sc_hd__dfrtp_1
*CAP
1 *184:B 0
2 *185:B 0
3 *183:B 0
4 *250:A 0.000193151
5 *230:Q 0.000580794
6 *77:38 0.000437832
7 *77:30 0.000501797
8 *77:18 0.00083791
9 *250:A *188:A 0.000157012
10 *77:18 *84:10 0.000169351
11 *77:18 *90:29 0.000116853
12 *77:30 *84:10 4.99619e-05
13 *77:30 *84:16 0
14 *77:38 *183:A 0.000189023
15 *77:38 *223:A 0
16 *77:38 *84:16 5.53249e-06
17 acc[2] *250:A 6.81633e-05
18 acc[3] *77:38 7.00889e-06
19 *188:B *250:A 4.77757e-05
20 *191:C1 *77:38 0
21 *216:B *77:18 0.000184909
22 *216:B *77:30 4.99619e-05
23 *220:A *77:18 0.00018352
24 *230:D *77:18 0.00013433
25 *230:RESET_B *77:18 4.36534e-05
26 *241:A *77:18 4.77719e-05
27 *33:14 *250:A 1.16854e-05
28 *34:10 *77:30 0
29 *35:6 *77:30 3.45679e-05
30 *41:8 *77:30 7.23533e-05
31 *41:46 *77:30 4.9968e-05
*RES
1 *230:Q *77:18 15.59 
2 *77:18 *77:30 7.93 
3 *77:30 *77:38 8.575 
4 *77:38 *250:A 5.76625 
5 *77:38 *183:B 1.6 
6 *77:30 *185:B 1.6 
7 *77:18 *184:B 1.6 
*END

*D_NET *78 0.00202313
*CONN
*I *182:B I *D sky130_fd_sc_hd__nor2_1
*I *251:A I *D sky130_fd_sc_hd__buf_2
*I *192:B I *D sky130_fd_sc_hd__nand2_1
*I *231:Q O *D sky130_fd_sc_hd__dfrtp_1
*CAP
1 *182:B 4.0009e-05
2 *251:A 0.00015771
3 *192:B 2.18719e-05
4 *231:Q 0.000246612
5 *78:12 0.000279043
6 *78:8 0.000386082
7 *182:B *182:A 0.000116165
8 *251:A *183:A 1.16578e-05
9 *251:A *85:8 0.000160641
10 *78:12 *182:A 0.000198974
11 *78:12 *192:A 5.16418e-05
12 acc[3] *251:A 1.83847e-05
13 *242:A *251:A 0.0001506
14 *42:12 *182:B 5.7344e-05
15 *42:12 *192:B 1.47256e-05
16 *42:12 *251:A 5.83121e-06
17 *42:12 *78:12 0.000105841
*RES
1 *231:Q *78:8 6.12 
2 *78:8 *78:12 4.91 
3 *78:12 *192:B 2.05 
4 *78:12 *251:A 5.53 
5 *78:8 *182:B 4.98 
*END

*D_NET *79 0.00387252
*CONN
*I *179:B I *D sky130_fd_sc_hd__nand2_1
*I *180:B I *D sky130_fd_sc_hd__or2_1
*I *252:A I *D sky130_fd_sc_hd__buf_2
*I *232:Q O *D sky130_fd_sc_hd__dfrtp_1
*CAP
1 *179:B 0
2 *180:B 0
3 *252:A 0.000185785
4 *232:Q 0.000644887
5 *79:32 0.000506119
6 *79:26 0.000965222
7 *252:A *86:12 9.50342e-06
8 *79:26 *90:39 0.000464608
9 *79:32 *179:A 0.000243265
10 *79:32 *86:12 4.82919e-05
11 acc[4] *252:A 3.64998e-06
12 *181:A *79:32 5.062e-06
13 *212:A *79:26 4.77719e-05
14 *230:CLK *79:26 4.77719e-05
15 *232:RESET_B *79:26 2.49909e-05
16 *233:CLK *252:A 8.2644e-05
17 *233:RESET_B *79:26 1.4389e-05
18 *237:A *79:26 0
19 *238:A *79:26 2.75092e-05
20 *29:19 *79:26 8.15602e-05
21 *29:19 *79:32 3.52139e-06
22 *34:10 *79:26 7.13969e-05
23 *34:31 *79:26 8.90199e-05
24 *41:46 *79:26 1.1561e-05
25 *42:41 *79:26 0.000172797
26 *46:10 *79:26 7.19794e-05
27 *46:21 *79:26 4.92096e-05
*RES
1 *232:Q *79:26 20.255 
2 *79:26 *79:32 4.53 
3 *79:32 *252:A 9.05 
4 *79:32 *180:B 1.6 
5 *79:26 *179:B 1.6 
*END

*D_NET *80 0.0023859
*CONN
*I *199:B I *D sky130_fd_sc_hd__nand2_1
*I *253:A I *D sky130_fd_sc_hd__buf_2
*I *198:B I *D sky130_fd_sc_hd__nor2_1
*I *233:Q O *D sky130_fd_sc_hd__dfrtp_1
*CAP
1 *199:B 0.000173618
2 *253:A 0.000267511
3 *198:B 2.2266e-05
4 *233:Q 0.000259417
5 *80:21 0.00050332
6 *80:10 0.000343875
7 *199:B *198:A 1.44177e-05
8 *200:A_N *253:A 2.20447e-05
9 *200:B *253:A 2.40143e-05
10 *201:B *198:B 4.82919e-05
11 *202:A *253:A 0.000234786
12 *206:A1 *253:A 0
13 *210:A2 *80:10 0
14 *29:19 *80:10 9.54399e-05
15 *29:38 *253:A 4.66108e-05
16 *29:38 *80:10 3.09233e-05
17 *29:38 *80:21 0.000129735
18 *47:10 *199:B 1.52184e-05
19 *47:10 *80:10 1.70935e-05
20 *47:10 *80:21 8.52172e-05
21 *48:10 *199:B 5.21046e-05
*RES
1 *233:Q *80:10 7.155 
2 *80:10 *198:B 4.05 
3 *80:10 *80:21 1.89 
4 *80:21 *253:A 9.255 
5 *80:21 *199:B 6.45 
*END

*D_NET *81 0.00281974
*CONN
*I *254:A I *D sky130_fd_sc_hd__buf_2
*I *204:B I *D sky130_fd_sc_hd__nand2_1
*I *203:B I *D sky130_fd_sc_hd__nor2_1
*I *234:Q O *D sky130_fd_sc_hd__dfrtp_1
*CAP
1 *254:A 2.08101e-05
2 *204:B 0.000215505
3 *203:B 0.000105575
4 *234:Q 0.000173675
5 *81:22 0.000778204
6 *81:12 0.000651609
7 *81:12 *226:A 0
8 acc[6] *81:12 0.000106344
9 *205:A_N *81:22 0.000178331
10 *207:A *81:22 0.00019595
11 *207:B *81:22 1.08758e-05
12 *208:A2 *204:B 1.31828e-05
13 *209:A2 *203:B 7.63204e-05
14 *209:A2 *204:B 4.92206e-05
15 *209:B1 *203:B 8.52883e-05
16 *234:D *81:22 8.41307e-05
17 *51:17 *203:B 4.04686e-05
18 *51:17 *204:B 2.47705e-05
19 *52:27 *81:22 9.47972e-06
*RES
1 *234:Q *81:12 8.63 
2 *81:12 *81:22 10.175 
3 *81:22 *203:B 6.03 
4 *81:22 *204:B 7.05 
5 *81:12 *254:A 1.96 
*END

*D_NET *82 0.00128185
*CONN
*I *211:B I *D sky130_fd_sc_hd__xnor2_1
*I *255:A I *D sky130_fd_sc_hd__buf_2
*I *235:Q O *D sky130_fd_sc_hd__dfrtp_1
*CAP
1 *211:B 0
2 *255:A 0.000133256
3 *235:Q 0.000129405
4 *82:6 0.000262661
5 *255:A *211:A 0.000319153
6 *255:A *226:A 5.83121e-06
7 acc[0] *255:A 0
8 acc[7] *255:A 3.60648e-06
9 *246:A *255:A 4.82919e-05
10 *75:14 *255:A 0.000379649
*RES
1 *235:Q *82:6 3.43 
2 *82:6 *255:A 10.49 
3 *82:6 *211:B 1.6 
*END

*D_NET *83 0.00175895
*CONN
*I *186:A I *D sky130_fd_sc_hd__nand2_1
*I *188:A I *D sky130_fd_sc_hd__nor2_1
*I *240:X O *D sky130_fd_sc_hd__clkbuf_1
*CAP
1 *186:A 0.000207454
2 *188:A 0.00024514
3 *240:X 0
4 *83:4 0.000452594
5 *188:A *183:A 0
6 *187:A *186:A 4.00541e-06
7 *188:B *188:A 4.77757e-05
8 *213:A1 *188:A 0.000102612
9 *213:B1 *188:A 2.04923e-05
10 *240:A *186:A 0.000164874
11 *250:A *188:A 0.000157012
12 *33:14 *188:A 4.40028e-05
13 *36:6 *186:A 6.90876e-05
14 *36:16 *186:A 6.90876e-05
15 *38:10 *188:A 0.000174808
*RES
1 *240:X *83:4 1.6 
2 *83:4 *188:A 7.18 
3 *83:4 *186:A 5.875 
*END

*D_NET *84 0.00189806
*CONN
*I *184:A I *D sky130_fd_sc_hd__nand2_1
*I *185:A I *D sky130_fd_sc_hd__nor2_1
*I *183:A I *D sky130_fd_sc_hd__and2_1
*I *241:X O *D sky130_fd_sc_hd__buf_1
*CAP
1 *184:A 0
2 *185:A 0
3 *183:A 0.000224677
4 *241:X 8.08982e-05
5 *84:16 0.000359199
6 *84:10 0.000215421
7 *183:A *223:A 0
8 *84:16 *223:A 3.75216e-05
9 acc[3] *183:A 2.26018e-05
10 *188:A *183:A 0
11 *216:B *84:10 1.60203e-05
12 *216:B *84:16 0.000196376
13 *230:D *84:10 8.55298e-05
14 *251:A *183:A 1.16578e-05
15 *41:8 *84:16 2.66935e-05
16 *41:46 *84:16 1.44259e-05
17 *42:41 *84:10 8.8266e-05
18 *42:41 *84:16 0.0001049
19 *77:18 *84:10 0.000169351
20 *77:30 *84:10 4.99619e-05
21 *77:30 *84:16 0
22 *77:38 *183:A 0.000189023
23 *77:38 *84:16 5.53249e-06
*RES
1 *241:X *84:10 4.495 
2 *84:10 *84:16 5.72 
3 *84:16 *183:A 8.025 
4 *84:16 *185:A 3.6 
5 *84:10 *184:A 1.6 
*END

*D_NET *85 0.00118896
*CONN
*I *182:A I *D sky130_fd_sc_hd__nor2_1
*I *192:A I *D sky130_fd_sc_hd__nand2_1
*I *242:X O *D sky130_fd_sc_hd__clkbuf_1
*CAP
1 *182:A 0.000139757
2 *192:A 2.02446e-05
3 *242:X 8.14872e-05
4 *85:8 0.000241489
5 *182:A *223:A 2.99443e-05
6 *192:A *223:A 1.94805e-05
7 *182:B *182:A 0.000116165
8 *231:RESET_B *182:A 8.08439e-05
9 *251:A *85:8 0.000160641
10 *41:16 *182:A 0
11 *42:41 *182:A 4.82919e-05
12 *78:12 *182:A 0.000198974
13 *78:12 *192:A 5.16418e-05
*RES
1 *242:X *85:8 5.085 
2 *85:8 *192:A 4.215 
3 *85:8 *182:A 7.725 
*END

*D_NET *86 0.000772948
*CONN
*I *179:A I *D sky130_fd_sc_hd__nand2_1
*I *180:A I *D sky130_fd_sc_hd__or2_1
*I *243:X O *D sky130_fd_sc_hd__clkbuf_1
*CAP
1 *179:A 7.82853e-05
2 *180:A 0
3 *243:X 8.79713e-05
4 *86:12 0.000166257
5 *181:A *179:A 2.69203e-05
6 *181:B *179:A 4.82863e-05
7 *233:CLK *86:12 4.94326e-05
8 *252:A *86:12 9.50342e-06
9 *31:10 *179:A 1.47347e-05
10 *79:32 *179:A 0.000243265
11 *79:32 *86:12 4.82919e-05
*RES
1 *243:X *86:12 7.175 
2 *86:12 *180:A 1.6 
3 *86:12 *179:A 4.135 
*END

*D_NET *87 0.000922905
*CONN
*I *199:A I *D sky130_fd_sc_hd__nand2_1
*I *198:A I *D sky130_fd_sc_hd__nor2_1
*I *244:X O *D sky130_fd_sc_hd__clkbuf_1
*CAP
1 *199:A 3.55506e-05
2 *198:A 0.000155128
3 *244:X 4.43379e-05
4 *87:6 0.000235017
5 *199:B *198:A 1.44177e-05
6 *206:A2 *198:A 0.000159964
7 *210:A2 *198:A 0
8 *47:10 *198:A 0.000183043
9 *48:10 *198:A 9.54469e-05
*RES
1 *244:X *87:6 2.05 
2 *87:6 *198:A 9.275 
3 *87:6 *199:A 2.215 
*END

*D_NET *88 0.000944409
*CONN
*I *204:A I *D sky130_fd_sc_hd__nand2_1
*I *203:A I *D sky130_fd_sc_hd__nor2_1
*I *245:X O *D sky130_fd_sc_hd__clkbuf_1
*CAP
1 *204:A 5.86079e-05
2 *203:A 0.000201341
3 *245:X 0
4 *88:4 0.000259949
5 *205:B *203:A 3.86284e-05
6 *208:A2 *203:A 3.26035e-05
7 *234:CLK *203:A 9.09788e-06
8 *234:D *203:A 3.62197e-05
9 *51:17 *203:A 0.000175234
10 *52:10 *203:A 8.37979e-05
11 *52:10 *204:A 4.89295e-05
*RES
1 *245:X *88:4 1.6 
2 *88:4 *203:A 9.83 
3 *88:4 *204:A 2.665 
*END

*D_NET *89 0.00193823
*CONN
*I *211:A I *D sky130_fd_sc_hd__xnor2_1
*I *246:X O *D sky130_fd_sc_hd__clkbuf_1
*CAP
1 *211:A 0.000338298
2 *246:X 0.000338298
3 acc[0] *211:A 0.000204802
4 acc[7] *211:A 4.43871e-06
5 *235:RESET_B *211:A 0.000122325
6 *246:A *211:A 0.000610913
7 *255:A *211:A 0.000319153
*RES
1 *246:X *211:A 16.5 
*END

*D_NET *90 0.01078
*CONN
*I *178:A I *D sky130_fd_sc_hd__inv_2
*I *226:A I *D sky130_fd_sc_hd__inv_2
*I *227:A I *D sky130_fd_sc_hd__inv_2
*I *224:A I *D sky130_fd_sc_hd__inv_2
*I *225:A I *D sky130_fd_sc_hd__inv_2
*I *222:A I *D sky130_fd_sc_hd__inv_2
*I *223:A I *D sky130_fd_sc_hd__inv_2
*I *221:A I *D sky130_fd_sc_hd__inv_2
*I *247:X O *D sky130_fd_sc_hd__clkbuf_4
*CAP
1 *178:A 0.000206215
2 *226:A 0.000547571
3 *227:A 1.9363e-05
4 *224:A 1.40069e-05
5 *225:A 4.16625e-05
6 *222:A 9.46458e-05
7 *223:A 0.000517411
8 *221:A 3.41396e-05
9 *247:X 0
10 *90:89 0.000887855
11 *90:41 0.000775676
12 *90:39 0.000633219
13 *90:31 0.000441945
14 *90:29 0.00070283
15 *90:14 0.000872315
16 *90:4 0.000662482
17 acc[6] *226:A 4.40358e-05
18 *182:A *223:A 2.99443e-05
19 *183:A *223:A 0
20 *189:B *90:29 2.97004e-06
21 *189:B *90:89 1.94892e-05
22 *192:A *223:A 1.94805e-05
23 *195:B *90:29 6.51314e-05
24 *196:C1 *222:A 8.8266e-05
25 *212:A *90:39 2.10214e-05
26 *212:B *224:A 8.52883e-05
27 *212:B *90:39 0.000161101
28 *214:A *90:14 5.93869e-05
29 *214:B *90:14 4.82919e-05
30 *217:B *223:A 4.4123e-05
31 *228:RESET_B *178:A 9.50342e-06
32 *229:CLK *90:29 0
33 *230:D *90:29 3.56649e-05
34 *231:RESET_B *223:A 0.000143266
35 *232:D *223:A 6.06887e-05
36 *232:D *90:41 5.21912e-05
37 *232:RESET_B *90:29 0.000418051
38 *234:CLK *90:29 0
39 *234:CLK *90:89 0
40 *234:RESET_B *226:A 0.000166346
41 *235:D *90:29 9.54469e-05
42 *237:A *90:41 0.000230876
43 *238:A *224:A 7.44125e-05
44 *238:A *90:29 6.94735e-06
45 *238:A *90:39 0.000122435
46 *239:A *178:A 0.000229154
47 *239:A *90:14 0.000164874
48 *241:A *90:14 6.55328e-05
49 *246:A *226:A 5.05094e-05
50 *246:A *227:A 3.50152e-06
51 *246:A *90:89 7.05395e-05
52 *247:A *178:A 0.000127705
53 *255:A *226:A 5.83121e-06
54 *32:27 *222:A 5.05521e-05
55 *32:27 *223:A 0
56 *36:16 *90:14 0.000234354
57 *36:25 *90:14 9.13949e-06
58 *41:16 *223:A 5.16418e-05
59 *41:46 *223:A 0
60 *46:21 *225:A 0
61 *46:21 *90:29 0
62 *46:21 *90:41 0
63 *46:21 *90:89 0
64 *46:34 *90:89 0
65 *74:10 *90:14 8.8266e-05
66 *75:14 *226:A 4.35348e-05
67 *75:23 *226:A 0.000316421
68 *76:12 *178:A 9.37731e-05
69 *77:18 *90:29 0.000116853
70 *77:38 *223:A 0
71 *79:26 *90:39 0.000464608
72 *81:12 *226:A 0
73 *84:16 *223:A 3.75216e-05
*RES
1 *247:X *90:4 1.6 
2 *90:4 *90:14 10.505 
3 *90:14 *221:A 4.05 
4 *90:14 *90:29 8.82 
5 *90:29 *90:31 2 
6 *90:31 *90:39 9.035 
7 *90:39 *90:41 3.8025 
8 *90:41 *223:A 12.6375 
9 *90:41 *222:A 5.4225 
10 *90:39 *225:A 4.215 
11 *90:31 *224:A 2.395 
12 *90:29 *90:89 7.175 
13 *90:89 *227:A 1.96 
14 *90:89 *226:A 14.57 
15 *90:4 *178:A 10.67 
*END
