*SPEF "ieee 1481-1999"
*DESIGN "cla8"
*DATE "04:06:04 Saturday September 19, 2026"
*VENDOR "The OpenROAD Project"
*PROGRAM "OpenROAD"
*VERSION "edf00dff99f6c40d67a30c0e22a8191c5d2ed9d6"
*DESIGN_FLOW "NAME_SCOPE LOCAL" "PIN_CAP NONE"
*DIVIDER /
*DELIMITER :
*BUS_DELIMITER []
*T_UNIT 1 NS
*C_UNIT 1 PF
*R_UNIT 1 OHM
*L_UNIT 1 HENRY

*NAME_MAP
*3 a[0]
*4 a[1]
*5 a[2]
*6 a[3]
*7 a[4]
*8 a[5]
*9 a[6]
*10 a[7]
*11 b[0]
*12 b[1]
*13 b[2]
*14 b[3]
*15 b[4]
*16 b[5]
*17 b[6]
*18 b[7]
*19 cin
*20 cout
*21 sum[0]
*22 sum[1]
*23 sum[2]
*24 sum[3]
*25 sum[4]
*26 sum[5]
*27 sum[6]
*28 sum[7]
*29 _00_
*30 _01_
*31 _02_
*32 _03_
*33 _04_
*34 _05_
*35 _06_
*36 _07_
*37 _08_
*38 _09_
*39 _10_
*40 _11_
*41 _12_
*42 _13_
*43 _14_
*44 _15_
*45 _16_
*46 _17_
*47 _18_
*48 _19_
*49 _20_
*50 _21_
*51 _22_
*52 _23_
*53 _24_
*54 _25_
*55 _26_
*56 _27_
*57 _28_
*58 _29_
*59 _30_
*60 _31_
*61 _32_
*62 _33_
*63 _34_
*64 _35_
*65 _36_
*66 _37_
*67 _38_
*68 net1
*69 net10
*70 net11
*71 net12
*72 net13
*73 net14
*74 net15
*75 net16
*76 net17
*77 net18
*78 net19
*79 net2
*80 net20
*81 net21
*82 net22
*83 net23
*84 net24
*85 net25
*86 net26
*87 net3
*88 net4
*89 net5
*90 net6
*91 net7
*92 net8
*93 net9
*94 FILLER_0_15
*95 FILLER_0_23
*96 FILLER_0_29
*97 FILLER_0_3
*98 FILLER_0_35
*99 FILLER_0_41
*100 FILLER_0_48
*101 FILLER_0_57
*102 FILLER_0_65
*103 FILLER_10_19
*104 FILLER_10_27
*105 FILLER_10_29
*106 FILLER_10_33
*107 FILLER_10_37
*108 FILLER_10_41
*109 FILLER_10_45
*110 FILLER_10_62
*111 FILLER_10_7
*112 FILLER_11_15
*113 FILLER_11_23
*114 FILLER_11_27
*115 FILLER_11_29
*116 FILLER_11_3
*117 FILLER_11_34
*118 FILLER_11_42
*119 FILLER_11_48
*120 FILLER_11_55
*121 FILLER_11_57
*122 FILLER_1_15
*123 FILLER_1_21
*124 FILLER_1_3
*125 FILLER_1_33
*126 FILLER_1_45
*127 FILLER_1_53
*128 FILLER_1_57
*129 FILLER_2_26
*130 FILLER_2_29
*131 FILLER_2_40
*132 FILLER_2_52
*133 FILLER_2_64
*134 FILLER_3_15
*135 FILLER_3_3
*136 FILLER_3_38
*137 FILLER_3_46
*138 FILLER_3_65
*139 FILLER_4_29
*140 FILLER_4_33
*141 FILLER_4_41
*142 FILLER_4_53
*143 FILLER_4_58
*144 FILLER_4_64
*145 FILLER_5_18
*146 FILLER_5_30
*147 FILLER_5_42
*148 FILLER_5_54
*149 FILLER_5_57
*150 FILLER_5_6
*151 FILLER_5_63
*152 FILLER_6_18
*153 FILLER_6_26
*154 FILLER_6_29
*155 FILLER_6_41
*156 FILLER_6_53
*157 FILLER_6_6
*158 FILLER_6_61
*159 FILLER_7_12
*160 FILLER_7_26
*161 FILLER_7_38
*162 FILLER_7_50
*163 FILLER_7_6
*164 FILLER_7_60
*165 FILLER_8_24
*166 FILLER_8_29
*167 FILLER_8_3
*168 FILLER_8_35
*169 FILLER_8_39
*170 FILLER_8_45
*171 FILLER_8_66
*172 FILLER_9_18
*173 FILLER_9_24
*174 FILLER_9_6
*175 FILLER_9_66
*176 PHY_EDGE_ROW_0_Left_12
*177 PHY_EDGE_ROW_0_Right_0
*178 PHY_EDGE_ROW_10_Left_22
*179 PHY_EDGE_ROW_10_Right_10
*180 PHY_EDGE_ROW_11_Left_23
*181 PHY_EDGE_ROW_11_Right_11
*182 PHY_EDGE_ROW_1_Left_13
*183 PHY_EDGE_ROW_1_Right_1
*184 PHY_EDGE_ROW_2_Left_14
*185 PHY_EDGE_ROW_2_Right_2
*186 PHY_EDGE_ROW_3_Left_15
*187 PHY_EDGE_ROW_3_Right_3
*188 PHY_EDGE_ROW_4_Left_16
*189 PHY_EDGE_ROW_4_Right_4
*190 PHY_EDGE_ROW_5_Left_17
*191 PHY_EDGE_ROW_5_Right_5
*192 PHY_EDGE_ROW_6_Left_18
*193 PHY_EDGE_ROW_6_Right_6
*194 PHY_EDGE_ROW_7_Left_19
*195 PHY_EDGE_ROW_7_Right_7
*196 PHY_EDGE_ROW_8_Left_20
*197 PHY_EDGE_ROW_8_Right_8
*198 PHY_EDGE_ROW_9_Left_21
*199 PHY_EDGE_ROW_9_Right_9
*200 TAP_TAPCELL_ROW_0_24
*201 TAP_TAPCELL_ROW_0_25
*202 TAP_TAPCELL_ROW_10_35
*203 TAP_TAPCELL_ROW_11_36
*204 TAP_TAPCELL_ROW_11_37
*205 TAP_TAPCELL_ROW_1_26
*206 TAP_TAPCELL_ROW_2_27
*207 TAP_TAPCELL_ROW_3_28
*208 TAP_TAPCELL_ROW_4_29
*209 TAP_TAPCELL_ROW_5_30
*210 TAP_TAPCELL_ROW_6_31
*211 TAP_TAPCELL_ROW_7_32
*212 TAP_TAPCELL_ROW_8_33
*213 TAP_TAPCELL_ROW_9_34
*214 _39_
*215 _40_
*216 _41_
*217 _42_
*218 _43_
*219 _44_
*220 _45_
*221 _46_
*222 _47_
*223 _48_
*224 _49_
*225 _50_
*226 _51_
*227 _52_
*228 _53_
*229 _54_
*230 _55_
*231 _56_
*232 _57_
*233 _58_
*234 _59_
*235 _60_
*236 _61_
*237 _62_
*238 _63_
*239 _64_
*240 _65_
*241 _66_
*242 _67_
*243 _68_
*244 _69_
*245 _70_
*246 _71_
*247 _72_
*248 _73_
*249 _74_
*250 _75_
*251 _76_
*252 _77_
*253 _78_
*254 _79_
*255 _80_
*256 _81_
*257 _82_
*258 _83_
*259 _84_
*260 _85_
*261 _86_
*262 input1
*263 input10
*264 input11
*265 input12
*266 input13
*267 input14
*268 input15
*269 input16
*270 input17
*271 input2
*272 input3
*273 input4
*274 input5
*275 input6
*276 input7
*277 input8
*278 input9
*279 output18
*280 output19
*281 output20
*282 output21
*283 output22
*284 output23
*285 output24
*286 output25
*287 output26

*PORTS
a[0] I
a[1] I
a[2] I
a[3] I
a[4] I
a[5] I
a[6] I
a[7] I
b[0] I
b[1] I
b[2] I
b[3] I
b[4] I
b[5] I
b[6] I
b[7] I
cin I
cout O
sum[0] O
sum[1] O
sum[2] O
sum[3] O
sum[4] O
sum[5] O
sum[6] O
sum[7] O

*D_NET *3 0.00052703
*CONN
*P a[0] I
*I *262:A I *D sky130_fd_sc_hd__clkbuf_1
*CAP
1 a[0] 0.00023191
2 *262:A 0.00023191
3 *262:A *278:A 6.32098e-05
*RES
1 a[0] *262:A 48.0495 
*END

*D_NET *4 0.00101345
*CONN
*P a[1] I
*I *271:A I *D sky130_fd_sc_hd__clkbuf_1
*CAP
1 a[1] 0.000503636
2 *271:A 0.000503636
3 *271:A *263:A 0
4 *271:A *79:10 6.17437e-06
*RES
1 a[1] *271:A 48.5643 
*END

*D_NET *5 0.000565793
*CONN
*P a[2] I
*I *272:A I *D sky130_fd_sc_hd__buf_1
*CAP
1 a[2] 0.000258318
2 *272:A 0.000258318
3 *272:A *266:A 0
4 *272:A *274:A 2.12457e-05
5 *272:A *13:17 2.79122e-05
*RES
1 a[2] *272:A 47.7832 
*END

*D_NET *6 0.000666589
*CONN
*P a[3] I
*I *273:A I *D sky130_fd_sc_hd__clkbuf_1
*CAP
1 a[3] 0.000320228
2 *273:A 0
3 *6:17 0.000320228
4 *6:17 *14:17 2.61329e-05
*RES
1 a[3] *6:17 27.1584 
2 *6:17 *273:A 23 
*END

*D_NET *7 0.000618748
*CONN
*P a[4] I
*I *274:A I *D sky130_fd_sc_hd__clkbuf_1
*CAP
1 a[4] 0.000284795
2 *274:A 0.000284795
3 *274:A *266:A 2.79122e-05
4 *272:A *274:A 2.12457e-05
*RES
1 a[4] *274:A 49.8062 
*END

*D_NET *8 0.000892359
*CONN
*P a[5] I
*I *275:A I *D sky130_fd_sc_hd__clkbuf_1
*CAP
1 a[5] 0.000446179
2 *275:A 0.000446179
3 *275:A *267:A 0
*RES
1 a[5] *275:A 47.3214 
*END

*D_NET *9 0.000867963
*CONN
*P a[6] I
*I *276:A I *D sky130_fd_sc_hd__clkbuf_1
*CAP
1 a[6] 0.000433981
2 *276:A 0.000433981
3 *276:A sum[5] 0
4 *276:A *268:A 0
5 *276:A *84:10 0
*RES
1 a[6] *276:A 47.4664 
*END

*D_NET *10 0.000625143
*CONN
*P a[7] I
*I *277:A I *D sky130_fd_sc_hd__clkbuf_1
*CAP
1 a[7] 0.000239609
2 *277:A 0.000239609
3 *277:A sum[1] 7.02286e-05
4 *277:A sum[7] 0
5 *277:A *269:A 7.56969e-05
*RES
1 a[7] *277:A 47.6028 
*END

*D_NET *11 0.000410314
*CONN
*P b[0] I
*I *278:A I *D sky130_fd_sc_hd__clkbuf_1
*CAP
1 b[0] 0.000137811
2 *278:A 0.000137811
3 *278:A *270:A 7.1481e-05
4 *278:A *68:10 0
5 *262:A *278:A 6.32098e-05
*RES
1 b[0] *278:A 46.9931 
*END

*D_NET *12 0.000902344
*CONN
*P b[1] I
*I *263:A I *D sky130_fd_sc_hd__clkbuf_1
*CAP
1 b[1] 0.000447405
2 *263:A 0.000447405
3 *263:A sum[2] 0
4 *263:A *79:10 7.53384e-06
5 *263:A *81:10 0
6 *271:A *263:A 0
*RES
1 b[1] *263:A 47.3214 
*END

*D_NET *13 0.00071699
*CONN
*P b[2] I
*I *264:A I *D sky130_fd_sc_hd__buf_1
*CAP
1 b[2] 0.000330094
2 *264:A 0
3 *13:17 0.000330094
4 *13:17 *14:17 2.88889e-05
5 *272:A *13:17 2.79122e-05
*RES
1 b[2] *13:17 27.8627 
2 *13:17 *264:A 23 
*END

*D_NET *14 0.000747356
*CONN
*P b[3] I
*I *265:A I *D sky130_fd_sc_hd__clkbuf_1
*CAP
1 b[3] 0.000346167
2 *265:A 0
3 *14:17 0.000346167
4 *14:17 *71:8 0
5 *6:17 *14:17 2.61329e-05
6 *13:17 *14:17 2.88889e-05
*RES
1 b[3] *14:17 28.2148 
2 *14:17 *265:A 23 
*END

*D_NET *15 0.000738692
*CONN
*P b[4] I
*I *266:A I *D sky130_fd_sc_hd__clkbuf_1
*CAP
1 b[4] 0.000344767
2 *266:A 0.000344767
3 *266:A sum[4] 2.12457e-05
4 *266:A *25:14 0
5 *266:A *72:12 0
6 *266:A *83:8 0
7 *272:A *266:A 0
8 *274:A *266:A 2.79122e-05
*RES
1 b[4] *266:A 49.5439 
*END

*D_NET *16 0.000903102
*CONN
*P b[5] I
*I *267:A I *D sky130_fd_sc_hd__clkbuf_1
*CAP
1 b[5] 0.000435407
2 *267:A 0.000435407
3 *267:A sum[5] 0
4 *267:A *73:10 3.22879e-05
5 *275:A *267:A 0
*RES
1 b[5] *267:A 47.3214 
*END

*D_NET *17 0.000886305
*CONN
*P b[6] I
*I *268:A I *D sky130_fd_sc_hd__clkbuf_1
*CAP
1 b[6] 0.000443152
2 *268:A 0.000443152
3 *276:A *268:A 0
*RES
1 b[6] *268:A 47.3214 
*END

*D_NET *18 0.000739841
*CONN
*P b[7] I
*I *269:A I *D sky130_fd_sc_hd__clkbuf_1
*CAP
1 b[7] 0.000297518
2 *269:A 0.000297518
3 *269:A sum[7] 6.91091e-05
4 *269:A *45:10 0
5 *277:A *269:A 7.56969e-05
*RES
1 b[7] *269:A 49.8102 
*END

*D_NET *19 0.000651873
*CONN
*P cin I
*I *270:A I *D sky130_fd_sc_hd__buf_1
*CAP
1 cin 0.00022326
2 *270:A 0.00022326
3 *270:A sum[0] 6.91091e-05
4 *270:A *76:8 6.47626e-05
5 *270:A *78:10 0
6 *278:A *270:A 7.1481e-05
*RES
1 cin *270:A 49.1059 
*END

*D_NET *20 0.00063832
*CONN
*P cout O
*I *279:X O *D sky130_fd_sc_hd__buf_2
*CAP
1 cout 0.000284046
2 *279:X 0.000284046
3 cout sum[6] 7.02286e-05
*RES
1 *279:X cout 48.4875 
*END

*D_NET *21 0.00058731
*CONN
*P sum[0] O
*I *280:X O *D sky130_fd_sc_hd__buf_2
*CAP
1 sum[0] 0.000202359
2 *280:X 0.000202359
3 sum[0] sum[1] 7.82427e-05
4 sum[0] *281:A 3.52397e-05
5 *270:A sum[0] 6.91091e-05
*RES
1 *280:X sum[0] 47.7832 
*END

*D_NET *22 0.000478016
*CONN
*P sum[1] O
*I *281:X O *D sky130_fd_sc_hd__buf_2
*CAP
1 sum[1] 0.000158401
2 *281:X 0.000158401
3 sum[1] *281:A 1.27424e-05
4 sum[0] sum[1] 7.82427e-05
5 *277:A sum[1] 7.02286e-05
*RES
1 *281:X sum[1] 47.0789 
*END

*D_NET *23 0.000916456
*CONN
*P sum[2] O
*I *282:X O *D sky130_fd_sc_hd__buf_2
*CAP
1 sum[2] 0.000458228
2 *282:X 0.000458228
3 sum[2] sum[3] 0
4 *263:A sum[2] 0
*RES
1 *282:X sum[2] 49.4136 
*END

*D_NET *24 0.00100658
*CONN
*P sum[3] O
*I *283:X O *D sky130_fd_sc_hd__buf_2
*CAP
1 sum[3] 0.000503292
2 *283:X 0.000503292
3 sum[2] sum[3] 0
*RES
1 *283:X sum[3] 47.57 
*END

*D_NET *25 0.000759923
*CONN
*P sum[4] O
*I *284:X O *D sky130_fd_sc_hd__buf_2
*CAP
1 sum[4] 8.40108e-05
2 *284:X 0.000285328
3 *25:14 0.000369338
4 *266:A sum[4] 2.12457e-05
5 *266:A *25:14 0
*RES
1 *284:X *25:14 49.9 
2 *25:14 sum[4] 0.382667 
*END

*D_NET *26 0.0010067
*CONN
*P sum[5] O
*I *285:X O *D sky130_fd_sc_hd__buf_2
*CAP
1 sum[5] 0.000503348
2 *285:X 0.000503348
3 *267:A sum[5] 0
4 *276:A sum[5] 0
*RES
1 *285:X sum[5] 47.57 
*END

*D_NET *27 0.000794844
*CONN
*P sum[6] O
*I *286:X O *D sky130_fd_sc_hd__buf_2
*CAP
1 sum[6] 0.000298212
2 *286:X 0.000298212
3 sum[6] sum[7] 8.06147e-05
4 sum[6] *77:10 4.75766e-05
5 sum[6] *85:8 0
6 cout sum[6] 7.02286e-05
*RES
1 *286:X sum[6] 48.3101 
*END

*D_NET *28 0.000563649
*CONN
*P sum[7] O
*I *287:X O *D sky130_fd_sc_hd__buf_2
*CAP
1 sum[7] 0.000189343
2 *287:X 0.000189343
3 sum[7] *77:10 3.52397e-05
4 sum[6] sum[7] 8.06147e-05
5 *269:A sum[7] 6.91091e-05
6 *277:A sum[7] 0
*RES
1 *287:X sum[7] 47.7832 
*END

*D_NET *29 0.000209873
*CONN
*I *217:A I *D sky130_fd_sc_hd__nor2_1
*I *214:Y O *D sky130_fd_sc_hd__nor2_1
*CAP
1 *217:A 7.36304e-05
2 *214:Y 7.36304e-05
3 *217:A *214:B 6.26126e-05
4 *217:A *230:A 0
*RES
1 *214:Y *217:A 47.595 
*END

*D_NET *30 0.00190717
*CONN
*I *245:A1 I *D sky130_fd_sc_hd__a211o_1
*I *247:B1 I *D sky130_fd_sc_hd__o31ai_2
*I *215:X O *D sky130_fd_sc_hd__or2_1
*CAP
1 *245:A1 0
2 *247:B1 0
3 *215:X 0.000168383
4 *30:35 0.000364927
5 *30:14 0.000416438
6 *30:10 0.000219894
7 *30:10 *229:B1_N 4.6318e-06
8 *30:10 *245:C1 4.6595e-05
9 *30:10 *31:12 0
10 *30:10 *31:19 7.53384e-06
11 *30:10 *31:25 5.31444e-05
12 *30:10 *34:14 0
13 *30:10 *44:10 1.94812e-05
14 *30:14 *218:B 9.84851e-05
15 *30:35 *218:B 0.000143208
16 *30:35 *245:B1 2.02517e-05
17 *30:35 *245:C1 6.6308e-05
18 *30:35 *33:10 0.000158601
19 *30:35 *34:14 3.30148e-05
20 *30:35 *56:8 8.62783e-05
*RES
1 *215:X *30:10 41.3557 
2 *30:10 *30:14 16.0979 
3 *30:14 *247:B1 23 
4 *30:14 *30:35 37.2707 
5 *30:35 *245:A1 23 
*END

*D_NET *31 0.00269679
*CONN
*I *245:C1 I *D sky130_fd_sc_hd__a211o_1
*I *247:A3 I *D sky130_fd_sc_hd__o31ai_2
*I *217:B I *D sky130_fd_sc_hd__nor2_1
*I *216:X O *D sky130_fd_sc_hd__and2_1
*CAP
1 *245:C1 0.000466854
2 *247:A3 0
3 *217:B 0
4 *216:X 6.94194e-05
5 *31:25 9.73997e-05
6 *31:19 0.000676199
7 *31:12 0.000221056
8 *31:6 0.00040242
9 *245:C1 *227:A 3.91386e-05
10 *245:C1 *229:A2 5.82892e-05
11 *245:C1 *245:B1 4.37033e-05
12 *245:C1 *33:18 1.36088e-05
13 *245:C1 *43:6 0.000294069
14 *31:6 *215:A 9.84794e-05
15 *31:12 *214:A 0
16 *31:12 *220:A 0
17 *31:12 *229:B1_N 0
18 *31:12 *44:10 0
19 *31:12 *71:8 0
20 *31:12 *88:21 0
21 *31:19 *215:A 4.2573e-05
22 *31:25 *34:14 0
23 *31:25 *71:8 0
24 *31:25 *87:10 0
25 *30:10 *245:C1 4.6595e-05
26 *30:10 *31:12 0
27 *30:10 *31:19 7.53384e-06
28 *30:10 *31:25 5.31444e-05
29 *30:35 *245:C1 6.6308e-05
*RES
1 *216:X *31:6 24.0979 
2 *31:6 *31:12 34.0186 
3 *31:12 *217:B 23 
4 *31:6 *31:19 1.57429 
5 *31:19 *31:25 31.9057 
6 *31:25 *247:A3 23 
7 *31:19 *245:C1 32.9014 
*END

*D_NET *32 0.000285322
*CONN
*I *230:A I *D sky130_fd_sc_hd__xnor2_1
*I *217:Y O *D sky130_fd_sc_hd__nor2_1
*CAP
1 *230:A 0.000142661
2 *217:Y 0.000142661
3 *217:A *230:A 0
*RES
1 *217:Y *230:A 48.5479 
*END

*D_NET *33 0.00232166
*CONN
*I *245:A2 I *D sky130_fd_sc_hd__a211o_1
*I *229:B1_N I *D sky130_fd_sc_hd__o21ba_1
*I *220:A I *D sky130_fd_sc_hd__nor2_1
*I *218:X O *D sky130_fd_sc_hd__and2_1
*CAP
1 *245:A2 0
2 *229:B1_N 5.34282e-05
3 *220:A 0.000212324
4 *218:X 0.000219965
5 *33:18 0.000616044
6 *33:10 0.000570258
7 *220:A *220:B 0
8 *220:A *35:8 0.000140949
9 *220:A *43:12 0
10 *220:A *44:10 4.5882e-05
11 *229:B1_N *220:B 0
12 *229:B1_N *43:12 0
13 *33:10 *246:A1 6.17437e-06
14 *33:10 *34:14 1.89148e-05
15 *33:10 *36:10 0
16 *33:10 *40:21 0
17 *33:10 *56:8 1.37349e-05
18 *33:10 *57:10 1.5769e-05
19 *33:18 *220:B 2.8936e-05
20 *33:18 *229:A2 1.71005e-05
21 *33:18 *34:14 4.21594e-06
22 *33:18 *36:10 0
23 *33:18 *43:6 0.000181125
24 *245:C1 *33:18 1.36088e-05
25 *30:10 *229:B1_N 4.6318e-06
26 *30:35 *33:10 0.000158601
27 *31:12 *220:A 0
28 *31:12 *229:B1_N 0
*RES
1 *218:X *33:10 42.1843 
2 *33:10 *33:18 35.1579 
3 *33:18 *220:A 42.7229 
4 *33:18 *229:B1_N 39.2014 
5 *33:10 *245:A2 38 
*END

*D_NET *34 0.00282825
*CONN
*I *229:A1 I *D sky130_fd_sc_hd__o21ba_1
*I *220:B I *D sky130_fd_sc_hd__nor2_1
*I *219:Y O *D sky130_fd_sc_hd__nor2_1
*CAP
1 *229:A1 0
2 *220:B 0.000357242
3 *219:Y 0.000571605
4 *34:14 0.000928847
5 *220:B *35:8 0
6 *220:B *36:10 0
7 *220:B *43:12 0.000166504
8 *220:B *82:10 0.000139647
9 *34:14 *218:A 0.000260772
10 *34:14 *218:B 5.01542e-05
11 *34:14 *56:8 0.000113153
12 *34:14 *57:10 0.000141954
13 *34:14 *58:8 0
14 *34:14 *70:18 1.32939e-05
15 *220:A *220:B 0
16 *229:B1_N *220:B 0
17 *30:10 *34:14 0
18 *30:35 *34:14 3.30148e-05
19 *31:25 *34:14 0
20 *33:10 *34:14 1.89148e-05
21 *33:18 *220:B 2.8936e-05
22 *33:18 *34:14 4.21594e-06
*RES
1 *219:Y *34:14 49.2479 
2 *34:14 *220:B 45.3536 
3 *34:14 *229:A1 38 
*END

*D_NET *35 0.000459175
*CONN
*I *231:A I *D sky130_fd_sc_hd__xnor2_1
*I *220:Y O *D sky130_fd_sc_hd__nor2_1
*CAP
1 *231:A 4.68731e-05
2 *220:Y 8.51707e-05
3 *35:8 0.000132044
4 *231:A *82:10 5.41385e-05
5 *220:A *35:8 0.000140949
6 *220:B *35:8 0
*RES
1 *220:Y *35:8 39.9057 
2 *35:8 *231:A 39.0979 
*END

*D_NET *36 0.00110208
*CONN
*I *245:B1 I *D sky130_fd_sc_hd__a211o_1
*I *228:B1 I *D sky130_fd_sc_hd__a21oi_1
*I *227:A I *D sky130_fd_sc_hd__nor2_1
*I *221:X O *D sky130_fd_sc_hd__and2_1
*CAP
1 *245:B1 6.54391e-05
2 *228:B1 0
3 *227:A 0.000123105
4 *221:X 0.000220714
5 *36:12 0.000188544
6 *36:10 0.000220714
7 *227:A *228:A2 4.74426e-05
8 *227:A *40:8 5.22521e-05
9 *227:A *43:6 1.24376e-05
10 *245:B1 *228:A2 1.37232e-05
11 *245:B1 *43:6 1.03836e-05
12 *36:10 *40:10 4.334e-05
13 *36:10 *41:10 0
14 *36:10 *81:10 8.91468e-07
15 *220:B *36:10 0
16 *245:C1 *227:A 3.91386e-05
17 *245:C1 *245:B1 4.37033e-05
18 *30:35 *245:B1 2.02517e-05
19 *33:10 *36:10 0
20 *33:18 *36:10 0
*RES
1 *221:X *36:10 40.8793 
2 *36:10 *36:12 15 
3 *36:12 *227:A 26.045 
4 *36:12 *228:B1 23 
5 *36:12 *245:B1 25.0921 
*END

*D_NET *37 0.00161592
*CONN
*I *225:B1_N I *D sky130_fd_sc_hd__a21bo_1
*I *224:A I *D sky130_fd_sc_hd__nand2_1
*I *222:Y O *D sky130_fd_sc_hd__nand2_1
*CAP
1 *225:B1_N 8.34566e-05
2 *224:A 0
3 *222:Y 0.000166416
4 *37:18 0.00030628
5 *37:10 0.000389737
6 *37:8 0.000166416
7 *225:B1_N *76:12 4.34973e-05
8 *37:8 *224:B 0
9 *37:8 *38:8 0
10 *37:8 *78:10 0.000115022
11 *37:18 *224:B 0.000138718
12 *37:18 *233:A 0.000126847
13 *37:18 *39:10 2.54046e-05
14 *37:18 *76:12 5.41288e-05
*RES
1 *222:Y *37:8 40.9621 
2 *37:8 *37:10 15 
3 *37:10 *37:18 35.3857 
4 *37:18 *224:A 23 
5 *37:10 *225:B1_N 24.0979 
*END

*D_NET *38 0.00110989
*CONN
*I *224:B I *D sky130_fd_sc_hd__nand2_1
*I *225:A2 I *D sky130_fd_sc_hd__a21bo_1
*I *223:X O *D sky130_fd_sc_hd__or2_1
*CAP
1 *224:B 0.00017959
2 *225:A2 2.53239e-05
3 *223:X 0.000128972
4 *38:8 0.000333885
5 *224:B *39:10 0
6 *224:B *78:10 0
7 *224:B *80:8 1.94812e-05
8 *225:A2 *233:A 0.00014196
9 *225:A2 *78:10 0.00014196
10 *38:8 *39:10 0
11 *37:8 *224:B 0
12 *37:8 *38:8 0
13 *37:18 *224:B 0.000138718
*RES
1 *223:X *38:8 39.9057 
2 *38:8 *225:A2 39.5743 
3 *38:8 *224:B 41.5836 
*END

*D_NET *39 0.000544624
*CONN
*I *233:B I *D sky130_fd_sc_hd__xnor2_1
*I *224:Y O *D sky130_fd_sc_hd__nand2_1
*CAP
1 *233:B 0
2 *224:Y 0.00025255
3 *39:10 0.00025255
4 *39:10 *80:8 1.41203e-05
5 *224:B *39:10 0
6 *37:18 *39:10 2.54046e-05
7 *38:8 *39:10 0
*RES
1 *224:Y *39:10 41.8321 
2 *39:10 *233:B 38 
*END

*D_NET *40 0.00336681
*CONN
*I *232:A I *D sky130_fd_sc_hd__xor2_1
*I *246:A1 I *D sky130_fd_sc_hd__a21oi_1
*I *228:A1 I *D sky130_fd_sc_hd__a21oi_1
*I *225:X O *D sky130_fd_sc_hd__a21bo_1
*CAP
1 *232:A 9.46065e-05
2 *246:A1 0.000253873
3 *228:A1 0
4 *225:X 0.000851164
5 *40:21 0.000527946
6 *40:10 0.000243099
7 *40:8 0.000914797
8 *232:A *246:A2 7.87243e-05
9 *246:A1 *246:A2 0.000102291
10 *40:8 *227:B 1.80852e-05
11 *40:8 *228:A2 9.80703e-06
12 *40:8 *233:A 7.06229e-05
13 *40:8 *42:23 2.45032e-06
14 *40:8 *78:10 9.75779e-05
15 *227:A *40:8 5.22521e-05
16 *33:10 *246:A1 6.17437e-06
17 *33:10 *40:21 0
18 *36:10 *40:10 4.334e-05
*RES
1 *225:X *40:8 49.5793 
2 *40:8 *40:10 1.20143 
3 *40:10 *228:A1 38 
4 *40:10 *40:21 17.2579 
5 *40:21 *246:A1 26.9771 
6 *40:21 *232:A 25.0714 
*END

*D_NET *41 0.00049909
*CONN
*I *227:B I *D sky130_fd_sc_hd__nor2_1
*I *226:Y O *D sky130_fd_sc_hd__nor2_1
*CAP
1 *227:B 3.24357e-05
2 *226:Y 0.000188186
3 *41:10 0.000220622
4 *227:B *42:23 7.51453e-06
5 *41:10 *221:A 3.22467e-05
6 *36:10 *41:10 0
7 *40:8 *227:B 1.80852e-05
*RES
1 *226:Y *41:10 40.8793 
2 *41:10 *227:B 38.6214 
*END

*D_NET *42 0.00131197
*CONN
*I *232:B I *D sky130_fd_sc_hd__xor2_1
*I *246:A2 I *D sky130_fd_sc_hd__a21oi_1
*I *228:A2 I *D sky130_fd_sc_hd__a21oi_1
*I *227:Y O *D sky130_fd_sc_hd__nor2_1
*CAP
1 *232:B 0
2 *246:A2 0.000236803
3 *228:A2 8.26152e-05
4 *227:Y 0
5 *42:23 0.000442392
6 *42:4 0.000288204
7 *246:A2 *218:B 0
8 *227:A *228:A2 4.74426e-05
9 *227:B *42:23 7.51453e-06
10 *232:A *246:A2 7.87243e-05
11 *245:B1 *228:A2 1.37232e-05
12 *246:A1 *246:A2 0.000102291
13 *40:8 *228:A2 9.80703e-06
14 *40:8 *42:23 2.45032e-06
*RES
1 *227:Y *42:4 23 
2 *42:4 *228:A2 25.0921 
3 *42:4 *42:23 32.8793 
4 *42:23 *246:A2 28.4064 
5 *42:23 *232:B 23 
*END

*D_NET *43 0.00137587
*CONN
*I *229:A2 I *D sky130_fd_sc_hd__o21ba_1
*I *231:B I *D sky130_fd_sc_hd__xnor2_1
*I *228:Y O *D sky130_fd_sc_hd__a21oi_1
*CAP
1 *229:A2 4.83109e-05
2 *231:B 0
3 *228:Y 0.000165301
4 *43:12 0.00010437
5 *43:6 0.000317982
6 *220:A *43:12 0
7 *220:B *43:12 0.000166504
8 *227:A *43:6 1.24376e-05
9 *229:B1_N *43:12 0
10 *245:B1 *43:6 1.03836e-05
11 *245:C1 *229:A2 5.82892e-05
12 *245:C1 *43:6 0.000294069
13 *33:18 *229:A2 1.71005e-05
14 *33:18 *43:6 0.000181125
*RES
1 *228:Y *43:6 27.4329 
2 *43:6 *43:12 32.2579 
3 *43:12 *231:B 23 
4 *43:6 *229:A2 24.507 
*END

*D_NET *44 0.000334323
*CONN
*I *230:B I *D sky130_fd_sc_hd__xnor2_1
*I *229:X O *D sky130_fd_sc_hd__o21ba_1
*CAP
1 *230:B 0
2 *229:X 0.00013448
3 *44:10 0.00013448
4 *220:A *44:10 4.5882e-05
5 *30:10 *44:10 1.94812e-05
6 *31:12 *44:10 0
*RES
1 *229:X *44:10 40.5271 
2 *44:10 *230:B 38 
*END

*D_NET *45 0.000751814
*CONN
*I *261:A1 I *D sky130_fd_sc_hd__o221a_1
*I *234:X O *D sky130_fd_sc_hd__and2_1
*CAP
1 *261:A1 4.24211e-05
2 *234:X 0.000158953
3 *45:10 0.000201374
4 *45:10 *234:B 9.75779e-05
5 *45:10 *46:10 0.000222113
6 *45:10 *47:10 2.93747e-05
7 *269:A *45:10 0
*RES
1 *234:X *45:10 42.06 
2 *45:10 *261:A1 38.6214 
*END

*D_NET *46 0.00314701
*CONN
*I *237:A I *D sky130_fd_sc_hd__nand2_1
*I *260:A I *D sky130_fd_sc_hd__nand2_1
*I *235:Y O *D sky130_fd_sc_hd__nand2_1
*CAP
1 *237:A 0
2 *260:A 0
3 *235:Y 0.000446849
4 *46:27 0.000534254
5 *46:10 0.000981103
6 *46:10 *235:A 1.76557e-05
7 *46:10 *235:B 5.70419e-05
8 *46:10 *237:B 0
9 *46:10 *47:10 0
10 *46:10 *67:8 0.000140958
11 *46:10 *75:23 1.22803e-05
12 *46:10 *77:10 4.83778e-05
13 *46:10 *85:8 0
14 *46:10 *92:23 8.62876e-05
15 *46:27 *237:B 0.000390685
16 *46:27 *254:A 0
17 *46:27 *260:B 2.81406e-06
18 *46:27 *287:A 7.88828e-05
19 *46:27 *48:14 1.02561e-05
20 *46:27 *74:8 0
21 *46:27 *77:10 2.8936e-05
22 *46:27 *91:8 8.85189e-05
23 *45:10 *46:10 0.000222113
*RES
1 *235:Y *46:10 47.1143 
2 *46:10 *260:A 38 
3 *46:10 *46:27 38.7414 
4 *46:27 *237:A 38 
*END

*D_NET *47 0.00238717
*CONN
*I *237:B I *D sky130_fd_sc_hd__nand2_1
*I *261:C1 I *D sky130_fd_sc_hd__o221a_1
*I *236:X O *D sky130_fd_sc_hd__or2_1
*CAP
1 *237:B 0.000378808
2 *261:C1 0
3 *236:X 0.000240429
4 *47:10 0.000619237
5 *237:B *251:A 5.47983e-06
6 *237:B *253:A 2.79161e-05
7 *237:B *253:B 5.3304e-05
8 *237:B *254:A 2.93747e-05
9 *237:B *254:B 4.00259e-06
10 *237:B *260:B 2.85638e-05
11 *237:B *48:14 0.000137651
12 *237:B *50:34 1.57571e-05
13 *237:B *63:20 0.000207507
14 *237:B *67:8 4.23714e-05
15 *237:B *85:8 1.12487e-05
16 *47:10 *234:A 1.32939e-05
17 *47:10 *234:B 3.53115e-05
18 *47:10 *63:20 6.16531e-05
19 *47:10 *67:8 4.21594e-06
20 *47:10 *85:8 5.09885e-05
21 *45:10 *47:10 2.93747e-05
22 *46:10 *237:B 0
23 *46:10 *47:10 0
24 *46:27 *237:B 0.000390685
*RES
1 *236:X *47:10 42.3086 
2 *47:10 *261:C1 38 
3 *47:10 *237:B 47.5493 
*END

*D_NET *48 0.000780562
*CONN
*I *253:A I *D sky130_fd_sc_hd__xnor2_1
*I *237:Y O *D sky130_fd_sc_hd__nand2_1
*CAP
1 *253:A 4.81065e-05
2 *237:Y 0.000190645
3 *48:14 0.000238752
4 *253:A *254:B 0
5 *253:A *260:B 3.14996e-05
6 *253:A *287:A 0
7 *48:14 *260:B 1.40958e-05
8 *48:14 *50:34 5.41385e-05
9 *48:14 *63:12 0
10 *48:14 *64:12 2.80935e-06
11 *48:14 *74:8 2.46922e-05
12 *237:B *253:A 2.79161e-05
13 *237:B *48:14 0.000137651
14 *46:27 *48:14 1.02561e-05
*RES
1 *237:Y *48:14 41.7907 
2 *48:14 *253:A 39.3257 
*END

*D_NET *49 0.00230691
*CONN
*I *261:A2 I *D sky130_fd_sc_hd__o221a_1
*I *254:A I *D sky130_fd_sc_hd__nand2_1
*I *252:B1 I *D sky130_fd_sc_hd__o211a_1
*I *238:X O *D sky130_fd_sc_hd__or2_1
*CAP
1 *261:A2 0.00020847
2 *254:A 0.00010248
3 *252:B1 0
4 *238:X 0
5 *49:24 0.0004586
6 *49:10 0.000700374
7 *49:4 0.000347764
8 *254:A *260:B 2.93747e-05
9 *254:A *64:12 3.90548e-05
10 *254:A *74:8 6.4393e-05
11 *254:A *91:8 0
12 *261:A2 *261:B1 0.00010062
13 *49:10 *238:A 5.50049e-05
14 *49:10 *238:B 0
15 *49:10 *261:B1 2.61408e-05
16 *49:24 *239:A 1.05658e-05
17 *49:24 *252:A1 5.3304e-05
18 *49:24 *50:23 2.05503e-05
19 *49:24 *52:8 4.2812e-06
20 *49:24 *63:12 2.6868e-05
21 *49:24 *66:6 1.83327e-05
22 *49:24 *74:8 1.13579e-05
23 *237:B *254:A 2.93747e-05
24 *46:27 *254:A 0
*RES
1 *238:X *49:4 23 
2 *49:4 *49:10 17.0714 
3 *49:10 *49:24 33.3586 
4 *49:24 *252:B1 23 
5 *49:10 *254:A 40.5271 
6 *49:4 *261:A2 26.5007 
*END

*D_NET *50 0.0028136
*CONN
*I *254:B I *D sky130_fd_sc_hd__nand2_1
*I *260:B I *D sky130_fd_sc_hd__nand2_1
*I *251:A I *D sky130_fd_sc_hd__nand2_1
*I *241:B I *D sky130_fd_sc_hd__nand2b_1
*I *239:Y O *D sky130_fd_sc_hd__nand2_1
*CAP
1 *254:B 1.5812e-05
2 *260:B 0.000447173
3 *251:A 4.48897e-05
4 *241:B 0.000163851
5 *239:Y 8.47961e-05
6 *50:34 0.00056485
7 *50:23 0.000354884
8 *50:8 0.000456776
9 *241:B *239:B 4.17581e-05
10 *241:B *241:A_N 0
11 *241:B *52:8 3.36312e-06
12 *251:A *62:10 5.54294e-05
13 *260:B *253:B 1.59094e-05
14 *260:B *287:A 2.30292e-05
15 *50:8 *239:B 1.94693e-05
16 *50:23 *239:B 4.24929e-05
17 *50:23 *52:8 3.66226e-05
18 *50:23 *62:10 0.000184951
19 *50:23 *84:10 0
20 *50:23 *91:8 1.03972e-05
21 *50:34 *62:10 4.08664e-05
22 *237:B *251:A 5.47983e-06
23 *237:B *254:B 4.00259e-06
24 *237:B *260:B 2.85638e-05
25 *237:B *50:34 1.57571e-05
26 *253:A *254:B 0
27 *253:A *260:B 3.14996e-05
28 *254:A *260:B 2.93747e-05
29 *46:27 *260:B 2.81406e-06
30 *48:14 *260:B 1.40958e-05
31 *48:14 *50:34 5.41385e-05
32 *49:24 *50:23 2.05503e-05
*RES
1 *239:Y *50:8 39.0979 
2 *50:8 *241:B 40.9311 
3 *50:8 *50:23 19.3707 
4 *50:23 *251:A 24.1186 
5 *50:23 *50:34 2.05071 
6 *50:34 *260:B 29.2557 
7 *50:34 *254:B 23.4971 
*END

*D_NET *51 0.00170527
*CONN
*I *256:A1 I *D sky130_fd_sc_hd__a21bo_1
*I *255:A I *D sky130_fd_sc_hd__nand2_1
*I *241:A_N I *D sky130_fd_sc_hd__nand2b_1
*I *240:X O *D sky130_fd_sc_hd__or2_1
*CAP
1 *256:A1 2.43852e-05
2 *255:A 0
3 *241:A_N 0.000127575
4 *240:X 0.000158919
5 *51:31 0.000164572
6 *51:23 0.000318045
7 *51:8 0.000415582
8 *241:A_N *60:10 0
9 *256:A1 *60:23 4.2573e-05
10 *256:A1 *84:10 6.17437e-06
11 *51:23 *52:8 0
12 *51:23 *60:10 0
13 *51:23 *65:10 0
14 *51:31 *60:23 0.000188927
15 *51:31 *61:6 5.56356e-05
16 *51:31 *61:19 0.000116488
17 *51:31 *65:10 3.98859e-05
18 *51:31 *73:10 0
19 *51:31 *84:10 4.65096e-05
20 *241:B *241:A_N 0
*RES
1 *240:X *51:8 40.0507 
2 *51:8 *241:A_N 40.2993 
3 *51:8 *51:23 17.2579 
4 *51:23 *51:31 34.6607 
5 *51:31 *255:A 23 
6 *51:23 *256:A1 23.6214 
*END

*D_NET *52 0.000414769
*CONN
*I *252:C1 I *D sky130_fd_sc_hd__o211a_1
*I *241:Y O *D sky130_fd_sc_hd__nand2b_1
*CAP
1 *252:C1 2.06475e-05
2 *241:Y 0.000127615
3 *52:8 0.000148263
4 *252:C1 *252:A1 5.56356e-05
5 *252:C1 *66:6 1.83408e-05
6 *241:B *52:8 3.36312e-06
7 *49:24 *52:8 4.2812e-06
8 *50:23 *52:8 3.66226e-05
9 *51:23 *52:8 0
*RES
1 *241:Y *52:8 40.2579 
2 *52:8 *252:C1 38.6214 
*END

*D_NET *53 0.00190338
*CONN
*I *244:A I *D sky130_fd_sc_hd__nand2_1
*I *249:B1 I *D sky130_fd_sc_hd__o31ai_2
*I *242:Y O *D sky130_fd_sc_hd__nand2_1
*CAP
1 *244:A 0
2 *249:B1 0
3 *242:Y 0.000487046
4 *53:20 0.000192023
5 *53:12 0.00067907
6 *53:12 *243:B 0.000294762
7 *53:12 *244:B 5.67058e-05
8 *53:12 *259:A 9.24795e-06
9 *53:12 *55:6 6.67283e-05
10 *53:12 *72:27 5.50106e-05
11 *53:20 *240:A 0
12 *53:20 *240:B 6.07611e-06
13 *53:20 *55:23 0
14 *53:20 *59:8 0
15 *53:20 *60:10 5.67058e-05
*RES
1 *242:Y *53:12 32.2593 
2 *53:12 *53:20 33.3557 
3 *53:20 *249:B1 23 
4 *53:12 *244:A 23 
*END

*D_NET *54 0.000126903
*CONN
*I *244:B I *D sky130_fd_sc_hd__nand2_1
*I *243:X O *D sky130_fd_sc_hd__or2_1
*CAP
1 *244:B 6.74574e-06
2 *243:X 6.74574e-06
3 *244:B *55:6 5.67058e-05
4 *53:12 *244:B 5.67058e-05
*RES
1 *243:X *244:B 46.6214 
*END

*D_NET *55 0.00103197
*CONN
*I *249:A1 I *D sky130_fd_sc_hd__o31ai_2
*I *259:A I *D sky130_fd_sc_hd__xnor2_1
*I *244:Y O *D sky130_fd_sc_hd__nand2_1
*CAP
1 *249:A1 0
2 *259:A 0.000129995
3 *244:Y 0.000100332
4 *55:23 0.000132749
5 *55:6 0.000363076
6 *259:A *243:B 6.83157e-05
7 *259:A *72:27 1.32314e-05
8 *55:6 *72:27 5.67058e-05
9 *55:23 *57:10 4.21594e-06
10 *55:23 *58:8 2.76611e-06
11 *55:23 *59:8 2.79004e-05
12 *244:B *55:6 5.67058e-05
13 *53:12 *259:A 9.24795e-06
14 *53:12 *55:6 6.67283e-05
15 *53:20 *55:23 0
*RES
1 *244:Y *55:6 25.5271 
2 *55:6 *259:A 25.5479 
3 *55:6 *55:23 32.4029 
4 *55:23 *249:A1 23 
*END

*D_NET *56 0.000306694
*CONN
*I *246:B1 I *D sky130_fd_sc_hd__a21oi_1
*I *245:X O *D sky130_fd_sc_hd__a211o_1
*CAP
1 *246:B1 0
2 *245:X 4.67636e-05
3 *56:8 4.67636e-05
4 *30:35 *56:8 8.62783e-05
5 *33:10 *56:8 1.37349e-05
6 *34:14 *56:8 0.000113153
*RES
1 *245:X *56:8 39.5536 
2 *56:8 *246:B1 38 
*END

*D_NET *57 0.00174047
*CONN
*I *248:A I *D sky130_fd_sc_hd__nor2_1
*I *249:A2 I *D sky130_fd_sc_hd__o31ai_2
*I *246:Y O *D sky130_fd_sc_hd__a21oi_1
*CAP
1 *248:A 0.000148407
2 *249:A2 0
3 *246:Y 0.00056525
4 *57:12 0.000148407
5 *57:10 0.00056525
6 *248:A *249:A3 0.000151222
7 *57:10 *58:8 0
8 *57:10 *60:10 0
9 *33:10 *57:10 1.5769e-05
10 *34:14 *57:10 0.000141954
11 *55:23 *57:10 4.21594e-06
*RES
1 *246:Y *57:10 47.9429 
2 *57:10 *57:12 15 
3 *57:12 *249:A2 23 
4 *57:12 *248:A 26.5214 
*END

*D_NET *58 0.00159218
*CONN
*I *249:A3 I *D sky130_fd_sc_hd__o31ai_2
*I *248:B I *D sky130_fd_sc_hd__nor2_1
*I *247:Y O *D sky130_fd_sc_hd__o31ai_2
*CAP
1 *249:A3 0.000196336
2 *248:B 3.79582e-05
3 *247:Y 0.000484801
4 *58:10 0.000234294
5 *58:8 0.000484801
6 *58:8 *87:10 0
7 *248:A *249:A3 0.000151222
8 *34:14 *58:8 0
9 *55:23 *58:8 2.76611e-06
10 *57:10 *58:8 0
*RES
1 *247:Y *58:8 46.2443 
2 *58:8 *58:10 15 
3 *58:10 *248:B 23.6214 
4 *58:10 *249:A3 27.4743 
*END

*D_NET *59 0.000304971
*CONN
*I *259:B I *D sky130_fd_sc_hd__xnor2_1
*I *248:Y O *D sky130_fd_sc_hd__nor2_1
*CAP
1 *259:B 0
2 *248:Y 0.000131308
3 *59:8 0.000131308
4 *59:8 *72:12 0
5 *59:8 *72:27 1.44546e-05
6 *59:8 *89:8 0
7 *53:20 *59:8 0
8 *55:23 *59:8 2.79004e-05
*RES
1 *248:Y *59:8 40.2579 
2 *59:8 *259:B 38 
*END

*D_NET *60 0.00256735
*CONN
*I *252:A1 I *D sky130_fd_sc_hd__o211a_1
*I *256:A2 I *D sky130_fd_sc_hd__a21bo_1
*I *258:A I *D sky130_fd_sc_hd__xnor2_1
*I *249:Y O *D sky130_fd_sc_hd__o31ai_2
*CAP
1 *252:A1 0.000252953
2 *256:A2 0
3 *258:A 0
4 *249:Y 0.000428359
5 *60:23 0.000473979
6 *60:12 0.000221025
7 *60:10 0.000428359
8 *252:A1 *238:B 2.34279e-05
9 *252:A1 *252:A2 2.47605e-05
10 *252:A1 *66:6 2.44269e-05
11 *60:10 *240:A 9.35752e-05
12 *60:10 *65:10 3.70094e-05
13 *60:10 *73:10 4.21594e-06
14 *60:23 *61:6 0.000158111
15 *241:A_N *60:10 0
16 *252:C1 *252:A1 5.56356e-05
17 *256:A1 *60:23 4.2573e-05
18 *49:24 *252:A1 5.3304e-05
19 *51:23 *60:10 0
20 *51:31 *60:23 0.000188927
21 *53:20 *60:10 5.67058e-05
22 *57:10 *60:10 0
*RES
1 *249:Y *60:10 46.7829 
2 *60:10 *60:12 15 
3 *60:12 *258:A 23 
4 *60:12 *60:23 5.55143 
5 *60:23 *256:A2 23 
6 *60:23 *252:A1 27.8264 
*END

*D_NET *61 0.00161435
*CONN
*I *251:B I *D sky130_fd_sc_hd__nand2_1
*I *255:B I *D sky130_fd_sc_hd__nand2_1
*I *256:B1_N I *D sky130_fd_sc_hd__a21bo_1
*I *250:Y O *D sky130_fd_sc_hd__nand2_1
*CAP
1 *251:B 0.000201543
2 *255:B 0
3 *256:B1_N 0
4 *250:Y 0.000240002
5 *61:19 0.000315146
6 *61:6 0.000353605
7 *61:6 *84:10 5.56356e-05
8 *61:19 *84:10 0.00011818
9 *51:31 *61:6 5.56356e-05
10 *51:31 *61:19 0.000116488
11 *60:23 *61:6 0.000158111
*RES
1 *250:Y *61:6 27.4329 
2 *61:6 *256:B1_N 23 
3 *61:6 *61:19 32.8793 
4 *61:19 *255:B 23 
5 *61:19 *251:B 26.0036 
*END

*D_NET *62 0.00100083
*CONN
*I *252:A2 I *D sky130_fd_sc_hd__o211a_1
*I *251:Y O *D sky130_fd_sc_hd__nand2_1
*CAP
1 *252:A2 4.26002e-05
2 *251:Y 0.000208356
3 *62:10 0.000250956
4 *252:A2 *261:B1 0
5 *252:A2 *66:6 5.94921e-06
6 *62:10 *239:B 0.00011213
7 *62:10 *91:8 7.48331e-05
8 *251:A *62:10 5.54294e-05
9 *252:A1 *252:A2 2.47605e-05
10 *50:23 *62:10 0.000184951
11 *50:34 *62:10 4.08664e-05
*RES
1 *251:Y *62:10 41.7079 
2 *62:10 *252:A2 39.0098 
*END

*D_NET *63 0.00169834
*CONN
*I *253:B I *D sky130_fd_sc_hd__xnor2_1
*I *252:X O *D sky130_fd_sc_hd__o211a_1
*CAP
1 *253:B 3.00574e-05
2 *252:X 0.000101925
3 *63:20 0.000269238
4 *63:12 0.000341106
5 *63:12 *239:A 1.67877e-05
6 *63:12 *64:12 8.60054e-05
7 *63:20 *261:B1 0.000221992
8 *63:20 *85:8 0.00026599
9 *237:B *253:B 5.3304e-05
10 *237:B *63:20 0.000207507
11 *260:B *253:B 1.59094e-05
12 *47:10 *63:20 6.16531e-05
13 *48:14 *63:12 0
14 *49:24 *63:12 2.6868e-05
*RES
1 *252:X *63:12 40.32 
2 *63:12 *63:20 36.1936 
3 *63:20 *253:B 38.6214 
*END

*D_NET *64 0.00122003
*CONN
*I *257:A I *D sky130_fd_sc_hd__xnor2_1
*I *254:Y O *D sky130_fd_sc_hd__nand2_1
*CAP
1 *257:A 4.55899e-05
2 *254:Y 0.000310983
3 *64:12 0.000356573
4 *257:A *239:A 5.41385e-05
5 *64:12 *239:A 0
6 *64:12 *239:B 0.0001398
7 *64:12 *66:12 0.000138718
8 *64:12 *85:8 0
9 *64:12 *91:8 4.63586e-05
10 *254:A *64:12 3.90548e-05
11 *48:14 *64:12 2.80935e-06
12 *63:12 *64:12 8.60054e-05
*RES
1 *254:Y *64:12 44.1936 
2 *64:12 *257:A 39.0979 
*END

*D_NET *65 0.000578434
*CONN
*I *258:B I *D sky130_fd_sc_hd__xnor2_1
*I *255:Y O *D sky130_fd_sc_hd__nand2_1
*CAP
1 *258:B 0
2 *255:Y 0.000250769
3 *65:10 0.000250769
4 *65:10 *73:10 0
5 *51:23 *65:10 0
6 *51:31 *65:10 3.98859e-05
7 *60:10 *65:10 3.70094e-05
*RES
1 *255:Y *65:10 41.8321 
2 *65:10 *258:B 38 
*END

*D_NET *66 0.00193827
*CONN
*I *261:B1 I *D sky130_fd_sc_hd__o221a_1
*I *257:B I *D sky130_fd_sc_hd__xnor2_1
*I *256:X O *D sky130_fd_sc_hd__a21bo_1
*CAP
1 *261:B1 0.000242636
2 *257:B 0
3 *256:X 0.000311149
4 *66:12 9.75338e-05
5 *66:6 0.000651319
6 *261:B1 *238:A 2.93747e-05
7 *261:B1 *238:B 2.93747e-05
8 *66:6 *238:B 2.23583e-05
9 *66:12 *239:A 0
10 *66:12 *85:8 0
11 *252:A1 *66:6 2.44269e-05
12 *252:A2 *261:B1 0
13 *252:A2 *66:6 5.94921e-06
14 *252:C1 *66:6 1.83408e-05
15 *261:A2 *261:B1 0.00010062
16 *49:10 *261:B1 2.61408e-05
17 *49:24 *66:6 1.83327e-05
18 *63:20 *261:B1 0.000221992
19 *64:12 *66:12 0.000138718
*RES
1 *256:X *66:6 26.9564 
2 *66:6 *66:12 31.9057 
3 *66:12 *257:B 23 
4 *66:6 *261:B1 28.7793 
*END

*D_NET *67 0.000339108
*CONN
*I *261:B2 I *D sky130_fd_sc_hd__o221a_1
*I *260:Y O *D sky130_fd_sc_hd__nand2_1
*CAP
1 *261:B2 0
2 *260:Y 7.57811e-05
3 *67:8 7.57811e-05
4 *237:B *67:8 4.23714e-05
5 *46:10 *67:8 0.000140958
6 *47:10 *67:8 4.21594e-06
*RES
1 *260:Y *67:8 39.9057 
2 *67:8 *261:B2 38 
*END

*D_NET *68 0.00118919
*CONN
*I *223:B I *D sky130_fd_sc_hd__or2_1
*I *222:B I *D sky130_fd_sc_hd__nand2_1
*I *262:X O *D sky130_fd_sc_hd__clkbuf_1
*CAP
1 *223:B 0.00022378
2 *222:B 0
3 *262:X 0.000222646
4 *68:12 0.00022378
5 *68:10 0.000222646
6 *223:B *223:A 0.000243835
7 *223:B *93:10 5.25017e-05
8 *278:A *68:10 0
*RES
1 *262:X *68:10 41.0036 
2 *68:10 *68:12 15 
3 *68:12 *222:B 23 
4 *68:12 *223:B 28.9243 
*END

*D_NET *69 0.000925229
*CONN
*I *221:A I *D sky130_fd_sc_hd__and2_1
*I *226:A I *D sky130_fd_sc_hd__nor2_1
*I *263:X O *D sky130_fd_sc_hd__clkbuf_1
*CAP
1 *221:A 7.74574e-05
2 *226:A 0
3 *263:X 0.000195867
4 *69:12 0.000117014
5 *69:8 0.000235424
6 *221:A *221:B 3.01704e-05
7 *221:A *79:14 5.56279e-05
8 *69:8 *79:10 0.000181422
9 *41:10 *221:A 3.22467e-05
*RES
1 *263:X *69:8 42.7229 
2 *69:8 *69:12 15.6214 
3 *69:12 *226:A 23 
4 *69:12 *221:A 25.0714 
*END

*D_NET *70 0.00147959
*CONN
*I *219:A I *D sky130_fd_sc_hd__nor2_1
*I *218:A I *D sky130_fd_sc_hd__and2_1
*I *247:A1 I *D sky130_fd_sc_hd__o31ai_2
*I *264:X O *D sky130_fd_sc_hd__buf_1
*CAP
1 *219:A 0
2 *218:A 0.000107271
3 *247:A1 0
4 *264:X 0.000160379
5 *70:18 0.00021784
6 *70:12 0.00011057
7 *70:10 0.000160379
8 *218:A *218:B 0.00025233
9 *218:A *87:23 0.00010018
10 *70:10 *87:10 8.51225e-05
11 *70:18 *218:B 1.14534e-05
12 *34:14 *218:A 0.000260772
13 *34:14 *70:18 1.32939e-05
*RES
1 *264:X *70:10 40.8793 
2 *70:10 *70:12 15 
3 *70:12 *70:18 2.56857 
4 *70:18 *247:A1 23 
5 *70:18 *218:A 28.4064 
6 *70:12 *219:A 23 
*END

*D_NET *71 0.00144062
*CONN
*I *215:A I *D sky130_fd_sc_hd__or2_1
*I *216:A I *D sky130_fd_sc_hd__and2_1
*I *214:A I *D sky130_fd_sc_hd__nor2_1
*I *265:X O *D sky130_fd_sc_hd__clkbuf_1
*CAP
1 *215:A 0.000180567
2 *216:A 0
3 *214:A 0.000216096
4 *265:X 0.000126797
5 *71:21 0.000180567
6 *71:8 0.000342893
7 *214:A *88:6 1.94812e-05
8 *214:A *88:21 8.51329e-05
9 *215:A *215:B 0.00014196
10 *71:8 *88:21 6.07611e-06
11 *14:17 *71:8 0
12 *31:6 *215:A 9.84794e-05
13 *31:12 *214:A 0
14 *31:12 *71:8 0
15 *31:19 *215:A 4.2573e-05
16 *31:25 *71:8 0
*RES
1 *265:X *71:8 39.9057 
2 *71:8 *214:A 41.9357 
3 *71:8 *71:21 15 
4 *71:21 *216:A 23 
5 *71:21 *215:A 26.9771 
*END

*D_NET *72 0.00181779
*CONN
*I *243:A I *D sky130_fd_sc_hd__or2_1
*I *242:A I *D sky130_fd_sc_hd__nand2_1
*I *266:X O *D sky130_fd_sc_hd__clkbuf_1
*CAP
1 *243:A 0
2 *242:A 0
3 *266:X 0.00012572
4 *72:27 0.000542134
5 *72:12 0.0001145
6 *72:6 0.000782354
7 *72:12 *83:8 0.000110913
8 *72:12 *89:8 2.76611e-06
9 *72:27 *240:B 0
10 *72:27 *83:8 0
11 *259:A *72:27 1.32314e-05
12 *266:A *72:12 0
13 *53:12 *72:27 5.50106e-05
14 *55:6 *72:27 5.67058e-05
15 *59:8 *72:12 0
16 *59:8 *72:27 1.44546e-05
*RES
1 *266:X *72:6 24.5743 
2 *72:6 *72:12 32.2579 
3 *72:12 *242:A 23 
4 *72:6 *72:27 37.3121 
5 *72:27 *243:A 23 
*END

*D_NET *73 0.00184245
*CONN
*I *250:A I *D sky130_fd_sc_hd__nand2_1
*I *240:A I *D sky130_fd_sc_hd__or2_1
*I *267:X O *D sky130_fd_sc_hd__clkbuf_1
*CAP
1 *250:A 0
2 *240:A 0.000243607
3 *267:X 0.000387037
4 *73:10 0.000630643
5 *240:A *240:B 0.000269671
6 *240:A *90:10 6.07611e-06
7 *73:10 *90:10 0.000175335
8 *267:A *73:10 3.22879e-05
9 *51:31 *73:10 0
10 *53:20 *240:A 0
11 *60:10 *240:A 9.35752e-05
12 *60:10 *73:10 4.21594e-06
13 *65:10 *73:10 0
*RES
1 *267:X *73:10 46.0786 
2 *73:10 *240:A 44.1936 
3 *73:10 *250:A 38 
*END

*D_NET *74 0.00191389
*CONN
*I *238:A I *D sky130_fd_sc_hd__or2_1
*I *239:A I *D sky130_fd_sc_hd__nand2_1
*I *268:X O *D sky130_fd_sc_hd__clkbuf_1
*CAP
1 *238:A 1.80505e-05
2 *239:A 0.000347137
3 *268:X 0.000193068
4 *74:8 0.000558255
5 *239:A *85:8 0.00021673
6 *74:8 *85:8 0.000314338
7 *74:8 *91:8 0
8 *254:A *74:8 6.4393e-05
9 *257:A *239:A 5.41385e-05
10 *261:B1 *238:A 2.93747e-05
11 *46:27 *74:8 0
12 *48:14 *74:8 2.46922e-05
13 *49:10 *238:A 5.50049e-05
14 *49:24 *239:A 1.05658e-05
15 *49:24 *74:8 1.13579e-05
16 *63:12 *239:A 1.67877e-05
17 *64:12 *239:A 0
18 *66:12 *239:A 0
*RES
1 *268:X *74:8 42.3707 
2 *74:8 *239:A 44.815 
3 *74:8 *238:A 38.6214 
*END

*D_NET *75 0.0016223
*CONN
*I *236:A I *D sky130_fd_sc_hd__or2_1
*I *234:A I *D sky130_fd_sc_hd__and2_1
*I *235:A I *D sky130_fd_sc_hd__nand2_1
*I *269:X O *D sky130_fd_sc_hd__clkbuf_1
*CAP
1 *236:A 0
2 *234:A 0.00015425
3 *235:A 0.000177985
4 *269:X 8.18224e-05
5 *75:23 0.000241528
6 *75:6 0.000347086
7 *234:A *234:B 0.0002263
8 *234:A *92:23 5.3304e-05
9 *235:A *235:B 0.000210517
10 *75:23 *92:23 8.62783e-05
11 *46:10 *235:A 1.76557e-05
12 *46:10 *75:23 1.22803e-05
13 *47:10 *234:A 1.32939e-05
*RES
1 *269:X *75:6 24.0979 
2 *75:6 *235:A 27.7021 
3 *75:6 *75:23 31.5536 
4 *75:23 *234:A 26.5007 
5 *75:23 *236:A 23 
*END

*D_NET *76 0.00128932
*CONN
*I *225:A1 I *D sky130_fd_sc_hd__a21bo_1
*I *233:A I *D sky130_fd_sc_hd__xnor2_1
*I *270:X O *D sky130_fd_sc_hd__buf_1
*CAP
1 *225:A1 0
2 *233:A 0.000131874
3 *270:X 6.98833e-05
4 *76:12 0.000233011
5 *76:8 0.00017102
6 *233:A *78:10 4.79544e-05
7 *76:8 *78:10 6.68793e-05
8 *76:12 *78:10 6.68822e-05
9 *225:A2 *233:A 0.00014196
10 *225:B1_N *76:12 4.34973e-05
11 *270:A *76:8 6.47626e-05
12 *37:18 *233:A 0.000126847
13 *37:18 *76:12 5.41288e-05
14 *40:8 *233:A 7.06229e-05
*RES
1 *270:X *76:8 39.9057 
2 *76:8 *76:12 17.5271 
3 *76:12 *233:A 27.4329 
4 *76:12 *225:A1 23 
*END

*D_NET *77 0.000788786
*CONN
*I *279:A I *D sky130_fd_sc_hd__buf_2
*I *261:X O *D sky130_fd_sc_hd__o221a_1
*CAP
1 *279:A 0
2 *261:X 0.000314328
3 *77:10 0.000314328
4 *77:10 *85:8 0
5 sum[6] *77:10 4.75766e-05
6 sum[7] *77:10 3.52397e-05
7 *46:10 *77:10 4.83778e-05
8 *46:27 *77:10 2.8936e-05
*RES
1 *261:X *77:10 43.6964 
2 *77:10 *279:A 38 
*END

*D_NET *78 0.00170535
*CONN
*I *280:A I *D sky130_fd_sc_hd__buf_2
*I *233:Y O *D sky130_fd_sc_hd__xnor2_1
*CAP
1 *280:A 5.145e-05
2 *233:Y 0.000449368
3 *78:10 0.000500818
4 *78:10 *281:A 0.000167443
5 *224:B *78:10 0
6 *225:A2 *78:10 0.00014196
7 *233:A *78:10 4.79544e-05
8 *270:A *78:10 0
9 *37:8 *78:10 0.000115022
10 *40:8 *78:10 9.75779e-05
11 *76:8 *78:10 6.68793e-05
12 *76:12 *78:10 6.68822e-05
*RES
1 *233:Y *78:10 48.44 
2 *78:10 *280:A 38.6214 
*END

*D_NET *79 0.00149746
*CONN
*I *226:B I *D sky130_fd_sc_hd__nor2_1
*I *221:B I *D sky130_fd_sc_hd__and2_1
*I *271:X O *D sky130_fd_sc_hd__clkbuf_1
*CAP
1 *226:B 0
2 *221:B 0.000111351
3 *271:X 0.000470739
4 *79:14 0.000137526
5 *79:10 0.000496915
6 *79:10 *81:10 0
7 *221:A *221:B 3.01704e-05
8 *221:A *79:14 5.56279e-05
9 *263:A *79:10 7.53384e-06
10 *271:A *79:10 6.17437e-06
11 *69:8 *79:10 0.000181422
*RES
1 *271:X *79:10 46.555 
2 *79:10 *79:14 15.6214 
3 *79:14 *221:B 25.5686 
4 *79:14 *226:B 23 
*END

*D_NET *80 0.0024631
*CONN
*I *281:A I *D sky130_fd_sc_hd__buf_2
*I *232:X O *D sky130_fd_sc_hd__xor2_1
*CAP
1 *281:A 0.000209593
2 *232:X 0.000897446
3 *80:8 0.00110704
4 sum[0] *281:A 3.52397e-05
5 sum[1] *281:A 1.27424e-05
6 *224:B *80:8 1.94812e-05
7 *39:10 *80:8 1.41203e-05
8 *78:10 *281:A 0.000167443
*RES
1 *232:X *80:8 49.5793 
2 *80:8 *281:A 42.7229 
*END

*D_NET *81 0.00100466
*CONN
*I *282:A I *D sky130_fd_sc_hd__buf_2
*I *231:Y O *D sky130_fd_sc_hd__xnor2_1
*CAP
1 *282:A 0
2 *231:Y 0.000501884
3 *81:10 0.000501884
4 *81:10 *82:10 0
5 *263:A *81:10 0
6 *36:10 *81:10 8.91468e-07
7 *79:10 *81:10 0
*RES
1 *231:Y *81:10 46.0786 
2 *81:10 *282:A 38 
*END

*D_NET *82 0.00117443
*CONN
*I *283:A I *D sky130_fd_sc_hd__buf_2
*I *230:Y O *D sky130_fd_sc_hd__xnor2_1
*CAP
1 *283:A 0
2 *230:Y 0.000490324
3 *82:10 0.000490324
4 *220:B *82:10 0.000139647
5 *231:A *82:10 5.41385e-05
6 *81:10 *82:10 0
*RES
1 *230:Y *82:10 46.0786 
2 *82:10 *283:A 38 
*END

*D_NET *83 0.00082244
*CONN
*I *284:A I *D sky130_fd_sc_hd__buf_2
*I *259:Y O *D sky130_fd_sc_hd__xnor2_1
*CAP
1 *284:A 9.37445e-05
2 *259:Y 0.000262019
3 *83:8 0.000355764
4 *266:A *83:8 0
5 *72:12 *83:8 0.000110913
6 *72:27 *83:8 0
*RES
1 *259:Y *83:8 43.075 
2 *83:8 *284:A 39.5743 
*END

*D_NET *84 0.00105437
*CONN
*I *285:A I *D sky130_fd_sc_hd__buf_2
*I *258:Y O *D sky130_fd_sc_hd__xnor2_1
*CAP
1 *285:A 0
2 *258:Y 0.000413937
3 *84:10 0.000413937
4 *84:10 *91:8 0
5 *256:A1 *84:10 6.17437e-06
6 *276:A *84:10 0
7 *50:23 *84:10 0
8 *51:31 *84:10 4.65096e-05
9 *61:6 *84:10 5.56356e-05
10 *61:19 *84:10 0.00011818
*RES
1 *258:Y *84:10 45.1257 
2 *84:10 *285:A 38 
*END

*D_NET *85 0.0019506
*CONN
*I *286:A I *D sky130_fd_sc_hd__buf_2
*I *257:Y O *D sky130_fd_sc_hd__xnor2_1
*CAP
1 *286:A 0.000145008
2 *257:Y 0.000400642
3 *85:8 0.00054565
4 sum[6] *85:8 0
5 *237:B *85:8 1.12487e-05
6 *239:A *85:8 0.00021673
7 *46:10 *85:8 0
8 *47:10 *85:8 5.09885e-05
9 *63:20 *85:8 0.00026599
10 *64:12 *85:8 0
11 *66:12 *85:8 0
12 *74:8 *85:8 0.000314338
13 *77:10 *85:8 0
*RES
1 *257:Y *85:8 47.6529 
2 *85:8 *286:A 40.5271 
*END

*D_NET *86 0.000493061
*CONN
*I *287:A I *D sky130_fd_sc_hd__buf_2
*I *253:Y O *D sky130_fd_sc_hd__xnor2_1
*CAP
1 *287:A 0.000195574
2 *253:Y 0.000195574
3 *253:A *287:A 0
4 *260:B *287:A 2.30292e-05
5 *46:27 *287:A 7.88828e-05
*RES
1 *253:Y *287:A 49.9979 
*END

*D_NET *87 0.00206391
*CONN
*I *247:A2 I *D sky130_fd_sc_hd__o31ai_2
*I *218:B I *D sky130_fd_sc_hd__and2_1
*I *219:B I *D sky130_fd_sc_hd__nor2_1
*I *272:X O *D sky130_fd_sc_hd__buf_1
*CAP
1 *247:A2 0
2 *218:B 0.000165029
3 *219:B 0
4 *272:X 0.000383373
5 *87:23 0.000278114
6 *87:10 0.000496458
7 *218:A *218:B 0.00025233
8 *218:A *87:23 0.00010018
9 *246:A2 *218:B 0
10 *30:14 *218:B 9.84851e-05
11 *30:35 *218:B 0.000143208
12 *31:25 *87:10 0
13 *34:14 *218:B 5.01542e-05
14 *58:8 *87:10 0
15 *70:10 *87:10 8.51225e-05
16 *70:18 *218:B 1.14534e-05
*RES
1 *272:X *87:10 44.6493 
2 *87:10 *219:B 38 
3 *87:10 *87:23 17.1957 
4 *87:23 *218:B 29.1729 
5 *87:23 *247:A2 23 
*END

*D_NET *88 0.00095916
*CONN
*I *215:B I *D sky130_fd_sc_hd__or2_1
*I *216:B I *D sky130_fd_sc_hd__and2_1
*I *214:B I *D sky130_fd_sc_hd__nor2_1
*I *273:X O *D sky130_fd_sc_hd__clkbuf_1
*CAP
1 *215:B 5.72657e-05
2 *216:B 0
3 *214:B 7.15928e-05
4 *273:X 8.2697e-05
5 *88:21 0.000167659
6 *88:6 0.000264683
7 *214:A *88:6 1.94812e-05
8 *214:A *88:21 8.51329e-05
9 *215:A *215:B 0.00014196
10 *217:A *214:B 6.26126e-05
11 *31:12 *88:21 0
12 *71:8 *88:21 6.07611e-06
*RES
1 *273:X *88:6 24.0979 
2 *88:6 *214:B 24.8229 
3 *88:6 *88:21 32.2579 
4 *88:21 *216:B 23 
5 *88:21 *215:B 24.5743 
*END

*D_NET *89 0.00109908
*CONN
*I *243:B I *D sky130_fd_sc_hd__or2_1
*I *242:B I *D sky130_fd_sc_hd__nand2_1
*I *274:X O *D sky130_fd_sc_hd__clkbuf_1
*CAP
1 *243:B 0.000217511
2 *242:B 0
3 *274:X 0.000109579
4 *89:12 0.000257038
5 *89:8 0.000149105
6 *259:A *243:B 6.83157e-05
7 *53:12 *243:B 0.000294762
8 *59:8 *89:8 0
9 *72:12 *89:8 2.76611e-06
*RES
1 *274:X *89:8 39.9057 
2 *89:8 *89:12 15.6214 
3 *89:12 *242:B 23 
4 *89:12 *243:B 30.1879 
*END

*D_NET *90 0.00147371
*CONN
*I *250:B I *D sky130_fd_sc_hd__nand2_1
*I *240:B I *D sky130_fd_sc_hd__or2_1
*I *275:X O *D sky130_fd_sc_hd__clkbuf_1
*CAP
1 *250:B 0
2 *240:B 0.000261929
3 *275:X 0.000246345
4 *90:10 0.000508274
5 *240:A *240:B 0.000269671
6 *240:A *90:10 6.07611e-06
7 *53:20 *240:B 6.07611e-06
8 *72:27 *240:B 0
9 *73:10 *90:10 0.000175335
*RES
1 *275:X *90:10 43.3443 
2 *90:10 *240:B 43.8414 
3 *90:10 *250:B 38 
*END

*D_NET *91 0.00180049
*CONN
*I *238:B I *D sky130_fd_sc_hd__or2_1
*I *239:B I *D sky130_fd_sc_hd__nand2_1
*I *276:X O *D sky130_fd_sc_hd__clkbuf_1
*CAP
1 *238:B 0.000169481
2 *239:B 0.000201763
3 *276:X 0.000203544
4 *91:8 0.000574787
5 *241:B *239:B 4.17581e-05
6 *252:A1 *238:B 2.34279e-05
7 *254:A *91:8 0
8 *261:B1 *238:B 2.93747e-05
9 *46:27 *91:8 8.85189e-05
10 *49:10 *238:B 0
11 *50:8 *239:B 1.94693e-05
12 *50:23 *239:B 4.24929e-05
13 *50:23 *91:8 1.03972e-05
14 *62:10 *239:B 0.00011213
15 *62:10 *91:8 7.48331e-05
16 *64:12 *239:B 0.0001398
17 *64:12 *91:8 4.63586e-05
18 *66:6 *238:B 2.23583e-05
19 *74:8 *91:8 0
20 *84:10 *91:8 0
*RES
1 *276:X *91:8 42.0186 
2 *91:8 *239:B 42.64 
3 *91:8 *238:B 40.6929 
*END

*D_NET *92 0.00150609
*CONN
*I *236:B I *D sky130_fd_sc_hd__or2_1
*I *234:B I *D sky130_fd_sc_hd__and2_1
*I *235:B I *D sky130_fd_sc_hd__nand2_1
*I *277:X O *D sky130_fd_sc_hd__clkbuf_1
*CAP
1 *236:B 2.93283e-05
2 *234:B 7.22165e-05
3 *235:B 5.64863e-05
4 *277:X 0
5 *92:23 0.000270248
6 *92:4 0.00022519
7 *234:A *234:B 0.0002263
8 *234:A *92:23 5.3304e-05
9 *235:A *235:B 0.000210517
10 *45:10 *234:B 9.75779e-05
11 *46:10 *235:B 5.70419e-05
12 *46:10 *92:23 8.62876e-05
13 *47:10 *234:B 3.53115e-05
14 *75:23 *92:23 8.62783e-05
*RES
1 *277:X *92:4 23 
2 *92:4 *235:B 25.4236 
3 *92:4 *92:23 33.1486 
4 *92:23 *234:B 26.0036 
5 *92:23 *236:B 23.6214 
*END

*D_NET *93 0.00065824
*CONN
*I *222:A I *D sky130_fd_sc_hd__nand2_1
*I *223:A I *D sky130_fd_sc_hd__or2_1
*I *278:X O *D sky130_fd_sc_hd__clkbuf_1
*CAP
1 *222:A 0
2 *223:A 2.39294e-05
3 *278:X 0.000157022
4 *93:10 0.000180952
5 *223:B *223:A 0.000243835
6 *223:B *93:10 5.25017e-05
*RES
1 *278:X *93:10 26.045 
2 *93:10 *223:A 24.5743 
3 *93:10 *222:A 23 
*END
