*SPEF "ieee 1481-1999"
*DESIGN "acc8"
*DATE "12:30:00 Saturday September 19, 2026"
*VENDOR "The OpenROAD Project"
*PROGRAM "OpenROAD"
*VERSION "edf00dff99f6c40d67a30c0e22a8191c5d2ed9d6"
*DESIGN_FLOW "NAME_SCOPE LOCAL" "PIN_CAP NONE"
*DIVIDER /
*DELIMITER :
*BUS_DELIMITER []
*T_UNIT 1 NS
*C_UNIT 1 PF
*R_UNIT 1 OHM
*L_UNIT 1 HENRY

*NAME_MAP
*3 acc[0]
*4 acc[1]
*5 acc[2]
*6 acc[3]
*7 acc[4]
*8 acc[5]
*9 acc[6]
*10 acc[7]
*11 clk
*12 data_in[0]
*13 data_in[1]
*14 data_in[2]
*15 data_in[3]
*16 data_in[4]
*17 data_in[5]
*18 data_in[6]
*19 data_in[7]
*20 rst
*21 _00_
*22 _01_
*23 _02_
*24 _03_
*25 _04_
*26 _05_
*27 _06_
*28 _07_
*29 _08_
*30 _09_
*31 _10_
*32 _11_
*33 _12_
*34 _13_
*35 _14_
*36 _15_
*37 _16_
*38 _17_
*39 _18_
*40 _19_
*41 _20_
*42 _21_
*43 _22_
*44 _23_
*45 _24_
*46 _25_
*47 _26_
*48 _27_
*49 _28_
*50 _29_
*51 _30_
*52 _31_
*53 _32_
*54 _33_
*55 _34_
*56 _35_
*57 _36_
*58 _37_
*59 _38_
*60 _39_
*61 _40_
*62 _41_
*63 adder\.high\.sum\[0\]
*64 adder\.high\.sum\[1\]
*65 adder\.high\.sum\[2\]
*66 adder\.high\.sum\[3\]
*67 adder\.low\.p\[0\]
*68 adder\.low\.sum\[1\]
*69 adder\.low\.sum\[2\]
*70 adder\.low\.sum\[3\]
*71 clknet_0_clk
*72 clknet_1_0__leaf_clk
*73 clknet_1_1__leaf_clk
*74 net1
*75 net10
*76 net11
*77 net12
*78 net13
*79 net14
*80 net15
*81 net16
*82 net17
*83 net2
*84 net3
*85 net4
*86 net5
*87 net6
*88 net7
*89 net8
*90 net9
*91 FILLER_0_11
*92 FILLER_0_23
*93 FILLER_0_29
*94 FILLER_0_3
*95 FILLER_0_46
*96 FILLER_0_50
*97 FILLER_0_55
*98 FILLER_0_60
*99 FILLER_10_15
*100 FILLER_10_27
*101 FILLER_10_29
*102 FILLER_10_3
*103 FILLER_10_41
*104 FILLER_10_48
*105 FILLER_10_57
*106 FILLER_1_23
*107 FILLER_1_52
*108 FILLER_1_57
*109 FILLER_2_18
*110 FILLER_2_25
*111 FILLER_2_32
*112 FILLER_2_38
*113 FILLER_2_64
*114 FILLER_3_11
*115 FILLER_3_3
*116 FILLER_3_55
*117 FILLER_3_7
*118 FILLER_4_23
*119 FILLER_4_44
*120 FILLER_5_15
*121 FILLER_5_6
*122 FILLER_5_64
*123 FILLER_6_15
*124 FILLER_6_22
*125 FILLER_6_29
*126 FILLER_6_3
*127 FILLER_7_27
*128 FILLER_7_33
*129 FILLER_7_41
*130 FILLER_7_54
*131 FILLER_8_14
*132 FILLER_8_20
*133 FILLER_8_24
*134 FILLER_8_29
*135 FILLER_8_3
*136 FILLER_8_37
*137 FILLER_8_41
*138 FILLER_9_15
*139 FILLER_9_36
*140 FILLER_9_52
*141 FILLER_9_57
*142 FILLER_9_7
*143 PHY_EDGE_ROW_0_Left_11
*144 PHY_EDGE_ROW_0_Right_0
*145 PHY_EDGE_ROW_10_Left_21
*146 PHY_EDGE_ROW_10_Right_10
*147 PHY_EDGE_ROW_1_Left_12
*148 PHY_EDGE_ROW_1_Right_1
*149 PHY_EDGE_ROW_2_Left_13
*150 PHY_EDGE_ROW_2_Right_2
*151 PHY_EDGE_ROW_3_Left_14
*152 PHY_EDGE_ROW_3_Right_3
*153 PHY_EDGE_ROW_4_Left_15
*154 PHY_EDGE_ROW_4_Right_4
*155 PHY_EDGE_ROW_5_Left_16
*156 PHY_EDGE_ROW_5_Right_5
*157 PHY_EDGE_ROW_6_Left_17
*158 PHY_EDGE_ROW_6_Right_6
*159 PHY_EDGE_ROW_7_Left_18
*160 PHY_EDGE_ROW_7_Right_7
*161 PHY_EDGE_ROW_8_Left_19
*162 PHY_EDGE_ROW_8_Right_8
*163 PHY_EDGE_ROW_9_Left_20
*164 PHY_EDGE_ROW_9_Right_9
*165 TAP_TAPCELL_ROW_0_22
*166 TAP_TAPCELL_ROW_0_23
*167 TAP_TAPCELL_ROW_10_33
*168 TAP_TAPCELL_ROW_10_34
*169 TAP_TAPCELL_ROW_1_24
*170 TAP_TAPCELL_ROW_2_25
*171 TAP_TAPCELL_ROW_3_26
*172 TAP_TAPCELL_ROW_4_27
*173 TAP_TAPCELL_ROW_5_28
*174 TAP_TAPCELL_ROW_6_29
*175 TAP_TAPCELL_ROW_7_30
*176 TAP_TAPCELL_ROW_8_31
*177 TAP_TAPCELL_ROW_9_32
*178 _42_
*179 _43_
*180 _44_
*181 _45_
*182 _46_
*183 _47_
*184 _48_
*185 _49_
*186 _50_
*187 _51_
*188 _52_
*189 _53_
*190 _54_
*191 _55_
*192 _56_
*193 _57_
*194 _58_
*195 _59_
*196 _60_
*197 _61_
*198 _62_
*199 _63_
*200 _64_
*201 _65_
*202 _66_
*203 _67_
*204 _68_
*205 _69_
*206 _70_
*207 _71_
*208 _72_
*209 _73_
*210 _74_
*211 _75_
*212 _76_
*213 _77_
*214 _78_
*215 _79_
*216 _80_
*217 _81_
*218 _82_
*219 _83_
*220 _84_
*221 _85_
*222 _86_
*223 _87_
*224 _88_
*225 _89_
*226 _90_
*227 _91_
*228 _92_
*229 _93_
*230 _94_
*231 _95_
*232 _96_
*233 _97_
*234 _98_
*235 _99_
*236 clkbuf_0_clk
*237 clkbuf_1_0__f_clk
*238 clkbuf_1_1__f_clk
*239 input1
*240 input2
*241 input3
*242 input4
*243 input5
*244 input6
*245 input7
*246 input8
*247 input9
*248 output10
*249 output11
*250 output12
*251 output13
*252 output14
*253 output15
*254 output16
*255 output17

*PORTS
acc[0] O
acc[1] O
acc[2] O
acc[3] O
acc[4] O
acc[5] O
acc[6] O
acc[7] O
clk I
data_in[0] I
data_in[1] I
data_in[2] I
data_in[3] I
data_in[4] I
data_in[5] I
data_in[6] I
data_in[7] I
rst I

*D_NET *3 0.00170102
*CONN
*P acc[0] O
*I *248:X O *D sky130_fd_sc_hd__buf_2
*CAP
1 acc[0] 0.00052222
2 *248:X 0.00052222
3 acc[0] acc[7] 0
4 acc[0] *211:A 0.000213863
5 acc[0] *239:A 8.31618e-05
6 acc[0] *246:A 0.00035956
7 acc[0] *255:A 0
8 acc[0] *75:14 0
*RES
1 *248:X acc[0] 25.7657 
*END

*D_NET *4 0.000564035
*CONN
*P acc[1] O
*I *249:X O *D sky130_fd_sc_hd__buf_2
*CAP
1 acc[1] 0.00023558
2 *249:X 0.00023558
3 acc[1] *188:B 0
4 acc[1] *240:A 9.28756e-05
*RES
1 *249:X acc[1] 18.8021 
*END

*D_NET *5 0.00118203
*CONN
*P acc[2] O
*I *250:X O *D sky130_fd_sc_hd__buf_2
*CAP
1 acc[2] 0.000340885
2 *250:X 0.000340885
3 acc[2] *188:B 7.72102e-05
4 acc[2] *241:A 0.000347103
5 acc[2] *250:A 7.59429e-05
*RES
1 *250:X acc[2] 21.6393 
*END

*D_NET *6 0.000956275
*CONN
*P acc[3] O
*I *251:X O *D sky130_fd_sc_hd__buf_2
*CAP
1 acc[3] 0.000453536
2 *251:X 0.000453536
3 acc[3] *183:A 2.24763e-05
4 acc[3] *241:A 0
5 acc[3] *242:A 0
6 acc[3] *251:A 1.92905e-05
7 acc[3] *77:38 7.43578e-06
*RES
1 *251:X acc[3] 22.05 
*END

*D_NET *7 0.000739787
*CONN
*P acc[4] O
*I *252:X O *D sky130_fd_sc_hd__buf_2
*CAP
1 acc[4] 0.000342536
2 *252:X 0.000342536
3 acc[4] acc[5] 2.25951e-05
4 acc[4] *243:A 2.84302e-05
5 acc[4] *252:A 3.69047e-06
*RES
1 *252:X acc[4] 20.891 
*END

*D_NET *8 0.000644522
*CONN
*P acc[5] O
*I *253:X O *D sky130_fd_sc_hd__buf_2
*CAP
1 acc[5] 0.00028135
2 *253:X 0.00028135
3 acc[5] *202:A 5.92267e-05
4 acc[4] acc[5] 2.25951e-05
*RES
1 *253:X acc[5] 19.4092 
*END

*D_NET *9 0.00071216
*CONN
*P acc[6] O
*I *254:X O *D sky130_fd_sc_hd__buf_2
*CAP
1 acc[6] 0.000232033
2 *254:X 0.000232033
3 acc[6] acc[7] 8.97596e-05
4 acc[6] *226:A 4.29654e-05
5 acc[6] *81:12 0.000115369
*RES
1 *254:X acc[6] 19.4092 
*END

*D_NET *10 0.000547948
*CONN
*P acc[7] O
*I *255:X O *D sky130_fd_sc_hd__buf_2
*CAP
1 acc[7] 0.000185609
2 *255:X 0.000185609
3 acc[7] *211:A 4.46186e-06
4 acc[7] *246:A 7.90762e-05
5 acc[7] *255:A 3.4323e-06
6 acc[0] acc[7] 0
7 acc[6] acc[7] 8.97596e-05
*RES
1 *255:X acc[7] 18.1949 
*END

*D_NET *11 0.00158583
*CONN
*P clk I
*I *236:A I *D sky130_fd_sc_hd__clkbuf_16
*CAP
1 clk 0.000655036
2 *236:A 0.000655036
3 *236:A *197:B 0.000188586
4 *236:A *233:CLK 0
5 *236:A *243:A 8.71687e-05
*RES
1 clk *236:A 25.7472 
*END

*D_NET *12 0.00176061
*CONN
*P data_in[0] I
*I *239:A I *D sky130_fd_sc_hd__clkbuf_1
*CAP
1 data_in[0] 0.000494086
2 *239:A 0.000494086
3 *239:A *178:A 0.000250142
4 *239:A *228:RESET_B 2.26973e-05
5 *239:A *247:A 0.000220991
6 *239:A *76:12 6.8646e-06
7 *239:A *90:14 0.000188586
8 acc[0] *239:A 8.31618e-05
*RES
1 data_in[0] *239:A 26.8014 
*END

*D_NET *13 0.00192568
*CONN
*P data_in[1] I
*I *240:A I *D sky130_fd_sc_hd__clkbuf_1
*CAP
1 data_in[1] 0.000686605
2 *240:A 0.000686605
3 *240:A *186:A 0.000188586
4 *240:A *214:B 0
5 *240:A *247:A 8.43468e-05
6 *240:A *36:16 0.000186662
7 *240:A *76:12 0
8 acc[1] *240:A 9.28756e-05
*RES
1 data_in[1] *240:A 22.2013 
*END

*D_NET *14 0.00241677
*CONN
*P data_in[2] I
*I *241:A I *D sky130_fd_sc_hd__buf_1
*CAP
1 data_in[2] 0.000823405
2 *241:A 0.000823405
3 *241:A *188:B 2.09177e-05
4 *241:A *215:B1 5.48715e-05
5 *241:A *216:B 7.57182e-05
6 *241:A *33:14 0.000148911
7 *241:A *39:29 0
8 *241:A *77:18 5.49489e-05
9 *241:A *90:14 6.74911e-05
10 acc[2] *241:A 0.000347103
11 acc[3] *241:A 0
*RES
1 data_in[2] *241:A 39.2286 
*END

*D_NET *15 0.00119035
*CONN
*P data_in[3] I
*I *242:A I *D sky130_fd_sc_hd__clkbuf_1
*CAP
1 data_in[3] 0.000515281
2 *242:A 0.000515281
3 *242:A *251:A 0.000159793
4 acc[3] *242:A 0
*RES
1 data_in[3] *242:A 24.1393 
*END

*D_NET *16 0.000684985
*CONN
*P data_in[4] I
*I *243:A I *D sky130_fd_sc_hd__clkbuf_1
*CAP
1 data_in[4] 0.000284693
2 *243:A 0.000284693
3 *243:A *233:CLK 0
4 acc[4] *243:A 2.84302e-05
5 *236:A *243:A 8.71687e-05
*RES
1 data_in[4] *243:A 21.0874 
*END

*D_NET *17 0.00110308
*CONN
*P data_in[5] I
*I *244:A I *D sky130_fd_sc_hd__clkbuf_1
*CAP
1 data_in[5] 0.00055154
2 *244:A 0.00055154
*RES
1 data_in[5] *244:A 24.7821 
*END

*D_NET *18 0.00112236
*CONN
*P data_in[6] I
*I *245:A I *D sky130_fd_sc_hd__clkbuf_1
*CAP
1 data_in[6] 0.000544464
2 *245:A 0.000544464
3 *245:A *52:10 3.34295e-05
*RES
1 data_in[6] *245:A 24.7821 
*END

*D_NET *19 0.00267086
*CONN
*P data_in[7] I
*I *246:A I *D sky130_fd_sc_hd__clkbuf_1
*CAP
1 data_in[7] 0.000529675
2 *246:A 0.000529675
3 *246:A *211:A 0.000698716
4 *246:A *226:A 5.35879e-05
5 *246:A *227:A 3.41517e-06
6 *246:A *255:A 5.52302e-05
7 *246:A *75:14 9.90367e-05
8 *246:A *75:23 0.00018796
9 *246:A *90:89 7.49267e-05
10 acc[0] *246:A 0.00035956
11 acc[7] *246:A 7.90762e-05
*RES
1 data_in[7] *246:A 30.6758 
*END

*D_NET *20 0.000835733
*CONN
*P rst I
*I *247:A I *D sky130_fd_sc_hd__clkbuf_4
*CAP
1 rst 0.000196108
2 *247:A 0.000196108
3 *247:A *178:A 0.000138178
4 *239:A *247:A 0.000220991
5 *240:A *247:A 8.43468e-05
*RES
1 rst *247:A 19.7128 
*END

*D_NET *21 0.00037443
*CONN
*I *228:RESET_B I *D sky130_fd_sc_hd__dfrtp_1
*I *178:Y O *D sky130_fd_sc_hd__inv_2
*CAP
1 *228:RESET_B 0.000158107
2 *178:Y 0.000158107
3 *228:RESET_B *178:A 1.02504e-05
4 *228:RESET_B *220:B 0
5 *228:RESET_B *75:14 2.52688e-05
6 *239:A *228:RESET_B 2.26973e-05
*RES
1 *178:Y *228:RESET_B 21.1304 
*END

*D_NET *22 0.000744726
*CONN
*I *229:RESET_B I *D sky130_fd_sc_hd__dfrtp_1
*I *221:Y O *D sky130_fd_sc_hd__inv_2
*CAP
1 *229:RESET_B 0.000372363
2 *221:Y 0.000372363
*RES
1 *221:Y *229:RESET_B 14.0232 
*END

*D_NET *23 0.00174492
*CONN
*I *230:RESET_B I *D sky130_fd_sc_hd__dfrtp_1
*I *222:Y O *D sky130_fd_sc_hd__inv_2
*CAP
1 *230:RESET_B 0.000505875
2 *222:Y 0.000505875
3 *230:RESET_B *194:A1 0.000135028
4 *230:RESET_B *194:B1 7.48301e-06
5 *230:RESET_B *195:B 4.42631e-05
6 *230:RESET_B *196:C1 0.000144773
7 *230:RESET_B *230:CLK 4.85049e-06
8 *230:RESET_B *232:RESET_B 0.000223898
9 *230:RESET_B *32:27 1.32552e-05
10 *230:RESET_B *41:46 1.98839e-05
11 *230:RESET_B *42:41 9.76123e-05
12 *230:RESET_B *77:18 4.2126e-05
*RES
1 *222:Y *230:RESET_B 26.8089 
*END

*D_NET *24 0.000322499
*CONN
*I *231:RESET_B I *D sky130_fd_sc_hd__dfrtp_1
*I *223:Y O *D sky130_fd_sc_hd__inv_2
*CAP
1 *231:RESET_B 4.19184e-05
2 *223:Y 4.19184e-05
3 *231:RESET_B *182:A 8.39e-05
4 *231:RESET_B *223:A 0.000154762
*RES
1 *223:Y *231:RESET_B 20.2464 
*END

*D_NET *25 0.00192049
*CONN
*I *232:RESET_B I *D sky130_fd_sc_hd__dfrtp_1
*I *224:Y O *D sky130_fd_sc_hd__inv_2
*CAP
1 *232:RESET_B 0.000568964
2 *224:Y 0.000568964
3 *232:RESET_B *217:A 4.70821e-05
4 *232:RESET_B *230:CLK 3.32429e-05
5 *232:RESET_B *79:26 2.59355e-05
6 *232:RESET_B *90:29 0.000452404
7 *230:RESET_B *232:RESET_B 0.000223898
*RES
1 *224:Y *232:RESET_B 28.5054 
*END

*D_NET *26 0.000384748
*CONN
*I *233:RESET_B I *D sky130_fd_sc_hd__dfrtp_1
*I *225:Y O *D sky130_fd_sc_hd__inv_2
*CAP
1 *233:RESET_B 0.00013751
2 *225:Y 0.00013751
3 *233:RESET_B *210:A2 0
4 *233:RESET_B *29:19 9.56968e-05
5 *233:RESET_B *46:21 0
6 *233:RESET_B *79:26 1.40306e-05
*RES
1 *225:Y *233:RESET_B 21.0857 
*END

*D_NET *27 0.000341873
*CONN
*I *234:RESET_B I *D sky130_fd_sc_hd__dfrtp_1
*I *226:Y O *D sky130_fd_sc_hd__inv_2
*CAP
1 *234:RESET_B 8.11086e-05
2 *226:Y 8.11086e-05
3 *234:RESET_B *226:A 0.000179656
*RES
1 *226:Y *234:RESET_B 20.55 
*END

*D_NET *28 0.00101898
*CONN
*I *235:RESET_B I *D sky130_fd_sc_hd__dfrtp_1
*I *227:Y O *D sky130_fd_sc_hd__inv_2
*CAP
1 *235:RESET_B 0.000211875
2 *227:Y 0.000211875
3 *235:RESET_B *189:B 0.000101545
4 *235:RESET_B *211:A 0.0001399
5 *235:RESET_B *219:A 0.000139653
6 *235:RESET_B *39:10 6.35117e-05
7 *235:RESET_B *74:10 0.000150618
*RES
1 *227:Y *235:RESET_B 23.425 
*END

*D_NET *29 0.00385885
*CONN
*I *208:C1 I *D sky130_fd_sc_hd__o211a_1
*I *206:A1 I *D sky130_fd_sc_hd__a31o_1
*I *201:A I *D sky130_fd_sc_hd__nand2_1
*I *181:A I *D sky130_fd_sc_hd__nand2_1
*I *179:Y O *D sky130_fd_sc_hd__nand2_1
*CAP
1 *208:C1 0.000330802
2 *206:A1 1.73466e-05
3 *201:A 0.000187511
4 *181:A 0.000122416
5 *179:Y 0
6 *29:38 0.000609656
7 *29:19 0.000792971
8 *29:4 0.000466369
9 *181:A *179:A 2.77126e-05
10 *181:A *79:32 5.19842e-06
11 *201:A *201:B 0.000244174
12 *201:A *202:B 3.18676e-05
13 *206:A1 *200:A_N 3.99614e-06
14 *206:A1 *253:A 0
15 *208:C1 *206:A2 0
16 *208:C1 *207:B 0.000249776
17 *208:C1 *208:A1 4.14279e-05
18 *208:C1 *208:B1 5.49544e-05
19 *208:C1 *210:A2 5.52238e-05
20 *208:C1 *48:25 4.87953e-05
21 *29:19 *210:A2 0
22 *29:19 *233:D 0
23 *29:19 *79:26 8.62125e-05
24 *29:19 *79:32 3.61629e-06
25 *29:19 *80:10 0.00010326
26 *29:38 *200:A_N 4.43256e-05
27 *29:38 *253:A 5.33005e-05
28 *29:38 *48:25 8.43535e-06
29 *29:38 *80:10 3.34366e-05
30 *29:38 *80:21 0.000140368
31 *233:RESET_B *29:19 9.56968e-05
*RES
1 *179:Y *29:4 9.3 
2 *29:4 *181:A 11.2821 
3 *29:4 *29:19 10.8571 
4 *29:19 *201:A 17.6393 
5 *29:19 *29:38 8.94643 
6 *29:38 *206:A1 9.72857 
7 *29:38 *208:C1 24.4607 
*END

*D_NET *30 0.00010455
*CONN
*I *181:B I *D sky130_fd_sc_hd__nand2_1
*I *180:X O *D sky130_fd_sc_hd__or2_1
*CAP
1 *181:B 2.16372e-05
2 *180:X 2.16372e-05
3 *181:B *179:A 5.52238e-05
4 *181:B *31:10 6.05161e-06
*RES
1 *180:X *181:B 19.1357 
*END

*D_NET *31 0.0029422
*CONN
*I *196:C1 I *D sky130_fd_sc_hd__a311o_1
*I *195:A I *D sky130_fd_sc_hd__nand2_1
*I *181:Y O *D sky130_fd_sc_hd__nand2_1
*CAP
1 *196:C1 0.000545107
2 *195:A 7.98217e-05
3 *181:Y 0.000243524
4 *31:10 0.000868452
5 *195:A *195:B 1.02504e-05
6 *195:A *197:A 0.00010326
7 *195:A *32:27 0
8 *195:A *72:10 7.80929e-05
9 *195:A *72:27 5.71472e-05
10 *196:C1 *196:B1 1.04232e-05
11 *196:C1 *222:A 0.00010096
12 *196:C1 *237:A 1.04232e-05
13 *196:C1 *32:27 0.000194266
14 *31:10 *179:A 1.56e-05
15 *31:10 *197:A 0.000227736
16 *31:10 *233:CLK 0.000192204
17 *31:10 *72:10 5.41054e-05
18 *181:B *31:10 6.05161e-06
19 *230:RESET_B *196:C1 0.000144773
*RES
1 *181:Y *31:10 20.2286 
2 *31:10 *195:A 16.2821 
3 *31:10 *196:C1 23.675 
*END

*D_NET *32 0.00304614
*CONN
*I *194:B1 I *D sky130_fd_sc_hd__a31o_1
*I *196:B1 I *D sky130_fd_sc_hd__a311o_1
*I *193:A_N I *D sky130_fd_sc_hd__nand2b_1
*I *182:Y O *D sky130_fd_sc_hd__nor2_1
*CAP
1 *194:B1 0.000214752
2 *196:B1 2.9759e-05
3 *193:A_N 8.36102e-05
4 *182:Y 0
5 *32:27 0.000835034
6 *32:4 0.000674134
7 *193:A_N *42:41 3.93247e-05
8 *194:B1 *194:A1 1.46231e-05
9 *194:B1 *194:A2 0.000311544
10 *194:B1 *41:46 4.35597e-05
11 *194:B1 *46:10 0.000269198
12 *196:B1 *194:A2 1.3701e-05
13 *32:27 *197:A 0
14 *32:27 *217:B 0.000149047
15 *32:27 *222:A 5.33433e-05
16 *32:27 *223:A 0
17 *32:27 *232:D 7.57468e-05
18 *32:27 *237:A 0
19 *32:27 *46:10 1.33343e-05
20 *195:A *32:27 0
21 *196:C1 *196:B1 1.04232e-05
22 *196:C1 *32:27 0.000194266
23 *230:RESET_B *194:B1 7.48301e-06
24 *230:RESET_B *32:27 1.32552e-05
*RES
1 *182:Y *32:4 9.3 
2 *32:4 *193:A_N 10.9964 
3 *32:4 *32:27 20.2143 
4 *32:27 *196:B1 10.0321 
5 *32:27 *194:B1 14.7821 
*END

*D_NET *33 0.00144812
*CONN
*I *191:B1 I *D sky130_fd_sc_hd__a211o_1
*I *215:A1 I *D sky130_fd_sc_hd__o211ai_1
*I *183:X O *D sky130_fd_sc_hd__and2_1
*CAP
1 *191:B1 4.15864e-05
2 *215:A1 0
3 *183:X 0.000316952
4 *33:14 0.000358538
5 *191:B1 *191:A1 0.00012317
6 *191:B1 *191:A2 2.8078e-05
7 *33:14 *188:A 4.73286e-05
8 *33:14 *190:B 0
9 *33:14 *191:A1 5.8697e-05
10 *33:14 *191:A2 9.56266e-05
11 *33:14 *213:B1 0
12 *33:14 *250:A 1.13883e-05
13 *33:14 *36:25 9.41642e-05
14 *33:14 *38:10 9.77423e-05
15 *33:14 *39:29 0
16 *33:14 *40:6 2.59355e-05
17 *241:A *33:14 0.000148911
*RES
1 *183:X *33:14 24.6036 
2 *33:14 *215:A1 9.3 
3 *33:14 *191:B1 11.1036 
*END

*D_NET *34 0.00363362
*CONN
*I *194:A1 I *D sky130_fd_sc_hd__a31o_1
*I *196:A1 I *D sky130_fd_sc_hd__a311o_1
*I *217:A I *D sky130_fd_sc_hd__nand2_1
*I *184:Y O *D sky130_fd_sc_hd__nand2_1
*CAP
1 *194:A1 0.000200365
2 *196:A1 0
3 *217:A 0.000656977
4 *184:Y 0.000269455
5 *34:31 0.00024106
6 *34:10 0.000967128
7 *194:A1 *194:A2 3.37161e-05
8 *194:A1 *194:A3 0.00022729
9 *194:A1 *41:46 5.33005e-05
10 *217:A *230:CLK 0.000113888
11 *217:A *72:27 9.84968e-05
12 *34:10 *216:B 9.90367e-05
13 *34:10 *41:46 9.06586e-05
14 *34:10 *42:41 0.000117908
15 *34:10 *77:30 0
16 *34:10 *79:26 7.84111e-05
17 *34:31 *41:46 9.15804e-05
18 *34:31 *79:26 9.76123e-05
19 *194:B1 *194:A1 1.46231e-05
20 *230:RESET_B *194:A1 0.000135028
21 *232:RESET_B *217:A 4.70821e-05
*RES
1 *184:Y *34:10 18.8179 
2 *34:10 *217:A 23.2464 
3 *34:10 *34:31 5.83929 
4 *34:31 *196:A1 9.3 
5 *34:31 *194:A1 13.55 
*END

*D_NET *35 0.00101028
*CONN
*I *215:A2 I *D sky130_fd_sc_hd__o211ai_1
*I *191:C1 I *D sky130_fd_sc_hd__a211o_1
*I *185:Y O *D sky130_fd_sc_hd__nor2_1
*CAP
1 *215:A2 6.34971e-05
2 *191:C1 5.29728e-05
3 *185:Y 0.000216179
4 *35:6 0.000332648
5 *191:C1 *216:B 2.43061e-05
6 *191:C1 *77:38 0
7 *215:A2 *191:A2 9.77118e-05
8 *35:6 *191:A2 0.00018624
9 *35:6 *77:30 3.67257e-05
*RES
1 *185:Y *35:6 12.3 
2 *35:6 *191:C1 19.3357 
3 *35:6 *215:A2 10.2464 
*END

*D_NET *36 0.00326141
*CONN
*I *187:A I *D sky130_fd_sc_hd__inv_2
*I *191:A1 I *D sky130_fd_sc_hd__a211o_1
*I *215:B1 I *D sky130_fd_sc_hd__o211ai_1
*I *190:C_N I *D sky130_fd_sc_hd__or3b_1
*I *186:Y O *D sky130_fd_sc_hd__nand2_1
*CAP
1 *187:A 2.06112e-05
2 *191:A1 0.000256119
3 *215:B1 2.19315e-05
4 *190:C_N 0
5 *186:Y 7.76193e-05
6 *36:25 0.000369427
7 *36:16 0.000324777
8 *36:6 0.000331631
9 *187:A *186:A 3.99614e-06
10 *191:A1 *191:A2 3.62843e-05
11 *215:B1 *216:B 5.63882e-05
12 *36:6 *186:A 7.32955e-05
13 *36:16 *186:A 7.32955e-05
14 *36:16 *190:A 9.83388e-05
15 *36:16 *213:A1 0.000272371
16 *36:16 *213:B1 0.000133263
17 *36:16 *214:A 5.52238e-05
18 *36:16 *214:B 0.000148903
19 *36:16 *39:29 1.41642e-05
20 *36:16 *40:6 8.64169e-05
21 *36:16 *90:14 0.000269801
22 *36:25 *40:6 9.77264e-06
23 *36:25 *90:14 1.02132e-05
24 *191:B1 *191:A1 0.00012317
25 *240:A *36:16 0.000186662
26 *241:A *215:B1 5.48715e-05
27 *33:14 *191:A1 5.8697e-05
28 *33:14 *36:25 9.41642e-05
*RES
1 *186:Y *36:6 11.0679 
2 *36:6 *36:16 17.5536 
3 *36:16 *190:C_N 9.3 
4 *36:16 *36:25 1.78571 
5 *36:25 *215:B1 19.0321 
6 *36:25 *191:A1 13.4607 
7 *36:6 *187:A 9.72857 
*END

*D_NET *37 0.00112327
*CONN
*I *213:A1 I *D sky130_fd_sc_hd__o21ai_1
*I *187:Y O *D sky130_fd_sc_hd__inv_2
*CAP
1 *213:A1 0.000221798
2 *187:Y 0.000221798
3 *213:A1 *188:A 0.000115399
4 *213:A1 *213:B1 5.49489e-05
5 *213:A1 *214:B 0.000181996
6 *213:A1 *38:10 5.49544e-05
7 *36:16 *213:A1 0.000272371
*RES
1 *187:Y *213:A1 32.975 
*END

*D_NET *38 0.000790887
*CONN
*I *213:A2 I *D sky130_fd_sc_hd__o21ai_1
*I *190:B I *D sky130_fd_sc_hd__or3b_1
*I *188:Y O *D sky130_fd_sc_hd__nor2_1
*CAP
1 *213:A2 0
2 *190:B 6.12354e-05
3 *188:Y 0.000144206
4 *38:10 0.000205442
5 *190:B *213:B1 2.74888e-05
6 *38:10 *188:A 0.000199818
7 *213:A1 *38:10 5.49544e-05
8 *33:14 *190:B 0
9 *33:14 *38:10 9.77423e-05
*RES
1 *188:Y *38:10 12.4429 
2 *38:10 *190:B 19.3357 
3 *38:10 *213:A2 9.3 
*END

*D_NET *39 0.00433712
*CONN
*I *190:A I *D sky130_fd_sc_hd__or3b_1
*I *213:B1 I *D sky130_fd_sc_hd__o21ai_1
*I *220:A I *D sky130_fd_sc_hd__and2_1
*I *189:Y O *D sky130_fd_sc_hd__nand2_1
*CAP
1 *190:A 1.78626e-05
2 *213:B1 0.00017066
3 *220:A 0.000253229
4 *189:Y 0.000426002
5 *39:29 0.0004895
6 *39:10 0.000980209
7 *190:A *40:6 9.83388e-05
8 *213:B1 *188:A 2.1768e-05
9 *220:A *220:B 0.000276211
10 *220:A *228:D 8.18783e-05
11 *220:A *229:CLK 1.19071e-05
12 *220:A *73:14 0
13 *220:A *77:18 0.000193814
14 *39:10 *189:B 0.000198319
15 *39:10 *228:D 0.000104974
16 *39:10 *229:CLK 0.000101034
17 *39:10 *234:CLK 8.04988e-05
18 *39:10 *73:10 0.00020112
19 *39:10 *73:14 0.000128146
20 *39:10 *74:10 0
21 *39:29 *229:CLK 6.14651e-05
22 *39:29 *229:D 4.84678e-05
23 *39:29 *74:10 0
24 *190:B *213:B1 2.74888e-05
25 *213:A1 *213:B1 5.49489e-05
26 *235:RESET_B *39:10 6.35117e-05
27 *241:A *39:29 0
28 *33:14 *213:B1 0
29 *33:14 *39:29 0
30 *36:16 *190:A 9.83388e-05
31 *36:16 *213:B1 0.000133263
32 *36:16 *39:29 1.41642e-05
*RES
1 *189:Y *39:10 24.0411 
2 *39:10 *220:A 20.8982 
3 *39:10 *39:29 5.90179 
4 *39:29 *213:B1 17.2464 
5 *39:29 *190:A 14.7464 
*END

*D_NET *40 0.00184387
*CONN
*I *214:A I *D sky130_fd_sc_hd__and2_1
*I *215:C1 I *D sky130_fd_sc_hd__o211ai_1
*I *191:A2 I *D sky130_fd_sc_hd__a211o_1
*I *190:X O *D sky130_fd_sc_hd__or3b_1
*CAP
1 *214:A 0.000121129
2 *215:C1 2.23854e-05
3 *191:A2 0.000179022
4 *190:X 0
5 *40:6 0.000382026
6 *40:4 0.000301748
7 *214:A *214:B 5.52302e-05
8 *214:A *90:14 6.26959e-05
9 *190:A *40:6 9.83388e-05
10 *191:A1 *191:A2 3.62843e-05
11 *191:B1 *191:A2 2.8078e-05
12 *215:A2 *191:A2 9.77118e-05
13 *33:14 *191:A2 9.56266e-05
14 *33:14 *40:6 2.59355e-05
15 *35:6 *191:A2 0.00018624
16 *36:16 *214:A 5.52238e-05
17 *36:16 *40:6 8.64169e-05
18 *36:25 *40:6 9.77264e-06
*RES
1 *190:X *40:4 9.3 
2 *40:4 *40:6 3.41071 
3 *40:6 *191:A2 13.8536 
4 *40:6 *215:C1 9.72857 
5 *40:4 *214:A 11.9071 
*END

*D_NET *41 0.00393784
*CONN
*I *194:A2 I *D sky130_fd_sc_hd__a31o_1
*I *196:A2 I *D sky130_fd_sc_hd__a311o_1
*I *217:B I *D sky130_fd_sc_hd__nand2_1
*I *216:A I *D sky130_fd_sc_hd__and2_1
*I *191:X O *D sky130_fd_sc_hd__a211o_1
*CAP
1 *194:A2 8.09424e-05
2 *196:A2 0
3 *217:B 0.000325819
4 *216:A 0
5 *191:X 3.69055e-05
6 *41:46 0.000549918
7 *41:16 0.000577184
8 *41:8 0.000757247
9 *194:A2 *194:A3 0.00022729
10 *217:B *195:B 0
11 *217:B *218:B 0
12 *217:B *223:A 4.75911e-05
13 *217:B *231:CLK 0
14 *41:8 *77:30 7.83587e-05
15 *41:8 *84:16 2.56601e-05
16 *41:16 *182:A 0
17 *41:16 *216:B 0.000227532
18 *41:16 *223:A 5.59013e-05
19 *41:16 *42:41 6.07943e-05
20 *41:46 *223:A 0
21 *41:46 *77:30 5.41794e-05
22 *41:46 *79:26 1.17968e-05
23 *41:46 *84:16 1.37292e-05
24 *194:A1 *194:A2 3.37161e-05
25 *194:A1 *41:46 5.33005e-05
26 *194:B1 *194:A2 0.000311544
27 *194:B1 *41:46 4.35597e-05
28 *196:B1 *194:A2 1.3701e-05
29 *230:RESET_B *41:46 1.98839e-05
30 *32:27 *217:B 0.000149047
31 *34:10 *41:46 9.06586e-05
32 *34:31 *41:46 9.15804e-05
*RES
1 *191:X *41:8 14.8357 
2 *41:8 *41:16 12.7321 
3 *41:16 *216:A 13.8 
4 *41:16 *217:B 19.3714 
5 *41:8 *41:46 12.9286 
6 *41:46 *196:A2 9.3 
7 *41:46 *194:A2 12.7286 
*END

*D_NET *42 0.00411779
*CONN
*I *194:A3 I *D sky130_fd_sc_hd__a31o_1
*I *196:A3 I *D sky130_fd_sc_hd__a311o_1
*I *193:B I *D sky130_fd_sc_hd__nand2b_1
*I *192:Y O *D sky130_fd_sc_hd__nand2_1
*CAP
1 *194:A3 3.88059e-05
2 *196:A3 0
3 *193:B 6.18909e-06
4 *192:Y 0.00027776
5 *42:41 0.000798444
6 *42:12 0.00104359
7 *42:12 *182:B 5.84171e-05
8 *42:12 *192:B 1.55885e-05
9 *42:12 *231:CLK 0
10 *42:12 *231:D 0
11 *42:12 *251:A 6.05161e-06
12 *42:12 *78:12 0.0001098
13 *42:41 *182:A 5.52302e-05
14 *42:41 *195:B 1.57082e-05
15 *42:41 *216:B 6.87603e-05
16 *42:41 *230:CLK 0.00013743
17 *42:41 *230:D 0.000315158
18 *42:41 *79:26 0.000189563
19 *42:41 *84:10 0.00010096
20 *42:41 *84:16 0.000110117
21 *193:A_N *42:41 3.93247e-05
22 *194:A1 *194:A3 0.00022729
23 *194:A2 *194:A3 0.00022729
24 *230:RESET_B *42:41 9.76123e-05
25 *34:10 *42:41 0.000117908
26 *41:16 *42:41 6.07943e-05
*RES
1 *192:Y *42:12 23.3179 
2 *42:12 *193:B 9.42946 
3 *42:12 *42:41 32.9643 
4 *42:41 *196:A3 9.3 
5 *42:41 *194:A3 11.4786 
*END

*D_NET *43 0.000172301
*CONN
*I *218:A I *D sky130_fd_sc_hd__xnor2_1
*I *193:Y O *D sky130_fd_sc_hd__nand2b_1
*CAP
1 *218:A 8.61506e-05
2 *193:Y 8.61506e-05
*RES
1 *193:Y *218:A 19.9571 
*END

*D_NET *44 0.0031422
*CONN
*I *195:B I *D sky130_fd_sc_hd__nand2_1
*I *194:X O *D sky130_fd_sc_hd__a31o_1
*CAP
1 *195:B 0.00146539
2 *194:X 0.00146539
3 *195:B *230:D 2.11419e-05
4 *195:B *231:CLK 2.09826e-05
5 *195:B *72:10 3.34366e-05
6 *195:B *90:29 6.56379e-05
7 *195:A *195:B 1.02504e-05
8 *217:B *195:B 0
9 *230:RESET_B *195:B 4.42631e-05
10 *42:41 *195:B 1.57082e-05
*RES
1 *194:X *195:B 39.2355 
*END

*D_NET *45 0.000645864
*CONN
*I *197:A I *D sky130_fd_sc_hd__and2_1
*I *195:Y O *D sky130_fd_sc_hd__nand2_1
*CAP
1 *197:A 0.000157434
2 *195:Y 0.000157434
3 *197:A *232:D 0
4 *195:A *197:A 0.00010326
5 *31:10 *197:A 0.000227736
6 *32:27 *197:A 0
*RES
1 *195:Y *197:A 31.6714 
*END

*D_NET *46 0.0046023
*CONN
*I *206:A2 I *D sky130_fd_sc_hd__a31o_1
*I *201:B I *D sky130_fd_sc_hd__nand2_1
*I *210:A1 I *D sky130_fd_sc_hd__a21oi_1
*I *197:B I *D sky130_fd_sc_hd__and2_1
*I *196:X O *D sky130_fd_sc_hd__a311o_1
*CAP
1 *206:A2 9.48602e-05
2 *201:B 0.00023803
3 *210:A1 0
4 *197:B 0.0003222
5 *196:X 0.000271598
6 *46:34 0.000533874
7 *46:21 0.000441941
8 *46:10 0.000834755
9 *197:B *232:D 7.15846e-05
10 *197:B *237:A 0.000196968
11 *201:B *198:B 5.52302e-05
12 *201:B *209:A1 5.33433e-05
13 *206:A2 *198:A 0.00017309
14 *206:A2 *210:A2 0
15 *46:10 *237:A 0
16 *46:10 *79:26 7.32562e-05
17 *46:21 *210:A2 1.02504e-05
18 *46:21 *212:A 8.39e-05
19 *46:21 *225:A 0
20 *46:21 *237:A 0
21 *46:21 *79:26 4.71964e-05
22 *46:21 *90:29 0
23 *46:21 *90:41 0
24 *46:21 *90:89 0
25 *46:34 *209:A1 0.000139077
26 *46:34 *209:A2 0
27 *46:34 *210:A2 0.000190162
28 *46:34 *210:B1 5.56943e-05
29 *46:34 *90:89 0
30 *194:B1 *46:10 0.000269198
31 *201:A *201:B 0.000244174
32 *208:C1 *206:A2 0
33 *233:RESET_B *46:21 0
34 *236:A *197:B 0.000188586
35 *32:27 *46:10 1.33343e-05
*RES
1 *196:X *46:10 18.3357 
2 *46:10 *197:B 21.3179 
3 *46:10 *46:21 4.98214 
4 *46:21 *210:A1 13.8 
5 *46:21 *46:34 9.64286 
6 *46:34 *201:B 14.4964 
7 *46:34 *206:A2 20.55 
*END

*D_NET *47 0.00160762
*CONN
*I *209:A1 I *D sky130_fd_sc_hd__a21o_1
*I *206:B1 I *D sky130_fd_sc_hd__a31o_1
*I *200:A_N I *D sky130_fd_sc_hd__nand2b_1
*I *198:Y O *D sky130_fd_sc_hd__nor2_1
*CAP
1 *209:A1 0.000285011
2 *206:B1 0
3 *200:A_N 4.07763e-05
4 *198:Y 0
5 *47:10 0.000136243
6 *47:4 0.000380478
7 *200:A_N *200:B 5.47488e-05
8 *200:A_N *253:A 2.39224e-05
9 *200:A_N *48:25 1.82029e-05
10 *209:A1 *209:B1 5.45307e-05
11 *209:A1 *210:B1 5.52238e-05
12 *47:10 *198:A 0.000197984
13 *47:10 *199:B 1.52978e-05
14 *47:10 *210:A2 0
15 *47:10 *80:10 1.76039e-05
16 *47:10 *80:21 8.68569e-05
17 *201:B *209:A1 5.33433e-05
18 *206:A1 *200:A_N 3.99614e-06
19 *29:38 *200:A_N 4.43256e-05
20 *46:34 *209:A1 0.000139077
*RES
1 *198:Y *47:4 9.3 
2 *47:4 *47:10 11.8571 
3 *47:10 *200:A_N 10.675 
4 *47:10 *206:B1 9.3 
5 *47:4 *209:A1 14.7643 
*END

*D_NET *48 0.00116688
*CONN
*I *208:A1 I *D sky130_fd_sc_hd__o211a_1
*I *206:A3 I *D sky130_fd_sc_hd__a31o_1
*I *200:B I *D sky130_fd_sc_hd__nand2b_1
*I *199:Y O *D sky130_fd_sc_hd__nand2_1
*CAP
1 *208:A1 9.78772e-05
2 *206:A3 0
3 *200:B 9.07719e-05
4 *199:Y 4.09809e-05
5 *48:25 0.000180594
6 *48:10 0.000214469
7 *200:B *253:A 2.53253e-05
8 *208:A1 *207:B 0.000188586
9 *48:10 *198:A 0.000103267
10 *48:10 *199:B 5.33978e-05
11 *200:A_N *200:B 5.47488e-05
12 *200:A_N *48:25 1.82029e-05
13 *208:C1 *208:A1 4.14279e-05
14 *208:C1 *48:25 4.87953e-05
15 *29:38 *48:25 8.43535e-06
*RES
1 *199:Y *48:10 19.6393 
2 *48:10 *200:B 11.2152 
3 *48:10 *48:25 1.78571 
4 *48:25 *206:A3 9.3 
5 *48:25 *208:A1 11.8893 
*END

*D_NET *49 0.000931438
*CONN
*I *202:A I *D sky130_fd_sc_hd__xnor2_1
*I *200:Y O *D sky130_fd_sc_hd__nand2b_1
*CAP
1 *202:A 0.000311707
2 *200:Y 0.000311707
3 *202:A *253:A 0.000248798
4 acc[5] *202:A 5.92267e-05
*RES
1 *200:Y *202:A 34.0821 
*END

*D_NET *50 0.00027903
*CONN
*I *202:B I *D sky130_fd_sc_hd__xnor2_1
*I *201:Y O *D sky130_fd_sc_hd__nand2_1
*CAP
1 *202:B 0.000123581
2 *201:Y 0.000123581
3 *201:A *202:B 3.18676e-05
*RES
1 *201:Y *202:B 20.7786 
*END

*D_NET *51 0.00321398
*CONN
*I *208:A2 I *D sky130_fd_sc_hd__o211a_1
*I *205:A_N I *D sky130_fd_sc_hd__and2b_1
*I *209:B1 I *D sky130_fd_sc_hd__a21o_1
*I *203:Y O *D sky130_fd_sc_hd__nor2_1
*CAP
1 *208:A2 0.000393264
2 *205:A_N 0.000118553
3 *209:B1 0.000238469
4 *203:Y 0
5 *51:17 0.000602629
6 *51:4 0.000329281
7 *205:A_N *207:A 0.000137561
8 *205:A_N *52:27 0.000137561
9 *205:A_N *81:22 0.000202639
10 *208:A2 *203:A 3.41121e-05
11 *208:A2 *204:B 1.23511e-05
12 *208:A2 *207:B 1.34631e-05
13 *208:A2 *208:B1 0.000263525
14 *208:A2 *52:27 0.00022477
15 *209:B1 *203:B 9.83442e-05
16 *209:B1 *209:A2 9.83388e-05
17 *51:17 *203:A 0.000192563
18 *51:17 *203:B 3.85226e-05
19 *51:17 *204:B 2.34969e-05
20 *209:A1 *209:B1 5.45307e-05
*RES
1 *203:Y *51:4 9.3 
2 *51:4 *209:B1 13.9607 
3 *51:4 *51:17 7.05357 
4 *51:17 *205:A_N 17.2107 
5 *51:17 *208:A2 19.9071 
*END

*D_NET *52 0.00276275
*CONN
*I *209:A2 I *D sky130_fd_sc_hd__a21o_1
*I *208:B1 I *D sky130_fd_sc_hd__o211a_1
*I *205:B I *D sky130_fd_sc_hd__and2b_1
*I *204:Y O *D sky130_fd_sc_hd__nand2_1
*CAP
1 *209:A2 0.00018494
2 *208:B1 6.16977e-05
3 *205:B 0.000152577
4 *204:Y 0.000203707
5 *52:27 0.000372877
6 *52:10 0.000482524
7 *205:B *203:A 4.02391e-05
8 *208:B1 *207:B 7.35872e-05
9 *209:A2 *203:B 7.83366e-05
10 *209:A2 *204:B 5.08481e-05
11 *209:A2 *210:A2 0
12 *52:10 *203:A 9.21227e-05
13 *52:10 *204:A 5.65955e-05
14 *52:27 *207:A 4.60153e-05
15 *52:27 *207:B 4.43256e-05
16 *52:27 *81:22 9.77264e-06
17 *205:A_N *52:27 0.000137561
18 *208:A2 *208:B1 0.000263525
19 *208:A2 *52:27 0.00022477
20 *208:C1 *208:B1 5.49544e-05
21 *209:B1 *209:A2 9.83388e-05
22 *245:A *52:10 3.34295e-05
23 *46:34 *209:A2 0
*RES
1 *204:Y *52:10 17.4071 
2 *52:10 *205:B 15.9071 
3 *52:10 *52:27 7.91071 
4 *52:27 *208:B1 11.9071 
5 *52:27 *209:A2 22.4071 
*END

*D_NET *53 0.000553195
*CONN
*I *207:A I *D sky130_fd_sc_hd__xnor2_1
*I *205:X O *D sky130_fd_sc_hd__and2b_1
*CAP
1 *207:A 7.21159e-05
2 *205:X 7.21159e-05
3 *207:A *81:22 0.000225387
4 *205:A_N *207:A 0.000137561
5 *52:27 *207:A 4.60153e-05
*RES
1 *205:X *207:A 21.2071 
*END

*D_NET *54 0.00116739
*CONN
*I *207:B I *D sky130_fd_sc_hd__xnor2_1
*I *206:X O *D sky130_fd_sc_hd__a31o_1
*CAP
1 *207:B 0.00029261
2 *206:X 0.00029261
3 *207:B *81:22 1.24368e-05
4 *208:A1 *207:B 0.000188586
5 *208:A2 *207:B 1.34631e-05
6 *208:B1 *207:B 7.35872e-05
7 *208:C1 *207:B 0.000249776
8 *52:27 *207:B 4.43256e-05
*RES
1 *206:X *207:B 25.7786 
*END

*D_NET *55 0.000721473
*CONN
*I *210:A2 I *D sky130_fd_sc_hd__a21oi_1
*I *208:X O *D sky130_fd_sc_hd__o211a_1
*CAP
1 *210:A2 0.000232918
2 *208:X 0.000232918
3 *210:A2 *198:A 0
4 *210:A2 *80:10 0
5 *206:A2 *210:A2 0
6 *208:C1 *210:A2 5.52238e-05
7 *209:A2 *210:A2 0
8 *233:RESET_B *210:A2 0
9 *29:19 *210:A2 0
10 *46:21 *210:A2 1.02504e-05
11 *46:34 *210:A2 0.000190162
12 *47:10 *210:A2 0
*RES
1 *208:X *210:A2 32.2071 
*END

*D_NET *56 0.00031254
*CONN
*I *210:B1 I *D sky130_fd_sc_hd__a21oi_1
*I *209:X O *D sky130_fd_sc_hd__a21o_1
*CAP
1 *210:B1 0.000100811
2 *209:X 0.000100811
3 *209:A1 *210:B1 5.52238e-05
4 *46:34 *210:B1 5.56943e-05
*RES
1 *209:X *210:B1 29.475 
*END

*D_NET *57 0.000407315
*CONN
*I *212:A I *D sky130_fd_sc_hd__xnor2_1
*I *210:Y O *D sky130_fd_sc_hd__a21oi_1
*CAP
1 *212:A 0.000123054
2 *210:Y 0.000123054
3 *212:A *79:26 5.49489e-05
4 *212:A *90:39 2.23592e-05
5 *46:21 *212:A 8.39e-05
*RES
1 *210:Y *212:A 30.4929 
*END

*D_NET *58 0.00202344
*CONN
*I *212:B I *D sky130_fd_sc_hd__xnor2_1
*I *211:Y O *D sky130_fd_sc_hd__xnor2_1
*CAP
1 *212:B 0.000443003
2 *211:Y 0.000443003
3 *212:B *189:A 0.000306036
4 *212:B *189:B 0.000311377
5 *212:B *220:B 0
6 *212:B *224:A 9.83442e-05
7 *212:B *238:A 6.37907e-05
8 *212:B *73:8 9.40156e-05
9 *212:B *75:14 7.8327e-05
10 *212:B *90:39 0.000185541
*RES
1 *211:Y *212:B 38.7071 
*END

*D_NET *59 0.00090103
*CONN
*I *214:B I *D sky130_fd_sc_hd__and2_1
*I *213:Y O *D sky130_fd_sc_hd__o21ai_1
*CAP
1 *214:B 0.000229835
2 *213:Y 0.000229835
3 *214:B *90:14 5.52302e-05
4 *213:A1 *214:B 0.000181996
5 *214:A *214:B 5.52302e-05
6 *240:A *214:B 0
7 *36:16 *214:B 0.000148903
*RES
1 *213:Y *214:B 31.85 
*END

*D_NET *60 0.00176161
*CONN
*I *216:B I *D sky130_fd_sc_hd__and2_1
*I *215:Y O *D sky130_fd_sc_hd__o211ai_1
*CAP
1 *216:B 0.000349101
2 *215:Y 0.000349101
3 *216:B *77:18 0.00021293
4 *216:B *77:30 5.71472e-05
5 *216:B *84:10 1.69961e-05
6 *216:B *84:16 0.00022459
7 *191:C1 *216:B 2.43061e-05
8 *215:B1 *216:B 5.63882e-05
9 *241:A *216:B 7.57182e-05
10 *34:10 *216:B 9.90367e-05
11 *41:16 *216:B 0.000227532
12 *42:41 *216:B 6.87603e-05
*RES
1 *215:Y *216:B 36.7607 
*END

*D_NET *61 0.000691893
*CONN
*I *218:B I *D sky130_fd_sc_hd__xnor2_1
*I *217:Y O *D sky130_fd_sc_hd__nand2_1
*CAP
1 *218:B 0.000217693
2 *217:Y 0.000217693
3 *218:B *231:CLK 0.000129868
4 *218:B *72:27 0.000126639
5 *217:B *218:B 0
*RES
1 *217:Y *218:B 31.4214 
*END

*D_NET *62 0.00163965
*CONN
*I *220:B I *D sky130_fd_sc_hd__and2_1
*I *219:X O *D sky130_fd_sc_hd__or2_1
*CAP
1 *220:B 0.000440568
2 *219:X 0.000440568
3 *220:B *219:A 7.83366e-05
4 *220:B *228:D 0.000102207
5 *220:B *74:10 0.00030176
6 *220:B *75:14 0
7 *212:B *220:B 0
8 *220:A *220:B 0.000276211
9 *228:RESET_B *220:B 0
*RES
1 *219:X *220:B 39.1179 
*END

*D_NET *63 0.000997233
*CONN
*I *232:D I *D sky130_fd_sc_hd__dfrtp_1
*I *197:X O *D sky130_fd_sc_hd__and2_1
*CAP
1 *232:D 0.000370707
2 *197:X 0.000370707
3 *232:D *223:A 5.81666e-05
4 *232:D *90:41 5.03218e-05
5 *197:A *232:D 0
6 *197:B *232:D 7.15846e-05
7 *32:27 *232:D 7.57468e-05
*RES
1 *197:X *232:D 33.7429 
*END

*D_NET *64 0.000156798
*CONN
*I *233:D I *D sky130_fd_sc_hd__dfrtp_1
*I *202:Y O *D sky130_fd_sc_hd__xnor2_1
*CAP
1 *233:D 7.83991e-05
2 *202:Y 7.83991e-05
3 *29:19 *233:D 0
*RES
1 *202:Y *233:D 28.9393 
*END

*D_NET *65 0.000541618
*CONN
*I *234:D I *D sky130_fd_sc_hd__dfrtp_1
*I *207:Y O *D sky130_fd_sc_hd__xnor2_1
*CAP
1 *234:D 0.000204296
2 *207:Y 0.000204296
3 *234:D *203:A 3.63281e-05
4 *234:D *81:22 9.66977e-05
*RES
1 *207:Y *234:D 30.4438 
*END

*D_NET *66 0.000318507
*CONN
*I *235:D I *D sky130_fd_sc_hd__dfrtp_1
*I *212:Y O *D sky130_fd_sc_hd__xnor2_1
*CAP
1 *235:D 8.24364e-05
2 *212:Y 8.24364e-05
3 *235:D *235:CLK 1.40306e-05
4 *235:D *238:A 3.6337e-05
5 *235:D *90:29 0.000103267
*RES
1 *212:Y *235:D 29.475 
*END

*D_NET *67 0.00096281
*CONN
*I *228:D I *D sky130_fd_sc_hd__dfrtp_1
*I *220:X O *D sky130_fd_sc_hd__and2_1
*CAP
1 *228:D 0.000319022
2 *220:X 0.000319022
3 *228:D *74:10 3.5707e-05
4 *220:A *228:D 8.18783e-05
5 *220:B *228:D 0.000102207
6 *39:10 *228:D 0.000104974
*RES
1 *220:X *228:D 32.7607 
*END

*D_NET *68 0.000215966
*CONN
*I *229:D I *D sky130_fd_sc_hd__dfrtp_1
*I *214:X O *D sky130_fd_sc_hd__and2_1
*CAP
1 *229:D 8.37491e-05
2 *214:X 8.37491e-05
3 *229:D *74:10 0
4 *39:29 *229:D 4.84678e-05
*RES
1 *214:X *229:D 28.9393 
*END

*D_NET *69 0.00159254
*CONN
*I *230:D I *D sky130_fd_sc_hd__dfrtp_1
*I *216:X O *D sky130_fd_sc_hd__and2_1
*CAP
1 *230:D 0.000491276
2 *216:X 0.000491276
3 *230:D *77:18 0.000144486
4 *230:D *84:10 9.11536e-05
5 *230:D *90:29 3.80445e-05
6 *195:B *230:D 2.11419e-05
7 *42:41 *230:D 0.000315158
*RES
1 *216:X *230:D 35.1179 
*END

*D_NET *70 0.000546374
*CONN
*I *231:D I *D sky130_fd_sc_hd__dfrtp_1
*I *218:Y O *D sky130_fd_sc_hd__xnor2_1
*CAP
1 *231:D 0.000222415
2 *218:Y 0.000222415
3 *231:D *231:CLK 0.000101545
4 *42:12 *231:D 0
*RES
1 *218:Y *231:D 30.9036 
*END

*D_NET *71 0.00273141
*CONN
*I *238:A I *D sky130_fd_sc_hd__clkbuf_16
*I *237:A I *D sky130_fd_sc_hd__clkbuf_16
*I *236:X O *D sky130_fd_sc_hd__clkbuf_16
*CAP
1 *238:A 0.000443322
2 *237:A 0.000485727
3 *236:X 0
4 *71:4 0.00092905
5 *237:A *79:26 0
6 *237:A *90:41 0.000249493
7 *238:A *189:A 5.65955e-05
8 *238:A *224:A 8.59075e-05
9 *238:A *235:CLK 1.15615e-06
10 *238:A *79:26 2.55698e-05
11 *238:A *90:29 6.55528e-06
12 *238:A *90:39 0.00014051
13 *196:C1 *237:A 1.04232e-05
14 *197:B *237:A 0.000196968
15 *212:B *238:A 6.37907e-05
16 *235:D *238:A 3.6337e-05
17 *32:27 *237:A 0
18 *46:10 *237:A 0
19 *46:21 *237:A 0
*RES
1 *236:X *71:4 9.3 
2 *71:4 *237:A 26.425 
3 *71:4 *238:A 25.2286 
*END

*D_NET *72 0.00455522
*CONN
*I *233:CLK I *D sky130_fd_sc_hd__dfrtp_1
*I *232:CLK I *D sky130_fd_sc_hd__dfrtp_1
*I *230:CLK I *D sky130_fd_sc_hd__dfrtp_1
*I *231:CLK I *D sky130_fd_sc_hd__dfrtp_1
*I *237:X O *D sky130_fd_sc_hd__clkbuf_16
*CAP
1 *233:CLK 0.000262973
2 *232:CLK 0
3 *230:CLK 0.000664774
4 *231:CLK 0.000339055
5 *237:X 5.05799e-05
6 *72:27 0.0008047
7 *72:10 0.000615375
8 *72:8 0.000449947
9 *230:CLK *79:26 5.49489e-05
10 *233:CLK *252:A 8.08283e-05
11 *233:CLK *86:12 5.01117e-05
12 *195:A *72:10 7.80929e-05
13 *195:A *72:27 5.71472e-05
14 *195:B *231:CLK 2.09826e-05
15 *195:B *72:10 3.34366e-05
16 *217:A *230:CLK 0.000113888
17 *217:A *72:27 9.84968e-05
18 *217:B *231:CLK 0
19 *218:B *231:CLK 0.000129868
20 *218:B *72:27 0.000126639
21 *230:RESET_B *230:CLK 4.85049e-06
22 *231:D *231:CLK 0.000101545
23 *232:RESET_B *230:CLK 3.32429e-05
24 *236:A *233:CLK 0
25 *243:A *233:CLK 0
26 *31:10 *233:CLK 0.000192204
27 *31:10 *72:10 5.41054e-05
28 *42:12 *231:CLK 0
29 *42:41 *230:CLK 0.00013743
*RES
1 *237:X *72:8 14.3357 
2 *72:8 *72:10 3.46429 
3 *72:10 *231:CLK 20.3714 
4 *72:10 *72:27 7.91071 
5 *72:27 *230:CLK 19.3536 
6 *72:27 *232:CLK 9.3 
7 *72:8 *233:CLK 20.3 
*END

*D_NET *73 0.00421471
*CONN
*I *234:CLK I *D sky130_fd_sc_hd__dfrtp_1
*I *235:CLK I *D sky130_fd_sc_hd__dfrtp_1
*I *228:CLK I *D sky130_fd_sc_hd__dfrtp_1
*I *229:CLK I *D sky130_fd_sc_hd__dfrtp_1
*I *238:X O *D sky130_fd_sc_hd__clkbuf_16
*CAP
1 *234:CLK 0.000380547
2 *235:CLK 0.000418885
3 *228:CLK 0
4 *229:CLK 0.000258505
5 *238:X 0.000441943
6 *73:14 0.000354927
7 *73:10 0.000609449
8 *73:8 0.000916633
9 *229:CLK *90:29 0
10 *234:CLK *189:B 1.58357e-05
11 *234:CLK *203:A 1.00332e-05
12 *234:CLK *90:29 0
13 *234:CLK *90:89 0
14 *73:8 *189:A 0.000114577
15 *212:B *73:8 9.40156e-05
16 *220:A *229:CLK 1.19071e-05
17 *220:A *73:14 0
18 *235:D *235:CLK 1.40306e-05
19 *238:A *235:CLK 1.15615e-06
20 *39:10 *229:CLK 0.000101034
21 *39:10 *234:CLK 8.04988e-05
22 *39:10 *73:10 0.00020112
23 *39:10 *73:14 0.000128146
24 *39:29 *229:CLK 6.14651e-05
*RES
1 *238:X *73:8 19.2643 
2 *73:8 *73:10 2.55357 
3 *73:10 *73:14 2.17857 
4 *73:14 *229:CLK 19.4429 
5 *73:14 *228:CLK 13.8 
6 *73:10 *235:CLK 18.7643 
7 *73:8 *234:CLK 20.05 
*END

*D_NET *74 0.00282433
*CONN
*I *219:A I *D sky130_fd_sc_hd__or2_1
*I *189:A I *D sky130_fd_sc_hd__nand2_1
*I *239:X O *D sky130_fd_sc_hd__clkbuf_1
*CAP
1 *219:A 9.96682e-05
2 *189:A 8.82153e-05
3 *239:X 0.000564751
4 *74:10 0.000752634
5 *219:A *189:B 3.48235e-05
6 *219:A *75:14 0
7 *74:10 *76:12 0
8 *74:10 *90:14 0.00010096
9 *212:B *189:A 0.000306036
10 *220:B *219:A 7.83366e-05
11 *220:B *74:10 0.00030176
12 *228:D *74:10 3.5707e-05
13 *229:D *74:10 0
14 *235:RESET_B *219:A 0.000139653
15 *235:RESET_B *74:10 0.000150618
16 *238:A *189:A 5.65955e-05
17 *39:10 *74:10 0
18 *39:29 *74:10 0
19 *73:8 *189:A 0.000114577
*RES
1 *239:X *74:10 26.1036 
2 *74:10 *189:A 16.8 
3 *74:10 *219:A 16.6571 
*END

*D_NET *75 0.00353066
*CONN
*I *219:B I *D sky130_fd_sc_hd__or2_1
*I *189:B I *D sky130_fd_sc_hd__nand2_1
*I *248:A I *D sky130_fd_sc_hd__buf_2
*I *228:Q O *D sky130_fd_sc_hd__dfrtp_1
*CAP
1 *219:B 0
2 *189:B 0.000258617
3 *248:A 0
4 *228:Q 0.000478219
5 *75:23 0.000340844
6 *75:14 0.000560446
7 *189:B *90:29 2.8266e-06
8 *189:B *90:89 1.88048e-05
9 *75:14 *226:A 4.58976e-05
10 *75:14 *255:A 0.000410597
11 *75:23 *226:A 0.00036192
12 acc[0] *75:14 0
13 *212:B *189:B 0.000311377
14 *212:B *75:14 7.8327e-05
15 *219:A *189:B 3.48235e-05
16 *219:A *75:14 0
17 *220:B *75:14 0
18 *228:RESET_B *75:14 2.52688e-05
19 *234:CLK *189:B 1.58357e-05
20 *235:RESET_B *189:B 0.000101545
21 *246:A *75:14 9.90367e-05
22 *246:A *75:23 0.00018796
23 *39:10 *189:B 0.000198319
*RES
1 *228:Q *75:14 28.2286 
2 *75:14 *248:A 9.3 
3 *75:14 *75:23 3.83929 
4 *75:23 *189:B 33.5857 
5 *75:23 *219:B 9.3 
*END

*D_NET *76 0.00323689
*CONN
*I *249:A I *D sky130_fd_sc_hd__buf_2
*I *186:B I *D sky130_fd_sc_hd__nand2_1
*I *188:B I *D sky130_fd_sc_hd__nor2_1
*I *229:Q O *D sky130_fd_sc_hd__dfrtp_1
*CAP
1 *249:A 0
2 *186:B 0
3 *188:B 0.00105319
4 *229:Q 0.000342438
5 *76:14 0.00111779
6 *76:12 0.000407032
7 *188:B *188:A 5.49544e-05
8 *188:B *250:A 5.49544e-05
9 *76:12 *178:A 0.000101545
10 acc[1] *188:B 0
11 acc[2] *188:B 7.72102e-05
12 *239:A *76:12 6.8646e-06
13 *240:A *76:12 0
14 *241:A *188:B 2.09177e-05
15 *74:10 *76:12 0
*RES
1 *229:Q *76:12 23.6214 
2 *76:12 *76:14 0.946429 
3 *76:14 *188:B 40.6929 
4 *76:14 *186:B 9.3 
5 *76:12 *249:A 9.3 
*END

*D_NET *77 0.00466662
*CONN
*I *184:B I *D sky130_fd_sc_hd__nand2_1
*I *185:B I *D sky130_fd_sc_hd__nor2_1
*I *183:B I *D sky130_fd_sc_hd__and2_1
*I *250:A I *D sky130_fd_sc_hd__buf_2
*I *230:Q O *D sky130_fd_sc_hd__dfrtp_1
*CAP
1 *184:B 0
2 *185:B 0
3 *183:B 0
4 *250:A 0.000214278
5 *230:Q 0.000664474
6 *77:38 0.000485446
7 *77:30 0.000563198
8 *77:18 0.000956503
9 *250:A *188:A 0.000176246
10 *77:18 *84:10 0.000194734
11 *77:18 *90:29 0.000126439
12 *77:30 *84:10 5.71472e-05
13 *77:30 *84:16 0
14 *77:38 *183:A 0.000197913
15 *77:38 *223:A 0
16 *77:38 *84:16 5.80706e-06
17 acc[2] *250:A 7.59429e-05
18 acc[3] *77:38 7.43578e-06
19 *188:B *250:A 5.49544e-05
20 *191:C1 *77:38 0
21 *216:B *77:18 0.00021293
22 *216:B *77:30 5.71472e-05
23 *220:A *77:18 0.000193814
24 *230:D *77:18 0.000144486
25 *230:RESET_B *77:18 4.2126e-05
26 *241:A *77:18 5.49489e-05
27 *33:14 *250:A 1.13883e-05
28 *34:10 *77:30 0
29 *35:6 *77:30 3.67257e-05
30 *41:8 *77:30 7.83587e-05
31 *41:46 *77:30 5.41794e-05
*RES
1 *230:Q *77:18 30.1929 
2 *77:18 *77:30 13.6786 
3 *77:30 *77:38 14.4464 
4 *77:38 *250:A 14.2598 
5 *77:38 *183:B 9.3 
6 *77:30 *185:B 9.3 
7 *77:18 *184:B 9.3 
*END

*D_NET *78 0.00225267
*CONN
*I *182:B I *D sky130_fd_sc_hd__nor2_1
*I *251:A I *D sky130_fd_sc_hd__buf_2
*I *192:B I *D sky130_fd_sc_hd__nand2_1
*I *231:Q O *D sky130_fd_sc_hd__dfrtp_1
*CAP
1 *182:B 4.86808e-05
2 *251:A 0.000174595
3 *192:B 2.43718e-05
4 *231:Q 0.000280695
5 *78:12 0.00031562
6 *78:8 0.000446029
7 *182:B *182:A 0.000125731
8 *251:A *183:A 1.33343e-05
9 *251:A *85:8 0.000183726
10 *78:12 *182:A 0.000215049
11 *78:12 *192:A 5.59013e-05
12 acc[3] *251:A 1.92905e-05
13 *242:A *251:A 0.000159793
14 *42:12 *182:B 5.84171e-05
15 *42:12 *192:B 1.55885e-05
16 *42:12 *251:A 6.05161e-06
17 *42:12 *78:12 0.0001098
*RES
1 *231:Q *78:8 16.8 
2 *78:8 *78:12 7.96429 
3 *78:12 *192:B 9.83571 
4 *78:12 *251:A 13.9786 
5 *78:8 *182:B 15.4429 
*END

*D_NET *79 0.00432469
*CONN
*I *179:B I *D sky130_fd_sc_hd__nand2_1
*I *180:B I *D sky130_fd_sc_hd__or2_1
*I *252:A I *D sky130_fd_sc_hd__buf_2
*I *232:Q O *D sky130_fd_sc_hd__dfrtp_1
*CAP
1 *179:B 0
2 *180:B 0
3 *252:A 0.0002068
4 *232:Q 0.00072842
5 *79:32 0.000570454
6 *79:26 0.00109207
7 *252:A *86:12 1.02504e-05
8 *79:26 *90:39 0.000531883
9 *79:32 *179:A 0.000276761
10 *79:32 *86:12 5.52302e-05
11 acc[4] *252:A 3.69047e-06
12 *181:A *79:32 5.19842e-06
13 *212:A *79:26 5.49489e-05
14 *230:CLK *79:26 5.49489e-05
15 *232:RESET_B *79:26 2.59355e-05
16 *233:CLK *252:A 8.08283e-05
17 *233:RESET_B *79:26 1.40306e-05
18 *237:A *79:26 0
19 *238:A *79:26 2.55698e-05
20 *29:19 *79:26 8.62125e-05
21 *29:19 *79:32 3.61629e-06
22 *34:10 *79:26 7.84111e-05
23 *34:31 *79:26 9.76123e-05
24 *41:46 *79:26 1.17968e-05
25 *42:41 *79:26 0.000189563
26 *46:10 *79:26 7.32562e-05
27 *46:21 *79:26 4.71964e-05
*RES
1 *232:Q *79:26 35.7464 
2 *79:26 *79:32 5.39286 
3 *79:32 *252:A 22.4071 
4 *79:32 *180:B 9.3 
5 *79:26 *179:B 9.3 
*END

*D_NET *80 0.00263723
*CONN
*I *199:B I *D sky130_fd_sc_hd__nand2_1
*I *253:A I *D sky130_fd_sc_hd__buf_2
*I *198:B I *D sky130_fd_sc_hd__nor2_1
*I *233:Q O *D sky130_fd_sc_hd__dfrtp_1
*CAP
1 *199:B 0.000196966
2 *253:A 0.000292908
3 *198:B 2.52056e-05
4 *233:Q 0.000293353
5 *80:21 0.000564616
6 *80:10 0.000393301
7 *199:B *198:A 1.40849e-05
8 *200:A_N *253:A 2.39224e-05
9 *200:B *253:A 2.53253e-05
10 *201:B *198:B 5.52302e-05
11 *202:A *253:A 0.000248798
12 *206:A1 *253:A 0
13 *210:A2 *80:10 0
14 *29:19 *80:10 0.00010326
15 *29:38 *253:A 5.33005e-05
16 *29:38 *80:10 3.34366e-05
17 *29:38 *80:21 0.000140368
18 *47:10 *199:B 1.52978e-05
19 *47:10 *80:10 1.76039e-05
20 *47:10 *80:21 8.68569e-05
21 *48:10 *199:B 5.33978e-05
*RES
1 *233:Q *80:10 18.0321 
2 *80:10 *198:B 14.3357 
3 *80:10 *80:21 2.25 
4 *80:21 *253:A 20.5321 
5 *80:21 *199:B 17.1929 
*END

*D_NET *81 0.00312625
*CONN
*I *254:A I *D sky130_fd_sc_hd__buf_2
*I *204:B I *D sky130_fd_sc_hd__nand2_1
*I *203:B I *D sky130_fd_sc_hd__nor2_1
*I *234:Q O *D sky130_fd_sc_hd__dfrtp_1
*CAP
1 *254:A 2.23854e-05
2 *204:B 0.000243748
3 *203:B 0.000122694
4 *234:Q 0.000191635
5 *81:22 0.000867002
6 *81:12 0.00071458
7 *81:12 *226:A 0
8 acc[6] *81:12 0.000115369
9 *205:A_N *81:22 0.000202639
10 *207:A *81:22 0.000225387
11 *207:B *81:22 1.24368e-05
12 *208:A2 *204:B 1.23511e-05
13 *209:A2 *203:B 7.83366e-05
14 *209:A2 *204:B 5.08481e-05
15 *209:B1 *203:B 9.83442e-05
16 *234:D *81:22 9.66977e-05
17 *51:17 *203:B 3.85226e-05
18 *51:17 *204:B 2.34969e-05
19 *52:27 *81:22 9.77264e-06
*RES
1 *234:Q *81:12 21.9071 
2 *81:12 *81:22 14.2321 
3 *81:22 *203:B 16.6929 
4 *81:22 *204:B 17.9071 
5 *81:12 *254:A 9.72857 
*END

*D_NET *82 0.00141499
*CONN
*I *211:B I *D sky130_fd_sc_hd__xnor2_1
*I *255:A I *D sky130_fd_sc_hd__buf_2
*I *235:Q O *D sky130_fd_sc_hd__dfrtp_1
*CAP
1 *211:B 0
2 *255:A 0.000156573
3 *235:Q 0.00014081
4 *82:6 0.000297383
5 *255:A *211:A 0.00034491
6 *255:A *226:A 6.05161e-06
7 acc[0] *255:A 0
8 acc[7] *255:A 3.4323e-06
9 *246:A *255:A 5.52302e-05
10 *75:14 *255:A 0.000410597
*RES
1 *235:Q *82:6 11.4786 
2 *82:6 *255:A 24.1214 
3 *82:6 *211:B 9.3 
*END

*D_NET *83 0.00195199
*CONN
*I *186:A I *D sky130_fd_sc_hd__nand2_1
*I *188:A I *D sky130_fd_sc_hd__nor2_1
*I *240:X O *D sky130_fd_sc_hd__clkbuf_1
*CAP
1 *186:A 0.000223168
2 *188:A 0.000275486
3 *240:X 0
4 *83:4 0.000498654
5 *188:A *183:A 0
6 *187:A *186:A 3.99614e-06
7 *188:B *188:A 5.49544e-05
8 *213:A1 *188:A 0.000115399
9 *213:B1 *188:A 2.1768e-05
10 *240:A *186:A 0.000188586
11 *250:A *188:A 0.000176246
12 *33:14 *188:A 4.73286e-05
13 *36:6 *186:A 7.32955e-05
14 *36:16 *186:A 7.32955e-05
15 *38:10 *188:A 0.000199818
*RES
1 *240:X *83:4 9.3 
2 *83:4 *188:A 15.9429 
3 *83:4 *186:A 14.3893 
*END

*D_NET *84 0.00210315
*CONN
*I *184:A I *D sky130_fd_sc_hd__nand2_1
*I *185:A I *D sky130_fd_sc_hd__nor2_1
*I *183:A I *D sky130_fd_sc_hd__and2_1
*I *241:X O *D sky130_fd_sc_hd__buf_1
*CAP
1 *184:A 0
2 *185:A 0
3 *183:A 0.000247745
4 *241:X 8.98238e-05
5 *84:16 0.00040646
6 *84:10 0.000248538
7 *183:A *223:A 0
8 *84:16 *223:A 3.59663e-05
9 acc[3] *183:A 2.24763e-05
10 *188:A *183:A 0
11 *216:B *84:10 1.69961e-05
12 *216:B *84:16 0.00022459
13 *230:D *84:10 9.11536e-05
14 *251:A *183:A 1.33343e-05
15 *41:8 *84:16 2.56601e-05
16 *41:46 *84:16 1.37292e-05
17 *42:41 *84:10 0.00010096
18 *42:41 *84:16 0.000110117
19 *77:18 *84:10 0.000194734
20 *77:30 *84:10 5.71472e-05
21 *77:30 *84:16 0
22 *77:38 *183:A 0.000197913
23 *77:38 *84:16 5.80706e-06
*RES
1 *241:X *84:10 12.7464 
2 *84:10 *84:16 8.92857 
3 *84:16 *183:A 19.0679 
4 *84:16 *185:A 13.8 
5 *84:10 *184:A 9.3 
*END

*D_NET *85 0.00132119
*CONN
*I *182:A I *D sky130_fd_sc_hd__nor2_1
*I *192:A I *D sky130_fd_sc_hd__nand2_1
*I *242:X O *D sky130_fd_sc_hd__clkbuf_1
*CAP
1 *182:A 0.000162093
2 *192:A 2.45167e-05
3 *242:X 9.02836e-05
4 *85:8 0.000276893
5 *182:A *223:A 2.90748e-05
6 *192:A *223:A 1.87955e-05
7 *182:B *182:A 0.000125731
8 *231:RESET_B *182:A 8.39e-05
9 *251:A *85:8 0.000183726
10 *41:16 *182:A 0
11 *42:41 *182:A 5.52302e-05
12 *78:12 *182:A 0.000215049
13 *78:12 *192:A 5.59013e-05
*RES
1 *242:X *85:8 15.5679 
2 *85:8 *192:A 14.5321 
3 *85:8 *182:A 18.7107 
*END

*D_NET *86 0.000872112
*CONN
*I *179:A I *D sky130_fd_sc_hd__nand2_1
*I *180:A I *D sky130_fd_sc_hd__or2_1
*I *243:X O *D sky130_fd_sc_hd__clkbuf_1
*CAP
1 *179:A 8.84574e-05
2 *180:A 0
3 *243:X 0.000102153
4 *86:12 0.000190611
5 *181:A *179:A 2.77126e-05
6 *181:B *179:A 5.52238e-05
7 *233:CLK *86:12 5.01117e-05
8 *252:A *86:12 1.02504e-05
9 *31:10 *179:A 1.56e-05
10 *79:32 *179:A 0.000276761
11 *79:32 *86:12 5.52302e-05
*RES
1 *243:X *86:12 20.175 
2 *86:12 *180:A 9.3 
3 *86:12 *179:A 12.3179 
*END

*D_NET *87 0.00103046
*CONN
*I *199:A I *D sky130_fd_sc_hd__nand2_1
*I *198:A I *D sky130_fd_sc_hd__nor2_1
*I *244:X O *D sky130_fd_sc_hd__clkbuf_1
*CAP
1 *199:A 3.82418e-05
2 *198:A 0.000182195
3 *244:X 5.05799e-05
4 *87:6 0.000271016
5 *199:B *198:A 1.40849e-05
6 *206:A2 *198:A 0.00017309
7 *210:A2 *198:A 0
8 *47:10 *198:A 0.000197984
9 *48:10 *198:A 0.000103267
*RES
1 *244:X *87:6 9.83571 
2 *87:6 *198:A 22.675 
3 *87:6 *199:A 10.0321 
*END

*D_NET *88 0.00105286
*CONN
*I *204:A I *D sky130_fd_sc_hd__nand2_1
*I *203:A I *D sky130_fd_sc_hd__nor2_1
*I *245:X O *D sky130_fd_sc_hd__clkbuf_1
*CAP
1 *204:A 6.37123e-05
2 *203:A 0.000231723
3 *245:X 0
4 *88:4 0.000295435
5 *205:B *203:A 4.02391e-05
6 *208:A2 *203:A 3.41121e-05
7 *234:CLK *203:A 1.00332e-05
8 *234:D *203:A 3.63281e-05
9 *51:17 *203:A 0.000192563
10 *52:10 *203:A 9.21227e-05
11 *52:10 *204:A 5.65955e-05
*RES
1 *245:X *88:4 9.3 
2 *88:4 *203:A 23.3357 
3 *88:4 *204:A 10.5679 
*END

*D_NET *89 0.00216987
*CONN
*I *211:A I *D sky130_fd_sc_hd__xnor2_1
*I *246:X O *D sky130_fd_sc_hd__clkbuf_1
*CAP
1 *211:A 0.000384008
2 *246:X 0.000384008
3 acc[0] *211:A 0.000213863
4 acc[7] *211:A 4.46186e-06
5 *235:RESET_B *211:A 0.0001399
6 *246:A *211:A 0.000698716
7 *255:A *211:A 0.00034491
*RES
1 *246:X *211:A 38.6714 
*END

*D_NET *90 0.0120096
*CONN
*I *178:A I *D sky130_fd_sc_hd__inv_2
*I *226:A I *D sky130_fd_sc_hd__inv_2
*I *227:A I *D sky130_fd_sc_hd__inv_2
*I *224:A I *D sky130_fd_sc_hd__inv_2
*I *225:A I *D sky130_fd_sc_hd__inv_2
*I *222:A I *D sky130_fd_sc_hd__inv_2
*I *223:A I *D sky130_fd_sc_hd__inv_2
*I *221:A I *D sky130_fd_sc_hd__inv_2
*I *247:X O *D sky130_fd_sc_hd__clkbuf_4
*CAP
1 *178:A 0.000231347
2 *226:A 0.00061899
3 *227:A 2.0902e-05
4 *224:A 1.58688e-05
5 *225:A 4.67969e-05
6 *222:A 0.000106725
7 *223:A 0.000589554
8 *221:A 3.75652e-05
9 *247:X 0
10 *90:89 0.00099094
11 *90:41 0.000883428
12 *90:39 0.00071967
13 *90:31 0.000501594
14 *90:29 0.000785393
15 *90:14 0.000972492
16 *90:4 0.000731929
17 acc[6] *226:A 4.29654e-05
18 *182:A *223:A 2.90748e-05
19 *183:A *223:A 0
20 *189:B *90:29 2.8266e-06
21 *189:B *90:89 1.88048e-05
22 *192:A *223:A 1.87955e-05
23 *195:B *90:29 6.56379e-05
24 *196:C1 *222:A 0.00010096
25 *212:A *90:39 2.23592e-05
26 *212:B *224:A 9.83442e-05
27 *212:B *90:39 0.000185541
28 *214:A *90:14 6.26959e-05
29 *214:B *90:14 5.52302e-05
30 *217:B *223:A 4.75911e-05
31 *228:RESET_B *178:A 1.02504e-05
32 *229:CLK *90:29 0
33 *230:D *90:29 3.80445e-05
34 *231:RESET_B *223:A 0.000154762
35 *232:D *223:A 5.81666e-05
36 *232:D *90:41 5.03218e-05
37 *232:RESET_B *90:29 0.000452404
38 *234:CLK *90:29 0
39 *234:CLK *90:89 0
40 *234:RESET_B *226:A 0.000179656
41 *235:D *90:29 0.000103267
42 *237:A *90:41 0.000249493
43 *238:A *224:A 8.59075e-05
44 *238:A *90:29 6.55528e-06
45 *238:A *90:39 0.00014051
46 *239:A *178:A 0.000250142
47 *239:A *90:14 0.000188586
48 *241:A *90:14 6.74911e-05
49 *246:A *226:A 5.35879e-05
50 *246:A *227:A 3.41517e-06
51 *246:A *90:89 7.49267e-05
52 *247:A *178:A 0.000138178
53 *255:A *226:A 6.05161e-06
54 *32:27 *222:A 5.33433e-05
55 *32:27 *223:A 0
56 *36:16 *90:14 0.000269801
57 *36:25 *90:14 1.02132e-05
58 *41:16 *223:A 5.59013e-05
59 *41:46 *223:A 0
60 *46:21 *225:A 0
61 *46:21 *90:29 0
62 *46:21 *90:41 0
63 *46:21 *90:89 0
64 *46:34 *90:89 0
65 *74:10 *90:14 0.00010096
66 *75:14 *226:A 4.58976e-05
67 *75:23 *226:A 0.00036192
68 *76:12 *178:A 0.000101545
69 *77:18 *90:29 0.000126439
70 *77:38 *223:A 0
71 *79:26 *90:39 0.000531883
72 *81:12 *226:A 0
73 *84:16 *223:A 3.59663e-05
*RES
1 *247:X *90:4 9.3 
2 *90:4 *90:14 14.625 
3 *90:14 *221:A 14.3357 
4 *90:14 *90:29 10.5 
5 *90:29 *90:31 4.5 
6 *90:31 *90:39 12.875 
7 *90:39 *90:41 4.52679 
8 *90:41 *223:A 24.5589 
9 *90:41 *222:A 15.9696 
10 *90:39 *225:A 14.5321 
11 *90:31 *224:A 10.2464 
12 *90:29 *90:89 10.6607 
13 *90:89 *227:A 9.72857 
14 *90:89 *226:A 28.9786 
15 *90:4 *178:A 24.3357 
*END
