*SPEF "ieee 1481-1999"
*DESIGN "acc8"
*DATE "12:27:25 Saturday September 19, 2026"
*VENDOR "The OpenROAD Project"
*PROGRAM "OpenROAD"
*VERSION "edf00dff99f6c40d67a30c0e22a8191c5d2ed9d6"
*DESIGN_FLOW "NAME_SCOPE LOCAL" "PIN_CAP NONE"
*DIVIDER /
*DELIMITER :
*BUS_DELIMITER []
*T_UNIT 1 NS
*C_UNIT 1 PF
*R_UNIT 1 OHM
*L_UNIT 1 HENRY

*NAME_MAP
*3 acc[0]
*4 acc[1]
*5 acc[2]
*6 acc[3]
*7 acc[4]
*8 acc[5]
*9 acc[6]
*10 acc[7]
*11 clk
*12 data_in[0]
*13 data_in[1]
*14 data_in[2]
*15 data_in[3]
*16 data_in[4]
*17 data_in[5]
*18 data_in[6]
*19 data_in[7]
*20 rst
*21 _00_
*22 _01_
*23 _02_
*24 _03_
*25 _04_
*26 _05_
*27 _06_
*28 _07_
*29 _08_
*30 _09_
*31 _10_
*32 _11_
*33 _12_
*34 _13_
*35 _14_
*36 _15_
*37 _16_
*38 _17_
*39 _18_
*40 _19_
*41 _20_
*42 _21_
*43 _22_
*44 _23_
*45 _24_
*46 _25_
*47 _26_
*48 _27_
*49 _28_
*50 _29_
*51 _30_
*52 _31_
*53 _32_
*54 _33_
*55 _34_
*56 _35_
*57 _36_
*58 _37_
*59 _38_
*60 _39_
*61 _40_
*62 _41_
*63 adder\.high\.sum\[0\]
*64 adder\.high\.sum\[1\]
*65 adder\.high\.sum\[2\]
*66 adder\.high\.sum\[3\]
*67 adder\.low\.p\[0\]
*68 adder\.low\.sum\[1\]
*69 adder\.low\.sum\[2\]
*70 adder\.low\.sum\[3\]
*71 clknet_0_clk
*72 clknet_1_0__leaf_clk
*73 clknet_1_1__leaf_clk
*74 net1
*75 net10
*76 net11
*77 net12
*78 net13
*79 net14
*80 net15
*81 net16
*82 net17
*83 net2
*84 net3
*85 net4
*86 net5
*87 net6
*88 net7
*89 net8
*90 net9
*91 FILLER_0_15
*92 FILLER_0_27
*93 FILLER_0_29
*94 FILLER_0_3
*95 FILLER_0_34
*96 FILLER_0_42
*97 FILLER_0_50
*98 FILLER_0_55
*99 FILLER_0_62
*100 FILLER_0_77
*101 FILLER_10_15
*102 FILLER_10_27
*103 FILLER_10_3
*104 FILLER_10_55
*105 FILLER_10_67
*106 FILLER_10_75
*107 FILLER_11_15
*108 FILLER_11_19
*109 FILLER_11_23
*110 FILLER_11_3
*111 FILLER_11_35
*112 FILLER_11_57
*113 FILLER_11_69
*114 FILLER_11_73
*115 FILLER_12_29
*116 FILLER_12_3
*117 FILLER_12_50
*118 FILLER_12_58
*119 FILLER_12_7
*120 FILLER_12_79
*121 FILLER_13_15
*122 FILLER_13_27
*123 FILLER_13_29
*124 FILLER_13_3
*125 FILLER_13_35
*126 FILLER_13_41
*127 FILLER_13_54
*128 FILLER_13_57
*129 FILLER_13_65
*130 FILLER_13_70
*131 FILLER_13_78
*132 FILLER_1_15
*133 FILLER_1_27
*134 FILLER_1_3
*135 FILLER_1_33
*136 FILLER_1_48
*137 FILLER_1_52
*138 FILLER_2_15
*139 FILLER_2_27
*140 FILLER_2_29
*141 FILLER_2_3
*142 FILLER_2_42
*143 FILLER_2_67
*144 FILLER_2_75
*145 FILLER_3_3
*146 FILLER_3_33
*147 FILLER_3_45
*148 FILLER_3_53
*149 FILLER_3_64
*150 FILLER_3_76
*151 FILLER_3_80
*152 FILLER_4_15
*153 FILLER_4_27
*154 FILLER_4_29
*155 FILLER_4_3
*156 FILLER_4_41
*157 FILLER_4_62
*158 FILLER_5_17
*159 FILLER_5_25
*160 FILLER_5_3
*161 FILLER_5_48
*162 FILLER_5_55
*163 FILLER_5_57
*164 FILLER_6_10
*165 FILLER_6_23
*166 FILLER_6_27
*167 FILLER_6_32
*168 FILLER_6_37
*169 FILLER_6_41
*170 FILLER_6_45
*171 FILLER_6_57
*172 FILLER_6_69
*173 FILLER_6_77
*174 FILLER_7_30
*175 FILLER_7_34
*176 FILLER_7_55
*177 FILLER_7_57
*178 FILLER_7_69
*179 FILLER_8_18
*180 FILLER_8_26
*181 FILLER_8_29
*182 FILLER_8_3
*183 FILLER_8_41
*184 FILLER_8_49
*185 FILLER_9_15
*186 FILLER_9_27
*187 FILLER_9_3
*188 FILLER_9_36
*189 FILLER_9_48
*190 FILLER_9_57
*191 FILLER_9_69
*192 PHY_EDGE_ROW_0_Left_14
*193 PHY_EDGE_ROW_0_Right_0
*194 PHY_EDGE_ROW_10_Left_24
*195 PHY_EDGE_ROW_10_Right_10
*196 PHY_EDGE_ROW_11_Left_25
*197 PHY_EDGE_ROW_11_Right_11
*198 PHY_EDGE_ROW_12_Left_26
*199 PHY_EDGE_ROW_12_Right_12
*200 PHY_EDGE_ROW_13_Left_27
*201 PHY_EDGE_ROW_13_Right_13
*202 PHY_EDGE_ROW_1_Left_15
*203 PHY_EDGE_ROW_1_Right_1
*204 PHY_EDGE_ROW_2_Left_16
*205 PHY_EDGE_ROW_2_Right_2
*206 PHY_EDGE_ROW_3_Left_17
*207 PHY_EDGE_ROW_3_Right_3
*208 PHY_EDGE_ROW_4_Left_18
*209 PHY_EDGE_ROW_4_Right_4
*210 PHY_EDGE_ROW_5_Left_19
*211 PHY_EDGE_ROW_5_Right_5
*212 PHY_EDGE_ROW_6_Left_20
*213 PHY_EDGE_ROW_6_Right_6
*214 PHY_EDGE_ROW_7_Left_21
*215 PHY_EDGE_ROW_7_Right_7
*216 PHY_EDGE_ROW_8_Left_22
*217 PHY_EDGE_ROW_8_Right_8
*218 PHY_EDGE_ROW_9_Left_23
*219 PHY_EDGE_ROW_9_Right_9
*220 TAP_TAPCELL_ROW_0_28
*221 TAP_TAPCELL_ROW_0_29
*222 TAP_TAPCELL_ROW_10_39
*223 TAP_TAPCELL_ROW_11_40
*224 TAP_TAPCELL_ROW_12_41
*225 TAP_TAPCELL_ROW_13_42
*226 TAP_TAPCELL_ROW_13_43
*227 TAP_TAPCELL_ROW_1_30
*228 TAP_TAPCELL_ROW_2_31
*229 TAP_TAPCELL_ROW_3_32
*230 TAP_TAPCELL_ROW_4_33
*231 TAP_TAPCELL_ROW_5_34
*232 TAP_TAPCELL_ROW_6_35
*233 TAP_TAPCELL_ROW_7_36
*234 TAP_TAPCELL_ROW_8_37
*235 TAP_TAPCELL_ROW_9_38
*236 _42_
*237 _43_
*238 _44_
*239 _45_
*240 _46_
*241 _47_
*242 _48_
*243 _49_
*244 _50_
*245 _51_
*246 _52_
*247 _53_
*248 _54_
*249 _55_
*250 _56_
*251 _57_
*252 _58_
*253 _59_
*254 _60_
*255 _61_
*256 _62_
*257 _63_
*258 _64_
*259 _65_
*260 _66_
*261 _67_
*262 _68_
*263 _69_
*264 _70_
*265 _71_
*266 _72_
*267 _73_
*268 _74_
*269 _75_
*270 _76_
*271 _77_
*272 _78_
*273 _79_
*274 _80_
*275 _81_
*276 _82_
*277 _83_
*278 _84_
*279 _85_
*280 _86_
*281 _87_
*282 _88_
*283 _89_
*284 _90_
*285 _91_
*286 _92_
*287 _93_
*288 _94_
*289 _95_
*290 _96_
*291 _97_
*292 _98_
*293 _99_
*294 clkbuf_0_clk
*295 clkbuf_1_0__f_clk
*296 clkbuf_1_1__f_clk
*297 input1
*298 input2
*299 input3
*300 input4
*301 input5
*302 input6
*303 input7
*304 input8
*305 input9
*306 output10
*307 output11
*308 output12
*309 output13
*310 output14
*311 output15
*312 output16
*313 output17

*PORTS
acc[0] O
acc[1] O
acc[2] O
acc[3] O
acc[4] O
acc[5] O
acc[6] O
acc[7] O
clk I
data_in[0] I
data_in[1] I
data_in[2] I
data_in[3] I
data_in[4] I
data_in[5] I
data_in[6] I
data_in[7] I
rst I

*D_NET *3 0.000679655
*CONN
*P acc[0] O
*I *306:X O *D sky130_fd_sc_hd__buf_2
*CAP
1 acc[0] 0.000231463
2 *306:X 0.000231463
3 acc[0] acc[1] 8.60937e-05
4 acc[0] *12:15 8.73764e-05
5 acc[0] *90:16 4.32584e-05
*RES
1 *306:X acc[0] 48.5734 
*END

*D_NET *4 0.000662091
*CONN
*P acc[1] O
*I *307:X O *D sky130_fd_sc_hd__buf_2
*CAP
1 acc[1] 0.000278212
2 *307:X 0.000278212
3 acc[1] *90:16 1.9574e-05
4 acc[0] acc[1] 8.60937e-05
*RES
1 *307:X acc[1] 47.5169 
*END

*D_NET *5 0.00103072
*CONN
*P acc[2] O
*I *308:X O *D sky130_fd_sc_hd__buf_2
*CAP
1 acc[2] 0.000486859
2 *308:X 0.000486859
3 acc[2] *299:A 0
4 acc[2] *77:33 5.70006e-05
*RES
1 *308:X acc[2] 47.57 
*END

*D_NET *6 0.000827544
*CONN
*P acc[3] O
*I *309:X O *D sky130_fd_sc_hd__buf_2
*CAP
1 acc[3] 0.000354494
2 *309:X 0.000354494
3 acc[3] *300:A 5.82094e-05
4 acc[3] *78:8 4.08641e-05
5 acc[3] *78:12 1.94812e-05
*RES
1 *309:X acc[3] 49.8901 
*END

*D_NET *7 0.000527379
*CONN
*P acc[4] O
*I *310:X O *D sky130_fd_sc_hd__buf_2
*CAP
1 acc[4] 0.000179254
2 *310:X 0.000179254
3 acc[4] acc[7] 8.73764e-05
4 acc[4] *301:A 7.21596e-05
5 acc[4] *12:15 0
6 acc[4] *90:10 9.33529e-06
*RES
1 *310:X acc[4] 47.1648 
*END

*D_NET *8 0.00115372
*CONN
*P acc[5] O
*I *311:X O *D sky130_fd_sc_hd__buf_2
*CAP
1 acc[5] 0.000529782
2 *311:X 0.000529782
3 acc[5] *302:A 0
4 acc[5] *80:18 9.41573e-05
*RES
1 *311:X acc[5] 49.2064 
*END

*D_NET *9 0.00107739
*CONN
*P acc[6] O
*I *312:X O *D sky130_fd_sc_hd__buf_2
*CAP
1 acc[6] 0.000538693
2 *312:X 0.000538693
3 acc[6] *81:38 0
*RES
1 *312:X acc[6] 49.2064 
*END

*D_NET *10 0.000689971
*CONN
*P acc[7] O
*I *313:X O *D sky130_fd_sc_hd__buf_2
*CAP
1 acc[7] 0.000231641
2 *313:X 0.000231641
3 acc[7] *304:A 8.06147e-05
4 acc[7] *305:A 0
5 acc[7] *82:8 4.334e-05
6 acc[7] *90:8 1.53581e-05
7 acc[4] acc[7] 8.73764e-05
*RES
1 *313:X acc[7] 48.5734 
*END

*D_NET *11 0.00366043
*CONN
*P clk I
*I *294:A I *D sky130_fd_sc_hd__clkbuf_16
*CAP
1 clk 0.00171844
2 *294:A 0
3 *11:25 0.00171844
4 *11:25 *289:CLK 0
5 *11:25 *46:10 5.86165e-05
6 *11:25 *50:8 0.000164938
*RES
1 clk *11:25 37.7508 
2 *11:25 *294:A 23 
*END

*D_NET *12 0.0015224
*CONN
*P data_in[0] I
*I *297:A I *D sky130_fd_sc_hd__clkbuf_1
*CAP
1 data_in[0] 0.000531108
2 *297:A 0
3 *12:15 0.000531108
4 *12:15 *301:A 0.00013088
5 *12:15 *75:10 3.34756e-05
6 *12:15 *86:10 0.000126847
7 *12:15 *90:12 8.1606e-05
8 acc[0] *12:15 8.73764e-05
9 acc[4] *12:15 0
*RES
1 data_in[0] *12:15 31.5391 
2 *12:15 *297:A 23 
*END

*D_NET *13 0.000901841
*CONN
*P data_in[1] I
*I *298:A I *D sky130_fd_sc_hd__clkbuf_1
*CAP
1 data_in[1] 0.00045092
2 *298:A 0.00045092
*RES
1 data_in[1] *298:A 47.3214 
*END

*D_NET *14 0.000902566
*CONN
*P data_in[2] I
*I *299:A I *D sky130_fd_sc_hd__buf_1
*CAP
1 data_in[2] 0.000448596
2 *299:A 0.000448596
3 *299:A *84:10 5.37348e-06
4 acc[2] *299:A 0
*RES
1 data_in[2] *299:A 47.3214 
*END

*D_NET *15 0.000853702
*CONN
*P data_in[3] I
*I *300:A I *D sky130_fd_sc_hd__clkbuf_1
*CAP
1 data_in[3] 0.000392814
2 *300:A 0.000392814
3 *300:A *78:22 0
4 *300:A *85:8 9.86551e-06
5 acc[3] *300:A 5.82094e-05
*RES
1 data_in[3] *300:A 48.1267 
*END

*D_NET *16 0.00056569
*CONN
*P data_in[4] I
*I *301:A I *D sky130_fd_sc_hd__clkbuf_1
*CAP
1 data_in[4] 0.000181325
2 *301:A 0.000181325
3 *301:A *90:10 0
4 *301:A *90:12 0
5 acc[4] *301:A 7.21596e-05
6 *12:15 *301:A 0.00013088
*RES
1 data_in[4] *301:A 47.7832 
*END

*D_NET *17 0.00107835
*CONN
*P data_in[5] I
*I *302:A I *D sky130_fd_sc_hd__clkbuf_1
*CAP
1 data_in[5] 0.000539175
2 *302:A 0.000539175
3 *302:A *18:15 0
4 acc[5] *302:A 0
*RES
1 data_in[5] *302:A 48.9786 
*END

*D_NET *18 0.00159031
*CONN
*P data_in[6] I
*I *303:A I *D sky130_fd_sc_hd__clkbuf_1
*CAP
1 data_in[6] 0.000759168
2 *303:A 0
3 *18:15 0.000759168
4 *18:15 *263:B 2.7237e-05
5 *18:15 *52:12 1.05235e-05
6 *18:15 *88:14 3.42147e-05
7 *302:A *18:15 0
*RES
1 data_in[6] *18:15 29.2721 
2 *18:15 *303:A 23 
*END

*D_NET *19 0.000611752
*CONN
*P data_in[7] I
*I *304:A I *D sky130_fd_sc_hd__clkbuf_1
*CAP
1 data_in[7] 0.000225261
2 *304:A 0.000225261
3 *304:A *305:A 8.06147e-05
4 *304:A *90:8 0
5 acc[7] *304:A 8.06147e-05
*RES
1 data_in[7] *304:A 48.4875 
*END

*D_NET *20 0.000612606
*CONN
*P rst I
*I *305:A I *D sky130_fd_sc_hd__clkbuf_4
*CAP
1 rst 0.000256566
2 *305:A 0.000256566
3 *305:A *90:8 1.88594e-05
4 acc[7] *305:A 0
5 *304:A *305:A 8.06147e-05
*RES
1 rst *305:A 48.2212 
*END

*D_NET *21 0.000240566
*CONN
*I *286:RESET_B I *D sky130_fd_sc_hd__dfrtp_1
*I *236:Y O *D sky130_fd_sc_hd__inv_2
*CAP
1 *286:RESET_B 0
2 *236:Y 6.21258e-05
3 *21:8 6.21258e-05
4 *21:8 *74:8 0
5 *21:8 *90:12 0.000116314
*RES
1 *236:Y *21:8 39.5536 
2 *21:8 *286:RESET_B 15 
*END

*D_NET *22 0.000381673
*CONN
*I *287:RESET_B I *D sky130_fd_sc_hd__dfrtp_1
*I *279:Y O *D sky130_fd_sc_hd__inv_2
*CAP
1 *287:RESET_B 0
2 *279:Y 9.0986e-05
3 *22:8 9.0986e-05
4 *22:8 *90:16 0.000199701
*RES
1 *279:Y *22:8 40.61 
2 *22:8 *287:RESET_B 15 
*END

*D_NET *23 0.000640028
*CONN
*I *288:RESET_B I *D sky130_fd_sc_hd__dfrtp_1
*I *280:Y O *D sky130_fd_sc_hd__inv_2
*CAP
1 *288:RESET_B 0.000236307
2 *280:Y 0.000236307
3 *288:RESET_B *72:26 5.50049e-05
4 *288:RESET_B *77:6 0.000112408
*RES
1 *280:Y *288:RESET_B 27.8368 
*END

*D_NET *24 0.000318044
*CONN
*I *289:RESET_B I *D sky130_fd_sc_hd__dfrtp_1
*I *281:Y O *D sky130_fd_sc_hd__inv_2
*CAP
1 *289:RESET_B 6.3673e-05
2 *281:Y 9.53488e-05
3 *24:8 0.000159022
4 *24:8 *289:CLK 0
*RES
1 *281:Y *24:8 39.5536 
2 *24:8 *289:RESET_B 16.0254 
*END

*D_NET *25 0.000413632
*CONN
*I *290:RESET_B I *D sky130_fd_sc_hd__dfrtp_1
*I *282:Y O *D sky130_fd_sc_hd__inv_2
*CAP
1 *290:RESET_B 0
2 *282:Y 5.5783e-05
3 *25:8 5.5783e-05
4 *25:8 *286:CLK 0.000102365
5 *25:8 *90:43 0.000199701
*RES
1 *282:Y *25:8 40.61 
2 *25:8 *290:RESET_B 15 
*END

*D_NET *26 0.000385126
*CONN
*I *291:RESET_B I *D sky130_fd_sc_hd__dfrtp_1
*I *283:Y O *D sky130_fd_sc_hd__inv_2
*CAP
1 *291:RESET_B 3.92036e-05
2 *283:Y 9.13662e-05
3 *26:8 0.00013057
4 *291:RESET_B *80:8 9.18637e-05
5 *26:8 *291:CLK 3.21223e-05
*RES
1 *283:Y *26:8 39.5536 
2 *26:8 *291:RESET_B 16.0254 
*END

*D_NET *27 0.000303048
*CONN
*I *292:RESET_B I *D sky130_fd_sc_hd__dfrtp_1
*I *284:Y O *D sky130_fd_sc_hd__inv_2
*CAP
1 *292:RESET_B 0
2 *284:Y 0.00013538
3 *27:10 0.00013538
4 *27:10 *90:73 3.22879e-05
*RES
1 *284:Y *27:10 40.175 
2 *27:10 *292:RESET_B 15 
*END

*D_NET *28 0.000368702
*CONN
*I *293:RESET_B I *D sky130_fd_sc_hd__dfrtp_1
*I *285:Y O *D sky130_fd_sc_hd__inv_2
*CAP
1 *293:RESET_B 0.000135108
2 *285:Y 0.000135108
3 *293:RESET_B *285:A 9.84851e-05
*RES
1 *285:Y *293:RESET_B 25.4546 
*END

*D_NET *29 0.00529294
*CONN
*I *264:A1 I *D sky130_fd_sc_hd__a31o_1
*I *266:C1 I *D sky130_fd_sc_hd__o211a_1
*I *259:A I *D sky130_fd_sc_hd__nand2_1
*I *239:A I *D sky130_fd_sc_hd__nand2_1
*I *237:Y O *D sky130_fd_sc_hd__nand2_1
*CAP
1 *264:A1 0.000235955
2 *266:C1 2.32701e-05
3 *259:A 0.000230624
4 *239:A 0.000192795
5 *237:Y 0.000269593
6 *29:36 0.000523041
7 *29:19 0.000860738
8 *29:6 0.000828686
9 *239:A *239:B 5.36046e-05
10 *239:A *31:6 1.92253e-05
11 *259:A *268:A2 0.000191255
12 *259:A *46:25 0.000153751
13 *259:A *46:34 1.34914e-05
14 *264:A1 *264:A2 0.000451968
15 *264:A1 *264:A3 2.02872e-05
16 *264:A1 *264:B1 3.85196e-05
17 *264:A1 *52:18 0.00038945
18 *266:C1 *267:A1 5.3304e-05
19 *266:C1 *267:A2 5.3304e-05
20 *29:6 *238:A 4.95081e-05
21 *29:6 *238:B 5.67058e-05
22 *29:6 *239:B 7.15126e-05
23 *29:19 *46:40 0.000360286
24 *29:36 *264:A2 9.52196e-05
25 *29:36 *46:40 4.54033e-05
26 *29:36 *52:18 1.14452e-05
*RES
1 *237:Y *29:6 26.9564 
2 *29:6 *239:A 25.9 
3 *29:6 *29:19 24.3007 
4 *29:19 *259:A 43.8829 
5 *29:19 *29:36 3.72857 
6 *29:36 *266:C1 38.6214 
7 *29:36 *264:A1 45.0221 
*END

*D_NET *30 0.000386972
*CONN
*I *239:B I *D sky130_fd_sc_hd__nand2_1
*I *238:X O *D sky130_fd_sc_hd__or2_1
*CAP
1 *239:B 0.000130927
2 *238:X 0.000130927
3 *239:A *239:B 5.36046e-05
4 *29:6 *239:B 7.15126e-05
*RES
1 *238:X *239:B 48.5271 
*END

*D_NET *31 0.00119514
*CONN
*I *254:C1 I *D sky130_fd_sc_hd__a311o_1
*I *253:A I *D sky130_fd_sc_hd__nand2_1
*I *239:Y O *D sky130_fd_sc_hd__nand2_1
*CAP
1 *254:C1 0
2 *253:A 5.43474e-05
3 *239:Y 0.000195448
4 *31:21 0.000138149
5 *31:6 0.000387944
6 *253:A *34:36 3.48133e-05
7 *31:6 *34:36 0.000114783
8 *31:21 *254:B1 2.11157e-05
9 *31:21 *34:19 4.17922e-05
10 *31:21 *44:10 0.000187519
11 *31:21 *46:10 0
12 *239:A *31:6 1.92253e-05
*RES
1 *239:Y *31:6 26.9564 
2 *31:6 *253:A 24.1186 
3 *31:6 *31:21 32.9621 
4 *31:21 *254:C1 23 
*END

*D_NET *32 0.00319537
*CONN
*I *251:A_N I *D sky130_fd_sc_hd__nand2b_1
*I *252:B1 I *D sky130_fd_sc_hd__a31o_1
*I *254:B1 I *D sky130_fd_sc_hd__a311o_1
*I *240:Y O *D sky130_fd_sc_hd__nor2_1
*CAP
1 *251:A_N 7.70144e-05
2 *252:B1 0.000427507
3 *254:B1 3.09636e-05
4 *240:Y 0.000188536
5 *32:14 0.00107799
6 *32:8 0.000885066
7 *251:A_N *42:14 0.000141879
8 *251:A_N *78:22 0
9 *252:B1 *34:36 4.70939e-05
10 *252:B1 *71:12 0
11 *254:B1 *252:A3 1.47607e-05
12 *254:B1 *34:8 4.77164e-06
13 *254:B1 *34:19 1.05658e-05
14 *32:8 *250:A 0.000184527
15 *32:8 *42:6 3.53115e-05
16 *32:14 *42:14 4.82745e-05
17 *31:21 *254:B1 2.11157e-05
*RES
1 *240:Y *32:8 41.0036 
2 *32:8 *32:14 10.1031 
3 *32:14 *254:B1 46.6059 
4 *32:14 *252:B1 47.3303 
5 *32:8 *251:A_N 39.9057 
*END

*D_NET *33 0.00110437
*CONN
*I *273:A1 I *D sky130_fd_sc_hd__o211ai_1
*I *249:B1 I *D sky130_fd_sc_hd__a211o_1
*I *241:X O *D sky130_fd_sc_hd__and2_1
*CAP
1 *273:A1 6.66868e-05
2 *249:B1 0
3 *241:X 0
4 *33:22 0.00023288
5 *33:4 0.000299567
6 *273:A1 *243:A 5.50106e-05
7 *273:A1 *273:A2 2.58635e-05
8 *273:A1 *60:10 0.000186108
9 *273:A1 *77:25 5.77665e-05
10 *33:22 *249:A1 9.50163e-05
11 *33:22 *273:C1 0
12 *33:22 *35:14 7.59874e-05
13 *33:22 *77:33 9.48381e-06
*RES
1 *241:X *33:4 23 
2 *33:4 *33:22 34.8834 
3 *33:22 *249:B1 23 
4 *33:4 *273:A1 25.5479 
*END

*D_NET *34 0.00219668
*CONN
*I *252:A1 I *D sky130_fd_sc_hd__a31o_1
*I *275:A I *D sky130_fd_sc_hd__nand2_1
*I *254:A1 I *D sky130_fd_sc_hd__a311o_1
*I *242:Y O *D sky130_fd_sc_hd__nand2_1
*CAP
1 *252:A1 0
2 *275:A 3.76539e-05
3 *254:A1 0
4 *242:Y 0.000274778
5 *34:36 0.000370158
6 *34:19 0.000538742
7 *34:8 0.000405708
8 *34:8 *41:35 8.79039e-05
9 *34:8 *72:26 0
10 *34:19 *275:B 8.97226e-05
11 *34:36 *252:A2 1.14452e-05
12 *34:36 *45:10 0.00012675
13 *34:36 *46:40 0
14 *252:B1 *34:36 4.70939e-05
15 *253:A *34:36 3.48133e-05
16 *254:B1 *34:8 4.77164e-06
17 *254:B1 *34:19 1.05658e-05
18 *31:6 *34:36 0.000114783
19 *31:21 *34:19 4.17922e-05
*RES
1 *242:Y *34:8 43.075 
2 *34:8 *254:A1 38 
3 *34:8 *34:19 17.61 
4 *34:19 *275:A 23.6214 
5 *34:19 *34:36 37.0636 
6 *34:36 *252:A1 23 
*END

*D_NET *35 0.000773204
*CONN
*I *273:A2 I *D sky130_fd_sc_hd__o211ai_1
*I *249:C1 I *D sky130_fd_sc_hd__a211o_1
*I *243:Y O *D sky130_fd_sc_hd__nor2_1
*CAP
1 *273:A2 0.00013413
2 *249:C1 0
3 *243:Y 0
4 *35:14 0.000144173
5 *35:4 0.000278303
6 *273:A2 *273:B1 1.8788e-05
7 *273:A2 *60:10 1.08287e-05
8 *273:A2 *77:25 7.12641e-05
9 *35:14 *249:A1 1.3867e-05
10 *273:A1 *273:A2 2.58635e-05
11 *33:22 *35:14 7.59874e-05
*RES
1 *243:Y *35:4 23 
2 *35:4 *35:14 32.5582 
3 *35:14 *249:C1 23 
4 *35:4 *273:A2 25.4236 
*END

*D_NET *36 0.00344383
*CONN
*I *245:A I *D sky130_fd_sc_hd__inv_2
*I *248:C_N I *D sky130_fd_sc_hd__or3b_1
*I *249:A1 I *D sky130_fd_sc_hd__a211o_1
*I *273:B1 I *D sky130_fd_sc_hd__o211ai_1
*I *244:Y O *D sky130_fd_sc_hd__nand2_1
*CAP
1 *245:A 3.44513e-05
2 *248:C_N 0
3 *249:A1 0.000194488
4 *273:B1 0.000156097
5 *244:Y 0
6 *36:40 0.000122211
7 *36:34 0.000458123
8 *36:21 0.000597524
9 *36:4 0.000257673
10 *245:A *37:10 2.18409e-05
11 *249:A1 *249:A2 0.000490543
12 *249:A1 *71:12 0.000227876
13 *273:B1 *244:A 3.22879e-05
14 *273:B1 *244:B 3.91386e-05
15 *273:B1 *273:C1 9.84794e-05
16 *36:21 *273:C1 6.57448e-05
17 *36:21 *40:42 0
18 *36:21 *71:12 1.01436e-05
19 *36:34 *37:10 0.000144231
20 *36:34 *72:10 4.93341e-05
21 *36:34 *72:57 4.75206e-05
22 *36:40 *39:14 0
23 *36:40 *39:31 0.000223043
24 *36:40 *72:10 0
25 *36:40 *72:57 4.54033e-05
26 *273:A2 *273:B1 1.8788e-05
27 *33:22 *249:A1 9.50163e-05
28 *35:14 *249:A1 1.3867e-05
*RES
1 *244:Y *36:4 23 
2 *36:4 *273:B1 26.5214 
3 *36:4 *36:21 31.9057 
4 *36:21 *249:A1 29.8564 
5 *36:21 *36:34 6.33857 
6 *36:34 *36:40 33.3143 
7 *36:40 *248:C_N 23 
8 *36:34 *245:A 23.6214 
*END

*D_NET *37 0.00114475
*CONN
*I *271:A1 I *D sky130_fd_sc_hd__o21ai_1
*I *245:Y O *D sky130_fd_sc_hd__inv_2
*CAP
1 *271:A1 0
2 *245:Y 0.000352672
3 *37:10 0.000352672
4 *37:10 *38:16 0.000135547
5 *37:10 *40:42 0.000137788
6 *245:A *37:10 2.18409e-05
7 *36:34 *37:10 0.000144231
*RES
1 *245:Y *37:10 43.8621 
2 *37:10 *271:A1 38 
*END

*D_NET *38 0.00131893
*CONN
*I *271:A2 I *D sky130_fd_sc_hd__o21ai_1
*I *248:B I *D sky130_fd_sc_hd__or3b_1
*I *246:Y O *D sky130_fd_sc_hd__nor2_1
*CAP
1 *271:A2 0
2 *248:B 0
3 *246:Y 7.37614e-05
4 *38:16 0.000275303
5 *38:8 0.000349065
6 *38:8 *244:B 0.000180212
7 *38:8 *246:B 0.00012048
8 *38:16 *40:42 0.000101554
9 *38:16 *72:57 8.30122e-05
10 *37:10 *38:16 0.000135547
*RES
1 *246:Y *38:8 25.5479 
2 *38:8 *38:16 35.3443 
3 *38:16 *248:B 23 
4 *38:8 *271:A2 23 
*END

*D_NET *39 0.00259708
*CONN
*I *278:A I *D sky130_fd_sc_hd__and2_1
*I *271:B1 I *D sky130_fd_sc_hd__o21ai_1
*I *248:A I *D sky130_fd_sc_hd__or3b_1
*I *247:Y O *D sky130_fd_sc_hd__nand2_1
*CAP
1 *278:A 0
2 *271:B1 0
3 *248:A 0.00013319
4 *247:Y 0.000157508
5 *39:31 0.000336953
6 *39:14 0.000778715
7 *39:6 0.00046608
8 *39:6 *247:A 0.00014196
9 *39:6 *277:B 2.4754e-05
10 *39:6 *278:B 2.93845e-05
11 *39:14 *74:8 1.19692e-05
12 *39:14 *90:16 0
13 *39:31 *246:B 6.68617e-05
14 *39:31 *72:57 4.38375e-05
15 *39:31 *76:6 0.000182826
16 *36:40 *39:14 0
17 *36:40 *39:31 0.000223043
*RES
1 *247:Y *39:6 26.48 
2 *39:6 *39:14 35.365 
3 *39:14 *248:A 25.0507 
4 *39:14 *39:31 37.975 
5 *39:31 *271:B1 23 
6 *39:6 *278:A 23 
*END

*D_NET *40 0.003929
*CONN
*I *272:A I *D sky130_fd_sc_hd__and2_1
*I *249:A2 I *D sky130_fd_sc_hd__a211o_1
*I *273:C1 I *D sky130_fd_sc_hd__o211ai_1
*I *248:X O *D sky130_fd_sc_hd__or3b_1
*CAP
1 *272:A 0
2 *249:A2 0.000252857
3 *273:C1 0.00021749
4 *248:X 4.5609e-05
5 *40:42 0.000363766
6 *40:12 0.000852897
7 *40:6 0.000791925
8 *249:A2 *41:27 5.73288e-05
9 *273:C1 *71:12 5.94125e-05
10 *40:12 *41:27 0
11 *40:12 *71:12 0.000111852
12 *40:12 *90:43 9.91798e-05
13 *40:42 *59:8 4.59027e-05
14 *40:42 *68:10 0
15 *40:42 *71:12 0
16 *40:42 *72:10 8.4047e-05
17 *40:42 *83:10 5.26204e-05
18 *249:A1 *249:A2 0.000490543
19 *273:B1 *273:C1 9.84794e-05
20 *33:22 *273:C1 0
21 *36:21 *273:C1 6.57448e-05
22 *36:21 *40:42 0
23 *37:10 *40:42 0.000137788
24 *38:16 *40:42 0.000101554
*RES
1 *248:X *40:6 23.6214 
2 *40:6 *40:12 20.51 
3 *40:12 *273:C1 42.4121 
4 *40:12 *249:A2 44.235 
5 *40:6 *40:42 38.1614 
6 *40:42 *272:A 23 
*END

*D_NET *41 0.00320504
*CONN
*I *252:A2 I *D sky130_fd_sc_hd__a31o_1
*I *254:A2 I *D sky130_fd_sc_hd__a311o_1
*I *275:B I *D sky130_fd_sc_hd__nand2_1
*I *274:A I *D sky130_fd_sc_hd__and2_1
*I *249:X O *D sky130_fd_sc_hd__a211o_1
*CAP
1 *252:A2 4.64388e-05
2 *254:A2 0
3 *275:B 0.000173347
4 *274:A 0
5 *249:X 0
6 *41:35 0.000534255
7 *41:27 0.000953137
8 *41:12 0.000101361
9 *41:4 0.000647151
10 *252:A2 *71:12 0
11 *275:B *46:10 0.000139647
12 *275:B *61:10 1.59094e-05
13 *41:12 *242:A 3.07161e-05
14 *41:12 *60:10 5.58975e-06
15 *41:27 *242:A 0
16 *41:27 *63:10 0
17 *41:27 *71:12 0
18 *41:35 *252:A3 0.000296987
19 *41:35 *255:A 1.40958e-05
20 *249:A2 *41:27 5.73288e-05
21 *34:8 *41:35 8.79039e-05
22 *34:19 *275:B 8.97226e-05
23 *34:36 *252:A2 1.14452e-05
24 *40:12 *41:27 0
*RES
1 *249:X *41:4 23 
2 *41:4 *41:12 31.8229 
3 *41:12 *274:A 23 
4 *41:4 *41:27 24.1764 
5 *41:27 *41:35 35.1579 
6 *41:35 *275:B 41.8529 
7 *41:35 *254:A2 38 
8 *41:27 *252:A2 38.8493 
*END

*D_NET *42 0.00210521
*CONN
*I *254:A3 I *D sky130_fd_sc_hd__a311o_1
*I *252:A3 I *D sky130_fd_sc_hd__a31o_1
*I *251:B I *D sky130_fd_sc_hd__nand2b_1
*I *250:Y O *D sky130_fd_sc_hd__nand2_1
*CAP
1 *254:A3 2.95691e-05
2 *252:A3 0.000178433
3 *251:B 0
4 *250:Y 8.95179e-05
5 *42:21 0.000484686
6 *42:14 0.000153471
7 *42:6 0.000519673
8 *252:A3 *255:A 5.73288e-05
9 *42:6 *250:A 3.22879e-05
10 *42:14 *46:10 0
11 *42:21 *46:10 2.30292e-05
12 *251:A_N *42:14 0.000141879
13 *254:B1 *252:A3 1.47607e-05
14 *32:8 *42:6 3.53115e-05
15 *32:14 *42:14 4.82745e-05
16 *41:35 *252:A3 0.000296987
*RES
1 *250:Y *42:6 25.0507 
2 *42:6 *42:14 33.1123 
3 *42:14 *251:B 23 
4 *42:6 *42:21 5.38571 
5 *42:21 *252:A3 28.0957 
6 *42:21 *254:A3 23.4971 
*END

*D_NET *43 0.000678269
*CONN
*I *276:A I *D sky130_fd_sc_hd__xnor2_1
*I *251:Y O *D sky130_fd_sc_hd__nand2b_1
*CAP
1 *276:A 0
2 *251:Y 0.000252173
3 *43:10 0.000252173
4 *43:10 *289:CLK 2.76611e-06
5 *43:10 *46:10 2.70469e-05
6 *43:10 *61:10 0.00014411
*RES
1 *251:Y *43:10 43.1371 
2 *43:10 *276:A 38 
*END

*D_NET *44 0.000693815
*CONN
*I *253:B I *D sky130_fd_sc_hd__nand2_1
*I *252:X O *D sky130_fd_sc_hd__a31o_1
*CAP
1 *253:B 0
2 *252:X 0.000184754
3 *44:10 0.000184754
4 *44:10 *45:10 0.000136787
5 *31:21 *44:10 0.000187519
*RES
1 *252:X *44:10 41.4593 
2 *44:10 *253:B 38 
*END

*D_NET *45 0.00100668
*CONN
*I *255:A I *D sky130_fd_sc_hd__and2_1
*I *253:Y O *D sky130_fd_sc_hd__nand2_1
*CAP
1 *255:A 0.000167906
2 *253:Y 0.000167953
3 *45:10 0.000335859
4 *252:A3 *255:A 5.73288e-05
5 *34:36 *45:10 0.00012675
6 *41:35 *255:A 1.40958e-05
7 *44:10 *45:10 0.000136787
*RES
1 *253:Y *45:10 41.0036 
2 *45:10 *255:A 41.0036 
*END

*D_NET *46 0.00678229
*CONN
*I *264:A2 I *D sky130_fd_sc_hd__a31o_1
*I *255:B I *D sky130_fd_sc_hd__and2_1
*I *268:A1 I *D sky130_fd_sc_hd__a21oi_1
*I *259:B I *D sky130_fd_sc_hd__nand2_1
*I *254:X O *D sky130_fd_sc_hd__a311o_1
*CAP
1 *264:A2 0.000320989
2 *255:B 0
3 *268:A1 0
4 *259:B 0
5 *254:X 0.000522684
6 *46:40 0.00040514
7 *46:34 0.00084496
8 *46:25 0.000438843
9 *46:14 0.000445958
10 *46:10 0.00064863
11 *264:A2 *264:A3 5.50106e-05
12 *264:A2 *292:CLK 0
13 *264:A2 *52:18 1.12487e-05
14 *264:A2 *53:8 4.6318e-06
15 *264:A2 *71:23 0.000364528
16 *264:A2 *81:20 1.40958e-05
17 *46:10 *289:CLK 0
18 *46:10 *61:10 0.000141879
19 *46:25 *268:A2 0.000188934
20 *46:34 *268:B1 5.50049e-05
21 *46:40 *63:10 3.71369e-05
22 *46:40 *71:12 0.000490604
23 *46:40 *71:23 0.000423549
24 *259:A *46:25 0.000153751
25 *259:A *46:34 1.34914e-05
26 *264:A1 *264:A2 0.000451968
27 *275:B *46:10 0.000139647
28 *11:25 *46:10 5.86165e-05
29 *29:19 *46:40 0.000360286
30 *29:36 *264:A2 9.52196e-05
31 *29:36 *46:40 4.54033e-05
32 *31:21 *46:10 0
33 *34:36 *46:40 0
34 *42:14 *46:10 0
35 *42:21 *46:10 2.30292e-05
36 *43:10 *46:10 2.70469e-05
*RES
1 *254:X *46:10 49.3307 
2 *46:10 *46:14 17.0507 
3 *46:14 *259:B 23 
4 *46:14 *46:25 6.85643 
5 *46:25 *268:A1 23 
6 *46:25 *46:34 16.5743 
7 *46:34 *46:40 28.6921 
8 *46:40 *255:B 23 
9 *46:34 *264:A2 46.6379 
*END

*D_NET *47 0.0033802
*CONN
*I *264:B1 I *D sky130_fd_sc_hd__a31o_1
*I *267:A1 I *D sky130_fd_sc_hd__a21o_1
*I *258:A_N I *D sky130_fd_sc_hd__nand2b_1
*I *256:Y O *D sky130_fd_sc_hd__nor2_1
*CAP
1 *264:B1 0.000177385
2 *267:A1 0.000291308
3 *258:A_N 0
4 *256:Y 0.000315208
5 *47:14 0.000549075
6 *47:10 0.000750359
7 *264:B1 *261:A 0.000118023
8 *264:B1 *264:A3 1.47394e-05
9 *264:B1 *88:18 2.36123e-05
10 *267:A1 *266:A1 0.000117692
11 *267:A1 *267:A2 5.4903e-05
12 *267:A1 *267:B1 3.81949e-05
13 *47:10 *264:A3 5.3304e-05
14 *47:10 *48:6 0.000229793
15 *47:10 *48:12 0.000102638
16 *47:10 *52:8 1.00084e-05
17 *47:10 *81:20 5.7782e-05
18 *47:10 *87:8 1.12487e-05
19 *47:14 *48:12 0.0003731
20 *264:A1 *264:B1 3.85196e-05
21 *266:C1 *267:A1 5.3304e-05
*RES
1 *256:Y *47:10 42.9093 
2 *47:10 *47:14 20.075 
3 *47:14 *258:A_N 23 
4 *47:14 *267:A1 28.9036 
5 *47:10 *264:B1 40.9 
*END

*D_NET *48 0.00315348
*CONN
*I *264:A3 I *D sky130_fd_sc_hd__a31o_1
*I *266:A1 I *D sky130_fd_sc_hd__o211a_1
*I *258:B I *D sky130_fd_sc_hd__nand2b_1
*I *257:Y O *D sky130_fd_sc_hd__nand2_1
*CAP
1 *264:A3 0.000190269
2 *266:A1 0.000150282
3 *258:B 6.20657e-06
4 *257:Y 9.64229e-05
5 *48:12 0.000424408
6 *48:6 0.000554612
7 *264:A3 *261:A 1.71761e-05
8 *264:A3 *261:B 2.65505e-05
9 *264:A3 *81:20 0.000171123
10 *264:A3 *88:18 5.56279e-05
11 *266:A1 *267:B1 3.85196e-05
12 *266:A1 *55:10 5.53064e-05
13 *48:6 *256:B 1.59071e-05
14 *48:6 *257:A 0.000146822
15 *48:6 *261:A 1.03836e-05
16 *48:6 *261:B 6.17437e-06
17 *48:6 *87:12 0.000100061
18 *48:12 *51:8 8.62876e-05
19 *48:12 *64:8 0
20 *48:12 *80:18 0
21 *48:12 *87:8 3.47781e-05
22 *264:A1 *264:A3 2.02872e-05
23 *264:A2 *264:A3 5.50106e-05
24 *264:B1 *264:A3 1.47394e-05
25 *267:A1 *266:A1 0.000117692
26 *47:10 *264:A3 5.3304e-05
27 *47:10 *48:6 0.000229793
28 *47:10 *48:12 0.000102638
29 *47:14 *48:12 0.0003731
*RES
1 *257:Y *48:6 26.48 
2 *48:6 *48:12 36.4836 
3 *48:12 *258:B 23.1502 
4 *48:12 *266:A1 26.5214 
5 *48:6 *264:A3 27.5986 
*END

*D_NET *49 0.00021457
*CONN
*I *260:A I *D sky130_fd_sc_hd__xnor2_1
*I *258:Y O *D sky130_fd_sc_hd__nand2b_1
*CAP
1 *260:A 0.000107285
2 *258:Y 0.000107285
*RES
1 *258:Y *260:A 47.5743 
*END

*D_NET *50 0.000358246
*CONN
*I *260:B I *D sky130_fd_sc_hd__xnor2_1
*I *259:Y O *D sky130_fd_sc_hd__nand2_1
*CAP
1 *260:B 0
2 *259:Y 9.66537e-05
3 *50:8 9.66537e-05
4 *11:25 *50:8 0.000164938
*RES
1 *259:Y *50:8 40.2579 
2 *50:8 *260:B 38 
*END

*D_NET *51 0.00332177
*CONN
*I *263:A_N I *D sky130_fd_sc_hd__and2b_1
*I *266:A2 I *D sky130_fd_sc_hd__o211a_1
*I *267:B1 I *D sky130_fd_sc_hd__a21o_1
*I *261:Y O *D sky130_fd_sc_hd__nor2_1
*CAP
1 *263:A_N 0.000260936
2 *266:A2 0
3 *267:B1 0.000303818
4 *261:Y 5.94782e-05
5 *51:18 0.000493652
6 *51:14 0.000703365
7 *51:8 0.000312074
8 *263:A_N *52:18 0.000310535
9 *263:A_N *88:14 6.97718e-05
10 *267:B1 *267:A2 0.000184978
11 *51:8 *64:8 0
12 *51:14 *71:23 0.000168721
13 *51:18 *52:18 0.000291443
14 *266:A1 *267:B1 3.85196e-05
15 *267:A1 *267:B1 3.81949e-05
16 *48:12 *51:8 8.62876e-05
*RES
1 *261:Y *51:8 39.2014 
2 *51:8 *51:14 33.48 
3 *51:14 *51:18 19.0186 
4 *51:18 *267:B1 28.1786 
5 *51:18 *266:A2 23 
6 *51:14 *263:A_N 42.7229 
*END

*D_NET *52 0.00286483
*CONN
*I *263:B I *D sky130_fd_sc_hd__and2b_1
*I *266:B1 I *D sky130_fd_sc_hd__o211a_1
*I *267:A2 I *D sky130_fd_sc_hd__a21o_1
*I *262:Y O *D sky130_fd_sc_hd__nand2_1
*CAP
1 *263:B 2.62497e-05
2 *266:B1 0
3 *267:A2 7.05912e-05
4 *262:Y 7.3827e-05
5 *52:18 0.000373086
6 *52:12 0.000464016
7 *52:8 0.000209099
8 *263:B *88:14 8.60475e-05
9 *52:8 *80:18 0
10 *52:8 *81:20 1.12863e-05
11 *52:8 *87:8 2.26489e-05
12 *52:8 *88:14 3.4299e-05
13 *52:12 *88:14 0.000138607
14 *52:18 *53:8 0
15 *263:A_N *52:18 0.000310535
16 *264:A1 *52:18 0.00038945
17 *264:A2 *52:18 1.12487e-05
18 *266:C1 *267:A2 5.3304e-05
19 *267:A1 *267:A2 5.4903e-05
20 *267:B1 *267:A2 0.000184978
21 *18:15 *263:B 2.7237e-05
22 *18:15 *52:12 1.05235e-05
23 *29:36 *52:18 1.14452e-05
24 *47:10 *52:8 1.00084e-05
25 *51:18 *52:18 0.000291443
*RES
1 *262:Y *52:8 39.5536 
2 *52:8 *52:12 17.5271 
3 *52:12 *52:18 38.2443 
4 *52:18 *267:A2 25.5686 
5 *52:18 *266:B1 23 
6 *52:12 *263:B 24.0979 
*END

*D_NET *53 0.000536604
*CONN
*I *265:A I *D sky130_fd_sc_hd__xnor2_1
*I *263:X O *D sky130_fd_sc_hd__and2b_1
*CAP
1 *265:A 5.95718e-05
2 *263:X 0.000148344
3 *53:8 0.000207916
4 *265:A *265:B 9.84851e-05
5 *265:A *81:20 1.76557e-05
6 *264:A2 *53:8 4.6318e-06
7 *52:18 *53:8 0
*RES
1 *263:X *53:8 40.2579 
2 *53:8 *265:A 39.5743 
*END

*D_NET *54 0.000262488
*CONN
*I *265:B I *D sky130_fd_sc_hd__xnor2_1
*I *264:X O *D sky130_fd_sc_hd__a31o_1
*CAP
1 *265:B 4.33319e-05
2 *264:X 4.33319e-05
3 *265:B *81:20 7.73389e-05
4 *265:A *265:B 9.84851e-05
*RES
1 *264:X *265:B 47.5743 
*END

*D_NET *55 0.000840727
*CONN
*I *268:A2 I *D sky130_fd_sc_hd__a21oi_1
*I *266:X O *D sky130_fd_sc_hd__o211a_1
*CAP
1 *268:A2 3.0021e-05
2 *266:X 0.000172595
3 *55:10 0.000202616
4 *259:A *268:A2 0.000191255
5 *266:A1 *55:10 5.53064e-05
6 *46:25 *268:A2 0.000188934
*RES
1 *266:X *55:10 40.5271 
2 *55:10 *268:A2 40.0507 
*END

*D_NET *56 0.000705819
*CONN
*I *268:B1 I *D sky130_fd_sc_hd__a21oi_1
*I *267:X O *D sky130_fd_sc_hd__a21o_1
*CAP
1 *268:B1 0.000191495
2 *267:X 9.89318e-05
3 *56:8 0.000290427
4 *268:B1 *57:10 6.9961e-05
5 *56:8 *293:CLK 0
6 *56:8 *71:23 0
7 *46:34 *268:B1 5.50049e-05
*RES
1 *267:X *56:8 39.5536 
2 *56:8 *268:B1 41.48 
*END

*D_NET *57 0.000776152
*CONN
*I *270:A I *D sky130_fd_sc_hd__xnor2_1
*I *268:Y O *D sky130_fd_sc_hd__a21oi_1
*CAP
1 *270:A 0
2 *268:Y 0.000353096
3 *57:10 0.000353096
4 *57:10 *293:CLK 0
5 *57:10 *71:23 0
6 *268:B1 *57:10 6.9961e-05
*RES
1 *268:Y *57:10 43.2614 
2 *57:10 *270:A 38 
*END

*D_NET *58 0.00125433
*CONN
*I *270:B I *D sky130_fd_sc_hd__xnor2_1
*I *269:Y O *D sky130_fd_sc_hd__xnor2_1
*CAP
1 *270:B 0.000305876
2 *269:Y 0.000286991
3 *58:10 0.000592867
4 *270:B *293:D 6.86003e-05
5 *58:10 *293:CLK 0
*RES
1 *269:Y *58:10 42.785 
2 *58:10 *270:B 44.67 
*END

*D_NET *59 0.000255268
*CONN
*I *272:B I *D sky130_fd_sc_hd__and2_1
*I *271:Y O *D sky130_fd_sc_hd__o21ai_1
*CAP
1 *272:B 0
2 *271:Y 0.000104682
3 *59:8 0.000104682
4 *59:8 *68:10 0
5 *40:42 *59:8 4.59027e-05
*RES
1 *271:Y *59:8 40.2579 
2 *59:8 *272:B 38 
*END

*D_NET *60 0.00158102
*CONN
*I *274:B I *D sky130_fd_sc_hd__and2_1
*I *273:Y O *D sky130_fd_sc_hd__o211ai_1
*CAP
1 *274:B 0
2 *273:Y 0.000434403
3 *60:10 0.000434403
4 *60:10 *242:A 0.000222113
5 *60:10 *243:A 0.000150497
6 *60:10 *84:10 3.70094e-05
7 *60:10 *84:14 0.000100069
8 *273:A1 *60:10 0.000186108
9 *273:A2 *60:10 1.08287e-05
10 *41:12 *60:10 5.58975e-06
*RES
1 *273:Y *60:10 47.1764 
2 *60:10 *274:B 38 
*END

*D_NET *61 0.000581585
*CONN
*I *276:B I *D sky130_fd_sc_hd__xnor2_1
*I *275:Y O *D sky130_fd_sc_hd__nand2_1
*CAP
1 *276:B 0
2 *275:Y 0.000139843
3 *61:10 0.000139843
4 *275:B *61:10 1.59094e-05
5 *43:10 *61:10 0.00014411
6 *46:10 *61:10 0.000141879
*RES
1 *275:Y *61:10 41.0036 
2 *61:10 *276:B 38 
*END

*D_NET *62 0.00026809
*CONN
*I *278:B I *D sky130_fd_sc_hd__and2_1
*I *277:X O *D sky130_fd_sc_hd__or2_1
*CAP
1 *278:B 0.000119353
2 *277:X 0.000119353
3 *39:6 *278:B 2.93845e-05
*RES
1 *277:X *278:B 48.0714 
*END

*D_NET *63 0.000423364
*CONN
*I *290:D I *D sky130_fd_sc_hd__dfrtp_1
*I *255:X O *D sky130_fd_sc_hd__and2_1
*CAP
1 *290:D 0
2 *255:X 0.000193113
3 *63:10 0.000193113
4 *41:27 *63:10 0
5 *46:40 *63:10 3.71369e-05
*RES
1 *255:X *63:10 41.0036 
2 *63:10 *290:D 38 
*END

*D_NET *64 0.00103244
*CONN
*I *291:D I *D sky130_fd_sc_hd__dfrtp_1
*I *260:Y O *D sky130_fd_sc_hd__xnor2_1
*CAP
1 *291:D 6.79304e-05
2 *260:Y 0.00029524
3 *64:8 0.00036317
4 *291:D *291:CLK 7.88926e-05
5 *291:D *80:8 0.000227208
6 *64:8 *289:CLK 0
7 *64:8 *291:CLK 0
8 *48:12 *64:8 0
9 *51:8 *64:8 0
*RES
1 *260:Y *64:8 42.7229 
2 *64:8 *291:D 40.5271 
*END

*D_NET *65 0.0004624
*CONN
*I *292:D I *D sky130_fd_sc_hd__dfrtp_1
*I *265:Y O *D sky130_fd_sc_hd__xnor2_1
*CAP
1 *292:D 0.000206599
2 *265:Y 0.000206599
3 *292:D *292:CLK 2.93845e-05
4 *292:D *81:20 1.98182e-05
*RES
1 *265:Y *292:D 49.0243 
*END

*D_NET *66 0.000368074
*CONN
*I *293:D I *D sky130_fd_sc_hd__dfrtp_1
*I *270:Y O *D sky130_fd_sc_hd__xnor2_1
*CAP
1 *293:D 0.000149737
2 *270:Y 0.000149737
3 *270:B *293:D 6.86003e-05
*RES
1 *270:Y *293:D 48.5479 
*END

*D_NET *67 0.000234691
*CONN
*I *286:D I *D sky130_fd_sc_hd__dfrtp_1
*I *278:X O *D sky130_fd_sc_hd__and2_1
*CAP
1 *286:D 0
2 *278:X 0.000117345
3 *67:8 0.000117345
4 *67:8 *74:8 0
5 *67:8 *79:10 0
*RES
1 *278:X *67:8 39.9057 
2 *67:8 *286:D 38 
*END

*D_NET *68 0.000463273
*CONN
*I *287:D I *D sky130_fd_sc_hd__dfrtp_1
*I *272:X O *D sky130_fd_sc_hd__and2_1
*CAP
1 *287:D 0
2 *272:X 0.000231637
3 *68:10 0.000231637
4 *40:42 *68:10 0
5 *59:8 *68:10 0
*RES
1 *272:X *68:10 41.48 
2 *68:10 *287:D 38 
*END

*D_NET *69 0.000784406
*CONN
*I *288:D I *D sky130_fd_sc_hd__dfrtp_1
*I *274:X O *D sky130_fd_sc_hd__and2_1
*CAP
1 *288:D 0
2 *274:X 0.000392203
3 *69:10 0.000392203
4 *69:10 *242:A 0
*RES
1 *274:X *69:10 43.3857 
2 *69:10 *288:D 38 
*END

*D_NET *70 0.000299644
*CONN
*I *289:D I *D sky130_fd_sc_hd__dfrtp_1
*I *276:Y O *D sky130_fd_sc_hd__xnor2_1
*CAP
1 *289:D 0.000121469
2 *276:Y 0.000121469
3 *289:D *289:CLK 5.67058e-05
*RES
1 *276:Y *289:D 48.5479 
*END

*D_NET *71 0.00553999
*CONN
*I *296:A I *D sky130_fd_sc_hd__clkbuf_16
*I *295:A I *D sky130_fd_sc_hd__clkbuf_16
*I *294:X O *D sky130_fd_sc_hd__clkbuf_16
*CAP
1 *296:A 0
2 *295:A 0
3 *294:X 0
4 *71:23 0.000729961
5 *71:12 0.000749349
6 *71:6 0.00147931
7 *71:12 *286:CLK 0
8 *71:12 *72:10 0
9 *71:12 *79:10 0
10 *71:12 *79:32 0
11 *71:12 *90:43 0.000158214
12 *71:23 *293:CLK 0
13 *71:23 *90:81 0.000566469
14 *249:A1 *71:12 0.000227876
15 *252:A2 *71:12 0
16 *252:B1 *71:12 0
17 *264:A2 *71:23 0.000364528
18 *273:C1 *71:12 5.94125e-05
19 *36:21 *71:12 1.01436e-05
20 *40:12 *71:12 0.000111852
21 *40:42 *71:12 0
22 *41:27 *71:12 0
23 *46:40 *71:12 0.000490604
24 *46:40 *71:23 0.000423549
25 *51:14 *71:23 0.000168721
26 *56:8 *71:23 0
27 *57:10 *71:23 0
*RES
1 *294:X *71:6 38 
2 *71:6 *71:12 32.8143 
3 *71:12 *295:A 23 
4 *71:6 *71:23 32.0479 
5 *71:23 *296:A 23 
*END

*D_NET *72 0.00520637
*CONN
*I *287:CLK I *D sky130_fd_sc_hd__dfrtp_1
*I *286:CLK I *D sky130_fd_sc_hd__dfrtp_1
*I *290:CLK I *D sky130_fd_sc_hd__dfrtp_1
*I *288:CLK I *D sky130_fd_sc_hd__dfrtp_1
*I *295:X O *D sky130_fd_sc_hd__clkbuf_16
*CAP
1 *287:CLK 0
2 *286:CLK 0.000395787
3 *290:CLK 0
4 *288:CLK 0
5 *295:X 0
6 *72:57 0.000276387
7 *72:26 0.000611209
8 *72:16 0.00116139
9 *72:10 0.00126722
10 *72:4 0.000597635
11 *286:CLK *79:10 0.000191148
12 *286:CLK *90:29 8.5169e-05
13 *286:CLK *90:43 3.32282e-05
14 *72:10 *90:43 5.36457e-05
15 *72:26 *77:6 2.30292e-05
16 *288:RESET_B *72:26 5.50049e-05
17 *25:8 *286:CLK 0.000102365
18 *34:8 *72:26 0
19 *36:34 *72:10 4.93341e-05
20 *36:34 *72:57 4.75206e-05
21 *36:40 *72:10 0
22 *36:40 *72:57 4.54033e-05
23 *38:16 *72:57 8.30122e-05
24 *39:31 *72:57 4.38375e-05
25 *40:42 *72:10 8.4047e-05
26 *71:12 *286:CLK 0
27 *71:12 *72:10 0
*RES
1 *295:X *72:4 23 
2 *72:4 *72:10 20.5929 
3 *72:10 *72:16 22.1879 
4 *72:16 *72:26 40.5229 
5 *72:26 *288:CLK 23 
6 *72:16 *290:CLK 23 
7 *72:10 *286:CLK 45.8714 
8 *72:4 *72:57 35.2407 
9 *72:57 *287:CLK 23 
*END

*D_NET *73 0.00632524
*CONN
*I *292:CLK I *D sky130_fd_sc_hd__dfrtp_1
*I *293:CLK I *D sky130_fd_sc_hd__dfrtp_1
*I *291:CLK I *D sky130_fd_sc_hd__dfrtp_1
*I *289:CLK I *D sky130_fd_sc_hd__dfrtp_1
*I *296:X O *D sky130_fd_sc_hd__clkbuf_16
*CAP
1 *292:CLK 0.000217372
2 *293:CLK 0.000449095
3 *291:CLK 0.000262436
4 *289:CLK 0.000519993
5 *296:X 0
6 *73:34 0.000825877
7 *73:8 0.00141695
8 *73:4 0.000793935
9 *289:CLK *90:91 0.000315663
10 *291:CLK *80:18 0
11 *291:CLK *90:91 2.70366e-05
12 *292:CLK *81:20 1.94812e-05
13 *73:8 *90:81 0.000918196
14 *73:34 *90:81 0.000359326
15 *264:A2 *292:CLK 0
16 *289:D *289:CLK 5.67058e-05
17 *291:D *291:CLK 7.88926e-05
18 *292:D *292:CLK 2.93845e-05
19 *11:25 *289:CLK 0
20 *24:8 *289:CLK 0
21 *26:8 *291:CLK 3.21223e-05
22 *43:10 *289:CLK 2.76611e-06
23 *46:10 *289:CLK 0
24 *56:8 *293:CLK 0
25 *57:10 *293:CLK 0
26 *58:10 *293:CLK 0
27 *64:8 *289:CLK 0
28 *64:8 *291:CLK 0
29 *71:23 *293:CLK 0
*RES
1 *296:X *73:4 23 
2 *73:4 *73:8 27.5321 
3 *73:8 *289:CLK 49.8071 
4 *73:8 *291:CLK 43.2407 
5 *73:4 *73:34 18.9564 
6 *73:34 *293:CLK 45.8921 
7 *73:34 *292:CLK 41.9357 
*END

*D_NET *74 0.000859335
*CONN
*I *247:A I *D sky130_fd_sc_hd__nand2_1
*I *277:A I *D sky130_fd_sc_hd__or2_1
*I *297:X O *D sky130_fd_sc_hd__clkbuf_1
*CAP
1 *247:A 4.31346e-05
2 *277:A 0
3 *297:X 0.000281215
4 *74:10 4.31346e-05
5 *74:8 0.000281215
6 *247:A *277:B 5.67058e-05
7 *74:8 *90:12 0
8 *74:8 *90:16 0
9 *21:8 *74:8 0
10 *39:6 *247:A 0.00014196
11 *39:14 *74:8 1.19692e-05
12 *67:8 *74:8 0
*RES
1 *297:X *74:8 43.075 
2 *74:8 *74:10 15 
3 *74:10 *277:A 23 
4 *74:10 *247:A 24.5743 
*END

*D_NET *75 0.00102623
*CONN
*I *306:A I *D sky130_fd_sc_hd__buf_2
*I *247:B I *D sky130_fd_sc_hd__nand2_1
*I *277:B I *D sky130_fd_sc_hd__or2_1
*I *286:Q O *D sky130_fd_sc_hd__dfrtp_1
*CAP
1 *306:A 0
2 *247:B 0
3 *277:B 0.000100264
4 *286:Q 0.000224305
5 *75:14 0.000142551
6 *75:12 4.22866e-05
7 *75:10 0.000224305
8 *75:10 *90:12 1.01436e-05
9 *75:10 *90:16 0.000167443
10 *247:A *277:B 5.67058e-05
11 *12:15 *75:10 3.34756e-05
12 *39:6 *277:B 2.4754e-05
*RES
1 *286:Q *75:10 41.8321 
2 *75:10 *75:12 15 
3 *75:12 *75:14 0.621429 
4 *75:14 *277:B 25.0714 
5 *75:14 *247:B 23 
6 *75:12 *306:A 23 
*END

*D_NET *76 0.0038882
*CONN
*I *307:A I *D sky130_fd_sc_hd__buf_2
*I *246:B I *D sky130_fd_sc_hd__nor2_1
*I *244:B I *D sky130_fd_sc_hd__nand2_1
*I *287:Q O *D sky130_fd_sc_hd__dfrtp_1
*CAP
1 *307:A 0.000416901
2 *246:B 0.000135205
3 *244:B 0.000299801
4 *287:Q 0
5 *76:6 0.00119784
6 *76:4 0.00117974
7 *244:B *244:A 4.89386e-05
8 *246:B *244:A 2.02517e-05
9 *273:B1 *244:B 3.91386e-05
10 *38:8 *244:B 0.000180212
11 *38:8 *246:B 0.00012048
12 *39:31 *246:B 6.68617e-05
13 *39:31 *76:6 0.000182826
*RES
1 *287:Q *76:4 23 
2 *76:4 *76:6 10.15 
3 *76:6 *244:B 27.8057 
4 *76:6 *246:B 26.7493 
5 *76:4 *307:A 30.4364 
*END

*D_NET *77 0.00429676
*CONN
*I *242:B I *D sky130_fd_sc_hd__nand2_1
*I *243:B I *D sky130_fd_sc_hd__nor2_1
*I *308:A I *D sky130_fd_sc_hd__buf_2
*I *241:B I *D sky130_fd_sc_hd__and2_1
*I *288:Q O *D sky130_fd_sc_hd__dfrtp_1
*CAP
1 *242:B 4.57339e-05
2 *243:B 0
3 *308:A 0
4 *241:B 0
5 *288:Q 0.000786001
6 *77:33 0.000284508
7 *77:25 0.000420163
8 *77:14 0.000473184
9 *77:6 0.00116926
10 *242:B *90:43 5.0554e-05
11 *77:6 *90:43 1.39317e-05
12 *77:14 *242:A 0.000352538
13 *77:14 *243:A 0.000102389
14 *77:14 *84:14 0.000140935
15 *77:25 *243:A 0.000126612
16 *77:33 *84:10 0
17 acc[2] *77:33 5.70006e-05
18 *273:A1 *77:25 5.77665e-05
19 *273:A2 *77:25 7.12641e-05
20 *288:RESET_B *77:6 0.000112408
21 *33:22 *77:33 9.48381e-06
22 *72:26 *77:6 2.30292e-05
*RES
1 *288:Q *77:6 34.1029 
2 *77:6 *77:14 37.7264 
3 *77:14 *241:B 23 
4 *77:14 *77:25 3.52143 
5 *77:25 *77:33 34.8886 
6 *77:33 *308:A 23 
7 *77:25 *243:B 23 
8 *77:6 *242:B 24.2014 
*END

*D_NET *78 0.00135727
*CONN
*I *309:A I *D sky130_fd_sc_hd__buf_2
*I *250:B I *D sky130_fd_sc_hd__nand2_1
*I *240:B I *D sky130_fd_sc_hd__nor2_1
*I *289:Q O *D sky130_fd_sc_hd__dfrtp_1
*CAP
1 *309:A 0
2 *250:B 2.32686e-05
3 *240:B 0
4 *289:Q 0.00012187
5 *78:22 0.000421974
6 *78:12 0.000475819
7 *78:8 0.000198984
8 *250:B *250:A 5.50106e-05
9 *78:22 *85:8 0
10 acc[3] *78:8 4.08641e-05
11 acc[3] *78:12 1.94812e-05
12 *251:A_N *78:22 0
13 *300:A *78:22 0
*RES
1 *289:Q *78:8 40.2579 
2 *78:8 *78:12 16.5743 
3 *78:12 *78:22 36.235 
4 *78:22 *240:B 23 
5 *78:22 *250:B 23.6214 
6 *78:12 *309:A 23 
*END

*D_NET *79 0.00292653
*CONN
*I *310:A I *D sky130_fd_sc_hd__buf_2
*I *237:B I *D sky130_fd_sc_hd__nand2_1
*I *238:B I *D sky130_fd_sc_hd__or2_1
*I *290:Q O *D sky130_fd_sc_hd__dfrtp_1
*CAP
1 *310:A 0
2 *237:B 0
3 *238:B 7.78956e-05
4 *290:Q 0.000462298
5 *79:32 0.000744542
6 *79:12 7.78956e-05
7 *79:10 0.00120684
8 *238:B *238:A 5.67058e-05
9 *238:B *86:10 5.25017e-05
10 *286:CLK *79:10 0.000191148
11 *29:6 *238:B 5.67058e-05
12 *67:8 *79:10 0
13 *71:12 *79:10 0
14 *71:12 *79:32 0
*RES
1 *290:Q *79:10 45.25 
2 *79:10 *79:12 15 
3 *79:12 *238:B 25.0714 
4 *79:12 *237:B 23 
5 *79:10 *79:32 28.4643 
6 *79:32 *310:A 23 
*END

*D_NET *80 0.00287225
*CONN
*I *256:B I *D sky130_fd_sc_hd__nor2_1
*I *257:B I *D sky130_fd_sc_hd__nand2_1
*I *311:A I *D sky130_fd_sc_hd__buf_2
*I *291:Q O *D sky130_fd_sc_hd__dfrtp_1
*CAP
1 *256:B 8.08568e-05
2 *257:B 0
3 *311:A 0
4 *291:Q 0.000818748
5 *80:18 0.000273448
6 *80:10 0.000290604
7 *80:8 0.000916761
8 *256:B *256:A 5.47983e-06
9 *256:B *257:A 4.344e-05
10 *256:B *261:A 7.86509e-06
11 *80:10 *257:A 5.90675e-06
12 *80:18 *87:8 0
13 acc[5] *80:18 9.41573e-05
14 *291:CLK *80:18 0
15 *291:D *80:8 0.000227208
16 *291:RESET_B *80:8 9.18637e-05
17 *48:6 *256:B 1.59071e-05
18 *48:12 *80:18 0
19 *52:8 *80:18 0
*RES
1 *291:Q *80:8 34.6 
2 *80:8 *80:10 0.497143 
3 *80:10 *80:18 34.8886 
4 *80:18 *311:A 23 
5 *80:10 *257:B 23 
6 *80:8 *256:B 25.0714 
*END

*D_NET *81 0.00373573
*CONN
*I *312:A I *D sky130_fd_sc_hd__buf_2
*I *262:B I *D sky130_fd_sc_hd__nand2_1
*I *261:B I *D sky130_fd_sc_hd__nor2_1
*I *292:Q O *D sky130_fd_sc_hd__dfrtp_1
*CAP
1 *312:A 0
2 *262:B 0
3 *261:B 2.66831e-05
4 *292:Q 0.000338325
5 *81:38 0.000129782
6 *81:20 0.00110835
7 *81:6 0.00154977
8 *261:B *261:A 5.3304e-05
9 *81:20 *261:A 4.3198e-05
10 *81:20 *88:14 6.50147e-05
11 acc[6] *81:38 0
12 *264:A2 *81:20 1.40958e-05
13 *264:A3 *261:B 2.65505e-05
14 *264:A3 *81:20 0.000171123
15 *265:A *81:20 1.76557e-05
16 *265:B *81:20 7.73389e-05
17 *292:CLK *81:20 1.94812e-05
18 *292:D *81:20 1.98182e-05
19 *47:10 *81:20 5.7782e-05
20 *48:6 *261:B 6.17437e-06
21 *52:8 *81:20 1.12863e-05
*RES
1 *292:Q *81:6 27.4329 
2 *81:6 *81:20 45.5979 
3 *81:20 *261:B 23.6214 
4 *81:20 *262:B 23 
5 *81:6 *81:38 32.2579 
6 *81:38 *312:A 23 
*END

*D_NET *82 0.000570143
*CONN
*I *313:A I *D sky130_fd_sc_hd__buf_2
*I *269:B I *D sky130_fd_sc_hd__xnor2_1
*I *293:Q O *D sky130_fd_sc_hd__dfrtp_1
*CAP
1 *313:A 0
2 *269:B 0.000105378
3 *293:Q 7.3186e-05
4 *82:10 0.000105378
5 *82:8 7.3186e-05
6 *82:8 *90:8 0.000169674
7 acc[7] *82:8 4.334e-05
*RES
1 *293:Q *82:8 40.2579 
2 *82:8 *82:10 15 
3 *82:10 *269:B 24.595 
4 *82:10 *313:A 23 
*END

*D_NET *83 0.000755642
*CONN
*I *246:A I *D sky130_fd_sc_hd__nor2_1
*I *244:A I *D sky130_fd_sc_hd__nand2_1
*I *298:X O *D sky130_fd_sc_hd__clkbuf_1
*CAP
1 *246:A 0
2 *244:A 0.000120346
3 *298:X 0.000180426
4 *83:12 0.000120346
5 *83:10 0.000180426
6 *244:B *244:A 4.89386e-05
7 *246:B *244:A 2.02517e-05
8 *273:B1 *244:A 3.22879e-05
9 *40:42 *83:10 5.26204e-05
*RES
1 *298:X *83:10 40.8793 
2 *83:10 *83:12 15 
3 *83:12 *244:A 26.045 
4 *83:12 *246:A 23 
*END

*D_NET *84 0.00252669
*CONN
*I *242:A I *D sky130_fd_sc_hd__nand2_1
*I *243:A I *D sky130_fd_sc_hd__nor2_1
*I *241:A I *D sky130_fd_sc_hd__and2_1
*I *299:X O *D sky130_fd_sc_hd__buf_1
*CAP
1 *242:A 0.000295214
2 *243:A 6.39837e-05
3 *241:A 0
4 *299:X 0.000194034
5 *84:14 0.000112466
6 *84:10 0.000537729
7 *273:A1 *243:A 5.50106e-05
8 *299:A *84:10 5.37348e-06
9 *41:12 *242:A 3.07161e-05
10 *41:27 *242:A 0
11 *60:10 *242:A 0.000222113
12 *60:10 *243:A 0.000150497
13 *60:10 *84:10 3.70094e-05
14 *60:10 *84:14 0.000100069
15 *69:10 *242:A 0
16 *77:14 *242:A 0.000352538
17 *77:14 *243:A 0.000102389
18 *77:14 *84:14 0.000140935
19 *77:25 *243:A 0.000126612
20 *77:33 *84:10 0
*RES
1 *299:X *84:10 41.0036 
2 *84:10 *84:14 16.5743 
3 *84:14 *241:A 23 
4 *84:14 *243:A 26.1693 
5 *84:10 *242:A 44.7529 
*END

*D_NET *85 0.000839136
*CONN
*I *250:A I *D sky130_fd_sc_hd__nand2_1
*I *240:A I *D sky130_fd_sc_hd__nor2_1
*I *300:X O *D sky130_fd_sc_hd__clkbuf_1
*CAP
1 *250:A 0.000108821
2 *240:A 0
3 *300:X 0.000109802
4 *85:12 0.00016892
5 *85:8 0.000169902
6 *250:B *250:A 5.50106e-05
7 *300:A *85:8 9.86551e-06
8 *32:8 *250:A 0.000184527
9 *42:6 *250:A 3.22879e-05
10 *78:22 *85:8 0
*RES
1 *300:X *85:8 39.9057 
2 *85:8 *85:12 16.0979 
3 *85:12 *240:A 23 
4 *85:12 *250:A 26.5214 
*END

*D_NET *86 0.00166407
*CONN
*I *237:A I *D sky130_fd_sc_hd__nand2_1
*I *238:A I *D sky130_fd_sc_hd__or2_1
*I *301:X O *D sky130_fd_sc_hd__clkbuf_1
*CAP
1 *237:A 0
2 *238:A 4.81264e-05
3 *301:X 0.000641129
4 *86:10 0.000689255
5 *238:B *238:A 5.67058e-05
6 *238:B *86:10 5.25017e-05
7 *12:15 *86:10 0.000126847
8 *29:6 *238:A 4.95081e-05
*RES
1 *301:X *86:10 35.5736 
2 *86:10 *238:A 24.5743 
3 *86:10 *237:A 23 
*END

*D_NET *87 0.000785037
*CONN
*I *256:A I *D sky130_fd_sc_hd__nor2_1
*I *257:A I *D sky130_fd_sc_hd__nand2_1
*I *302:X O *D sky130_fd_sc_hd__clkbuf_1
*CAP
1 *256:A 1.33099e-05
2 *257:A 5.28698e-05
3 *302:X 9.481e-05
4 *87:12 9.07755e-05
5 *87:8 0.000119406
6 *256:A *261:A 1.12349e-05
7 *87:12 *261:A 3.22467e-05
8 *256:B *256:A 5.47983e-06
9 *256:B *257:A 4.344e-05
10 *47:10 *87:8 1.12487e-05
11 *48:6 *257:A 0.000146822
12 *48:6 *87:12 0.000100061
13 *48:12 *87:8 3.47781e-05
14 *52:8 *87:8 2.26489e-05
15 *80:10 *257:A 5.90675e-06
16 *80:18 *87:8 0
*RES
1 *302:X *87:8 39.9057 
2 *87:8 *87:12 16.0979 
3 *87:12 *257:A 25.0714 
4 *87:12 *256:A 23.4971 
*END

*D_NET *88 0.00185614
*CONN
*I *262:A I *D sky130_fd_sc_hd__nand2_1
*I *261:A I *D sky130_fd_sc_hd__nor2_1
*I *303:X O *D sky130_fd_sc_hd__clkbuf_1
*CAP
1 *262:A 0
2 *261:A 0.000130947
3 *303:X 0.000382995
4 *88:18 0.000144764
5 *88:14 0.000396812
6 *256:A *261:A 1.12349e-05
7 *256:B *261:A 7.86509e-06
8 *261:B *261:A 5.3304e-05
9 *263:A_N *88:14 6.97718e-05
10 *263:B *88:14 8.60475e-05
11 *264:A3 *261:A 1.71761e-05
12 *264:A3 *88:18 5.56279e-05
13 *264:B1 *261:A 0.000118023
14 *264:B1 *88:18 2.36123e-05
15 *18:15 *88:14 3.42147e-05
16 *48:6 *261:A 1.03836e-05
17 *52:8 *88:14 3.4299e-05
18 *52:12 *88:14 0.000138607
19 *81:20 *261:A 4.3198e-05
20 *81:20 *88:14 6.50147e-05
21 *87:12 *261:A 3.22467e-05
*RES
1 *303:X *88:14 44.8564 
2 *88:14 *88:18 15.6214 
3 *88:18 *261:A 26.5214 
4 *88:18 *262:A 23 
*END

*D_NET *89 0.000590624
*CONN
*I *269:A I *D sky130_fd_sc_hd__xnor2_1
*I *304:X O *D sky130_fd_sc_hd__clkbuf_1
*CAP
1 *269:A 0
2 *304:X 0.000260129
3 *89:10 0.000260129
4 *89:10 *90:8 7.03663e-05
*RES
1 *304:X *89:10 41.9564 
2 *89:10 *269:A 38 
*END

*D_NET *90 0.0139288
*CONN
*I *284:A I *D sky130_fd_sc_hd__inv_2
*I *283:A I *D sky130_fd_sc_hd__inv_2
*I *281:A I *D sky130_fd_sc_hd__inv_2
*I *285:A I *D sky130_fd_sc_hd__inv_2
*I *236:A I *D sky130_fd_sc_hd__inv_2
*I *282:A I *D sky130_fd_sc_hd__inv_2
*I *280:A I *D sky130_fd_sc_hd__inv_2
*I *279:A I *D sky130_fd_sc_hd__inv_2
*I *305:X O *D sky130_fd_sc_hd__clkbuf_4
*CAP
1 *284:A 0
2 *283:A 0
3 *281:A 0
4 *285:A 4.2583e-05
5 *236:A 0
6 *282:A 0
7 *280:A 0
8 *279:A 0
9 *305:X 0
10 *90:91 0.000516106
11 *90:81 0.00146769
12 *90:73 0.00112995
13 *90:43 0.000872115
14 *90:29 0.00180794
15 *90:16 0.000659861
16 *90:12 0.00172429
17 *90:10 0.000464384
18 *90:8 0.000755593
19 *90:4 0.000555584
20 acc[0] *90:16 4.32584e-05
21 acc[1] *90:16 1.9574e-05
22 acc[4] *90:10 9.33529e-06
23 acc[7] *90:8 1.53581e-05
24 *242:B *90:43 5.0554e-05
25 *286:CLK *90:29 8.5169e-05
26 *286:CLK *90:43 3.32282e-05
27 *289:CLK *90:91 0.000315663
28 *291:CLK *90:91 2.70366e-05
29 *293:RESET_B *285:A 9.84851e-05
30 *301:A *90:10 0
31 *301:A *90:12 0
32 *304:A *90:8 0
33 *305:A *90:8 1.88594e-05
34 *12:15 *90:12 8.1606e-05
35 *21:8 *90:12 0.000116314
36 *22:8 *90:16 0.000199701
37 *25:8 *90:43 0.000199701
38 *27:10 *90:73 3.22879e-05
39 *39:14 *90:16 0
40 *40:12 *90:43 9.91798e-05
41 *71:12 *90:43 0.000158214
42 *71:23 *90:81 0.000566469
43 *72:10 *90:43 5.36457e-05
44 *73:8 *90:81 0.000918196
45 *73:34 *90:81 0.000359326
46 *74:8 *90:12 0
47 *74:8 *90:16 0
48 *75:10 *90:12 1.01436e-05
49 *75:10 *90:16 0.000167443
50 *77:6 *90:43 1.39317e-05
51 *82:8 *90:8 0.000169674
52 *89:10 *90:8 7.03663e-05
*RES
1 *305:X *90:4 23 
2 *90:4 *90:8 23.2443 
3 *90:8 *90:10 5.77929 
4 *90:10 *90:12 3.66643 
5 *90:12 *90:16 28.5264 
6 *90:16 *279:A 23 
7 *90:12 *90:29 27.9257 
8 *90:29 *90:43 48.7257 
9 *90:43 *280:A 23 
10 *90:29 *282:A 23 
11 *90:10 *236:A 38 
12 *90:8 *285:A 39.0979 
13 *90:4 *90:73 3.85286 
14 *90:73 *90:81 24.1114 
15 *90:81 *90:91 41.6621 
16 *90:91 *281:A 23 
17 *90:81 *283:A 23 
18 *90:73 *284:A 23 
*END
