*SPEF "ieee 1481-1999"
*DESIGN "cla8"
*DATE "10:37:29 Friday September 18, 2026"
*VENDOR "The OpenROAD Project"
*PROGRAM "OpenROAD"
*VERSION "edf00dff99f6c40d67a30c0e22a8191c5d2ed9d6"
*DESIGN_FLOW "NAME_SCOPE LOCAL" "PIN_CAP NONE"
*DIVIDER /
*DELIMITER :
*BUS_DELIMITER []
*T_UNIT 1 NS
*C_UNIT 1 PF
*R_UNIT 1 OHM
*L_UNIT 1 HENRY

*NAME_MAP
*3 a[0]
*4 a[1]
*5 a[2]
*6 a[3]
*7 a[4]
*8 a[5]
*9 a[6]
*10 a[7]
*11 b[0]
*12 b[1]
*13 b[2]
*14 b[3]
*15 b[4]
*16 b[5]
*17 b[6]
*18 b[7]
*19 cin
*20 cout
*21 sum[0]
*22 sum[1]
*23 sum[2]
*24 sum[3]
*25 sum[4]
*26 sum[5]
*27 sum[6]
*28 sum[7]
*29 _00_
*30 _01_
*31 _02_
*32 _03_
*33 _04_
*34 _05_
*35 _06_
*36 _07_
*37 _08_
*38 _09_
*39 _10_
*40 _11_
*41 _12_
*42 _13_
*43 _14_
*44 _15_
*45 _16_
*46 _17_
*47 _18_
*48 _19_
*49 _20_
*50 _21_
*51 _22_
*52 _23_
*53 _24_
*54 _25_
*55 _26_
*56 _27_
*57 _28_
*58 _29_
*59 _30_
*60 _31_
*61 _32_
*62 _33_
*63 _34_
*64 _35_
*65 _36_
*66 _37_
*67 _38_
*68 net1
*69 net10
*70 net11
*71 net12
*72 net13
*73 net14
*74 net15
*75 net16
*76 net17
*77 net18
*78 net19
*79 net2
*80 net20
*81 net21
*82 net22
*83 net23
*84 net24
*85 net25
*86 net26
*87 net3
*88 net4
*89 net5
*90 net6
*91 net7
*92 net8
*93 net9
*94 FILLER_0_20
*95 FILLER_0_29
*96 FILLER_0_6
*97 FILLER_1_29
*98 FILLER_1_3
*99 FILLER_1_54
*100 FILLER_2_29
*101 FILLER_2_3
*102 FILLER_3_22
*103 FILLER_3_34
*104 FILLER_4_13
*105 FILLER_4_25
*106 FILLER_4_29
*107 FILLER_4_41
*108 FILLER_4_50
*109 FILLER_4_9
*110 FILLER_5_24
*111 FILLER_5_32
*112 FILLER_5_38
*113 FILLER_6_16
*114 FILLER_7_13
*115 FILLER_7_25
*116 FILLER_7_3
*117 FILLER_8_10
*118 FILLER_8_22
*119 FILLER_8_29
*120 PHY_EDGE_ROW_0_Left_9
*121 PHY_EDGE_ROW_0_Right_0
*122 PHY_EDGE_ROW_1_Left_10
*123 PHY_EDGE_ROW_1_Right_1
*124 PHY_EDGE_ROW_2_Left_11
*125 PHY_EDGE_ROW_2_Right_2
*126 PHY_EDGE_ROW_3_Left_12
*127 PHY_EDGE_ROW_3_Right_3
*128 PHY_EDGE_ROW_4_Left_13
*129 PHY_EDGE_ROW_4_Right_4
*130 PHY_EDGE_ROW_5_Left_14
*131 PHY_EDGE_ROW_5_Right_5
*132 PHY_EDGE_ROW_6_Left_15
*133 PHY_EDGE_ROW_6_Right_6
*134 PHY_EDGE_ROW_7_Left_16
*135 PHY_EDGE_ROW_7_Right_7
*136 PHY_EDGE_ROW_8_Left_17
*137 PHY_EDGE_ROW_8_Right_8
*138 TAP_TAPCELL_ROW_0_18
*139 TAP_TAPCELL_ROW_2_19
*140 TAP_TAPCELL_ROW_4_20
*141 TAP_TAPCELL_ROW_6_21
*142 TAP_TAPCELL_ROW_8_22
*143 _39_
*144 _40_
*145 _41_
*146 _42_
*147 _43_
*148 _44_
*149 _45_
*150 _46_
*151 _47_
*152 _48_
*153 _49_
*154 _50_
*155 _51_
*156 _52_
*157 _53_
*158 _54_
*159 _55_
*160 _56_
*161 _57_
*162 _58_
*163 _59_
*164 _60_
*165 _61_
*166 _62_
*167 _63_
*168 _64_
*169 _65_
*170 _66_
*171 _67_
*172 _68_
*173 _69_
*174 _70_
*175 _71_
*176 _72_
*177 _73_
*178 _74_
*179 _75_
*180 _76_
*181 _77_
*182 _78_
*183 _79_
*184 _80_
*185 _81_
*186 _82_
*187 _83_
*188 _84_
*189 _85_
*190 _86_
*191 input1
*192 input10
*193 input11
*194 input12
*195 input13
*196 input14
*197 input15
*198 input16
*199 input17
*200 input2
*201 input3
*202 input4
*203 input5
*204 input6
*205 input7
*206 input8
*207 input9
*208 output18
*209 output19
*210 output20
*211 output21
*212 output22
*213 output23
*214 output24
*215 output25
*216 output26

*PORTS
a[0] I
a[1] I
a[2] I
a[3] I
a[4] I
a[5] I
a[6] I
a[7] I
b[0] I
b[1] I
b[2] I
b[3] I
b[4] I
b[5] I
b[6] I
b[7] I
cin I
cout O
sum[0] O
sum[1] O
sum[2] O
sum[3] O
sum[4] O
sum[5] O
sum[6] O
sum[7] O

*D_NET *3 0.00332369
*CONN
*P a[0] I
*I *191:A I *D sky130_fd_sc_hd__clkbuf_1
*CAP
1 a[0] 0.00110674
2 *191:A 0.00110674
3 *191:A sum[0] 0.000271017
4 *191:A sum[1] 2.3704e-05
5 *191:A *151:A 0.000247778
6 *191:A *199:A 0
7 *191:A *200:A 0
8 *191:A *207:A 7.20113e-05
9 *191:A *210:A 8.91986e-05
10 *191:A *36:10 4.13122e-06
11 *191:A *68:10 0.000274839
12 *191:A *76:10 2.42564e-05
13 *191:A *93:8 0.000103267
*RES
1 a[0] *191:A 45.2498 
*END

*D_NET *4 0.00145427
*CONN
*P a[1] I
*I *200:A I *D sky130_fd_sc_hd__clkbuf_1
*CAP
1 a[1] 0.000625256
2 *200:A 0.000625256
3 *200:A *162:A 1.59373e-05
4 *200:A *162:B 2.84026e-05
5 *200:A *192:A 9.58181e-05
6 *200:A *69:14 5.33005e-05
7 *200:A *79:12 1.03037e-05
8 *191:A *200:A 0
*RES
1 a[1] *200:A 25.4964 
*END

*D_NET *5 0.00142818
*CONN
*P a[2] I
*I *201:A I *D sky130_fd_sc_hd__buf_1
*CAP
1 a[2] 0.000452395
2 *201:A 0.000452395
3 *201:A *202:A 0.000367274
4 *201:A *87:10 1.32552e-05
5 *201:A *88:10 0.000142856
*RES
1 a[2] *201:A 24.7823 
*END

*D_NET *6 0.00146104
*CONN
*P a[3] I
*I *202:A I *D sky130_fd_sc_hd__clkbuf_1
*CAP
1 a[3] 0.000325748
2 *202:A 0.000325748
3 *202:A *143:A 0.000227532
4 *202:A *146:A 2.44318e-05
5 *202:A *194:A 0.000118583
6 *202:A *87:10 7.17235e-05
7 *201:A *202:A 0.000367274
*RES
1 a[3] *202:A 24.6751 
*END

*D_NET *7 0.000741128
*CONN
*P a[4] I
*I *203:A I *D sky130_fd_sc_hd__clkbuf_1
*CAP
1 a[4] 0.000228056
2 *203:A 0.000228056
3 *203:A *193:A 0.00026242
4 *203:A *195:A 2.25951e-05
*RES
1 a[4] *203:A 20.7838 
*END

*D_NET *8 0.00107149
*CONN
*P a[5] I
*I *204:A I *D sky130_fd_sc_hd__clkbuf_1
*CAP
1 a[5] 0.000500088
2 *204:A 0.000500088
3 *204:A sum[4] 7.13118e-05
*RES
1 a[5] *204:A 25.0482 
*END

*D_NET *9 0.00187991
*CONN
*P a[6] I
*I *205:A I *D sky130_fd_sc_hd__clkbuf_1
*CAP
1 a[6] 0.00088471
2 *205:A 0.00088471
3 *205:A cout 9.28756e-05
4 *205:A sum[6] 0
5 *205:A *186:B 1.76135e-05
*RES
1 a[6] *205:A 26.1866 
*END

*D_NET *10 0.00090346
*CONN
*P a[7] I
*I *206:A I *D sky130_fd_sc_hd__clkbuf_1
*CAP
1 a[7] 0.000270679
2 *206:A 0.000270679
3 *206:A *197:A 8.94345e-05
4 *206:A *198:A 0.000166531
5 *206:A *50:50 4.53834e-05
6 *206:A *92:10 6.07532e-05
*RES
1 a[7] *206:A 21.1586 
*END

*D_NET *11 0.00132265
*CONN
*P b[0] I
*I *207:A I *D sky130_fd_sc_hd__clkbuf_1
*CAP
1 b[0] 0.000430861
2 *207:A 0.000430861
3 *207:A sum[0] 0
4 *207:A sum[1] 0.000107843
5 *207:A *153:B 1.85642e-05
6 *207:A *199:A 0.000188892
7 *207:A *210:A 7.36167e-05
8 *191:A *207:A 7.20113e-05
*RES
1 b[0] *207:A 23.8729 
*END

*D_NET *12 0.00108827
*CONN
*P b[1] I
*I *192:A I *D sky130_fd_sc_hd__clkbuf_1
*CAP
1 b[1] 0.000467293
2 *192:A 0.000467293
3 *192:A sum[2] 0
4 *192:A *211:A 0
5 *192:A *69:14 5.41794e-05
6 *192:A *79:12 3.69047e-06
7 *200:A *192:A 9.58181e-05
*RES
1 b[1] *192:A 22.9071 
*END

*D_NET *13 0.00103078
*CONN
*P b[2] I
*I *193:A I *D sky130_fd_sc_hd__buf_1
*CAP
1 b[2] 0.000331228
2 *193:A 0.000331228
3 *193:A *173:A 5.62995e-05
4 *193:A *194:A 3.71658e-05
5 *193:A *195:A 0
6 *193:A *70:10 1.24368e-05
7 *203:A *193:A 0.00026242
*RES
1 b[2] *193:A 23.1197 
*END

*D_NET *14 0.00115122
*CONN
*P b[3] I
*I *194:A I *D sky130_fd_sc_hd__clkbuf_1
*CAP
1 b[3] 0.000335854
2 *194:A 0.000335854
3 *194:A *146:A 0.000309664
4 *194:A *71:14 1.41029e-05
5 *194:A *88:10 0
6 *194:A *88:21 0
7 *193:A *194:A 3.71658e-05
8 *202:A *194:A 0.000118583
*RES
1 b[3] *194:A 22.6764 
*END

*D_NET *15 0.00136998
*CONN
*P b[4] I
*I *195:A I *D sky130_fd_sc_hd__clkbuf_1
*CAP
1 b[4] 0.000652923
2 *195:A 0.000652923
3 *195:A sum[4] 0
4 *195:A *188:A 0
5 *195:A *196:A 3.19385e-05
6 *195:A *60:8 0
7 *195:A *72:12 9.60337e-06
8 *193:A *195:A 0
9 *203:A *195:A 2.25951e-05
*RES
1 b[4] *195:A 19.5948 
*END

*D_NET *16 0.000728562
*CONN
*P b[5] I
*I *196:A I *D sky130_fd_sc_hd__clkbuf_1
*CAP
1 b[5] 0.000337014
2 *196:A 0.000337014
3 *196:A sum[4] 2.25951e-05
4 *196:A *73:10 0
5 *195:A *196:A 3.19385e-05
*RES
1 b[5] *196:A 21.9981 
*END

*D_NET *17 0.000703127
*CONN
*P b[6] I
*I *197:A I *D sky130_fd_sc_hd__clkbuf_1
*CAP
1 b[6] 0.000263528
2 *197:A 0.000263528
3 *197:A sum[1] 8.66369e-05
4 *206:A *197:A 8.94345e-05
*RES
1 b[6] *197:A 18.3391 
*END

*D_NET *18 0.00110869
*CONN
*P b[7] I
*I *198:A I *D sky130_fd_sc_hd__clkbuf_1
*CAP
1 b[7] 0.000327558
2 *198:A 0.000327558
3 *198:A sum[7] 6.81972e-05
4 *198:A *50:50 0.000218845
5 *206:A *198:A 0.000166531
*RES
1 b[7] *198:A 22.5329 
*END

*D_NET *19 0.00183804
*CONN
*P cin I
*I *199:A I *D sky130_fd_sc_hd__buf_1
*CAP
1 cin 0.000767227
2 *199:A 0.000767227
3 *199:A sum[0] 8.91975e-05
4 *199:A sum[1] 2.75651e-06
5 *199:A *92:10 2.27416e-05
6 *191:A *199:A 0
7 *207:A *199:A 0.000188892
*RES
1 cin *199:A 30.318 
*END

*D_NET *20 0.000927518
*CONN
*P cout O
*I *208:X O *D sky130_fd_sc_hd__buf_2
*CAP
1 cout 0.000353877
2 *208:X 0.000353877
3 cout sum[6] 9.28756e-05
4 cout *208:A 3.40128e-05
5 *205:A cout 9.28756e-05
*RES
1 *208:X cout 22.1413 
*END

*D_NET *21 0.000900761
*CONN
*P sum[0] O
*I *209:X O *D sky130_fd_sc_hd__buf_2
*CAP
1 sum[0] 0.000270273
2 *209:X 0.000270273
3 *191:A sum[0] 0.000271017
4 *199:A sum[0] 8.91975e-05
5 *207:A sum[0] 0
*RES
1 *209:X sum[0] 21.8378 
*END

*D_NET *22 0.000611316
*CONN
*P sum[1] O
*I *210:X O *D sky130_fd_sc_hd__buf_2
*CAP
1 sum[1] 0.000195188
2 *210:X 0.000195188
3 *191:A sum[1] 2.3704e-05
4 *197:A sum[1] 8.66369e-05
5 *199:A sum[1] 2.75651e-06
6 *207:A sum[1] 0.000107843
*RES
1 *210:X sum[1] 18.4985 
*END

*D_NET *23 0.000866881
*CONN
*P sum[2] O
*I *211:X O *D sky130_fd_sc_hd__buf_2
*CAP
1 sum[2] 0.000433441
2 *211:X 0.000433441
3 sum[2] sum[3] 0
4 *192:A sum[2] 0
*RES
1 *211:X sum[2] 23.6393 
*END

*D_NET *24 0.00096179
*CONN
*P sum[3] O
*I *212:X O *D sky130_fd_sc_hd__buf_2
*CAP
1 sum[3] 0.000466439
2 *212:X 0.000466439
3 sum[3] *212:A 2.89114e-05
4 sum[2] sum[3] 0
*RES
1 *212:X sum[3] 22.05 
*END

*D_NET *25 0.000731219
*CONN
*P sum[4] O
*I *213:X O *D sky130_fd_sc_hd__buf_2
*CAP
1 sum[4] 0.000318656
2 *213:X 0.000318656
3 sum[4] *213:A 0
4 *195:A sum[4] 0
5 *196:A sum[4] 2.25951e-05
6 *204:A sum[4] 7.13118e-05
*RES
1 *213:X sum[4] 19.9079 
*END

*D_NET *26 0.0012238
*CONN
*P sum[5] O
*I *214:X O *D sky130_fd_sc_hd__buf_2
*CAP
1 sum[5] 0.000611901
2 *214:X 0.000611901
3 sum[5] *214:A 0
*RES
1 *214:X sum[5] 25.9964 
*END

*D_NET *27 0.00080808
*CONN
*P sum[6] O
*I *215:X O *D sky130_fd_sc_hd__buf_2
*CAP
1 sum[6] 0.000267977
2 *215:X 0.000267977
3 sum[6] sum[7] 0.000125499
4 sum[6] *186:A 1.97381e-05
5 sum[6] *208:A 3.40128e-05
6 cout sum[6] 9.28756e-05
7 *205:A sum[6] 0
*RES
1 *215:X sum[6] 19.3939 
*END

*D_NET *28 0.0016164
*CONN
*P sum[7] O
*I *216:X O *D sky130_fd_sc_hd__buf_2
*CAP
1 sum[7] 0.000689432
2 *216:X 0.000689432
3 sum[7] *181:A1 2.11419e-05
4 sum[7] *91:14 2.26973e-05
5 sum[6] sum[7] 0.000125499
6 *198:A sum[7] 6.81972e-05
*RES
1 *216:X sum[7] 19.1318 
*END

*D_NET *29 0.00128114
*CONN
*I *146:A I *D sky130_fd_sc_hd__nor2_1
*I *143:Y O *D sky130_fd_sc_hd__nor2_1
*CAP
1 *146:A 0.000243044
2 *143:Y 0.000243044
3 *146:A *143:A 0.000140933
4 *146:A *71:14 0.000320024
5 *194:A *146:A 0.000309664
6 *202:A *146:A 2.44318e-05
*RES
1 *143:Y *146:A 33.4393 
*END

*D_NET *30 0.00112355
*CONN
*I *176:B1 I *D sky130_fd_sc_hd__o31ai_2
*I *174:A1 I *D sky130_fd_sc_hd__a211o_1
*I *144:X O *D sky130_fd_sc_hd__or2_1
*CAP
1 *176:B1 0
2 *174:A1 0.000112876
3 *144:X 0.0002198
4 *30:12 0.000332676
5 *174:A1 *174:A2 9.90431e-05
6 *174:A1 *174:B1 1.97695e-05
7 *174:A1 *174:C1 4.72818e-05
8 *174:A1 *176:A3 3.99614e-06
9 *30:12 *147:A 3.18676e-05
10 *30:12 *147:B 3.14078e-05
11 *30:12 *33:8 0.000137939
12 *30:12 *33:10 1.02504e-05
13 *30:12 *58:14 7.6644e-05
14 *30:12 *87:29 0
*RES
1 *144:X *30:12 22.0143 
2 *30:12 *174:A1 11.925 
3 *30:12 *176:B1 9.3 
*END

*D_NET *31 0.00147823
*CONN
*I *174:C1 I *D sky130_fd_sc_hd__a211o_1
*I *176:A3 I *D sky130_fd_sc_hd__o31ai_2
*I *146:B I *D sky130_fd_sc_hd__nor2_1
*I *145:X O *D sky130_fd_sc_hd__and2_1
*CAP
1 *174:C1 0.000204834
2 *176:A3 1.04192e-05
3 *146:B 4.94102e-05
4 *145:X 5.28656e-05
5 *31:23 0.000378034
6 *31:12 0.000265057
7 *146:B *159:A 1.92789e-05
8 *174:C1 *161:A 1.3701e-05
9 *174:C1 *174:A2 9.90431e-05
10 *174:C1 *174:B1 4.22908e-05
11 *174:C1 *175:B1 2.89114e-05
12 *174:C1 *58:14 2.89016e-05
13 *31:12 *70:14 0.000104974
14 *31:12 *88:21 0.000104974
15 *31:23 *159:A 2.42516e-05
16 *174:A1 *174:C1 4.72818e-05
17 *174:A1 *176:A3 3.99614e-06
*RES
1 *145:X *31:12 20.0679 
2 *31:12 *146:B 10.2643 
3 *31:12 *31:23 2.58929 
4 *31:23 *176:A3 9.72857 
5 *31:23 *174:C1 13.9607 
*END

*D_NET *32 0.000696756
*CONN
*I *159:A I *D sky130_fd_sc_hd__xnor2_1
*I *146:Y O *D sky130_fd_sc_hd__nor2_1
*CAP
1 *159:A 0.000200889
2 *146:Y 0.000200889
3 *159:A *87:29 0.000125724
4 *159:A *88:21 0.000125724
5 *146:B *159:A 1.92789e-05
6 *31:23 *159:A 2.42516e-05
*RES
1 *146:Y *159:A 31.0107 
*END

*D_NET *33 0.001352
*CONN
*I *174:A2 I *D sky130_fd_sc_hd__a211o_1
*I *158:B1_N I *D sky130_fd_sc_hd__o21ba_1
*I *149:A I *D sky130_fd_sc_hd__nor2_1
*I *147:X O *D sky130_fd_sc_hd__and2_1
*CAP
1 *174:A2 1.64323e-05
2 *158:B1_N 1.40568e-05
3 *149:A 0.000138308
4 *147:X 6.8548e-05
5 *33:10 0.000290423
6 *33:8 0.000223038
7 *149:A *143:A 0
8 *149:A *149:B 8.2731e-05
9 *149:A *87:10 0
10 *149:A *87:29 0
11 *158:B1_N *212:A 2.89016e-05
12 *158:B1_N *34:6 5.52238e-05
13 *33:8 *175:A1 0
14 *33:8 *175:B1 7.83659e-05
15 *33:10 *149:B 9.69119e-06
16 *33:10 *40:10 0
17 *33:10 *43:12 0
18 *33:10 *87:29 0
19 *174:A1 *174:A2 9.90431e-05
20 *174:C1 *174:A2 9.90431e-05
21 *30:12 *33:8 0.000137939
22 *30:12 *33:10 1.02504e-05
*RES
1 *147:X *33:8 15.7464 
2 *33:8 *33:10 2.25 
3 *33:10 *149:A 16.6571 
4 *33:10 *158:B1_N 14.3357 
5 *33:8 *174:A2 14.7464 
*END

*D_NET *34 0.0017323
*CONN
*I *158:A1 I *D sky130_fd_sc_hd__o21ba_1
*I *149:B I *D sky130_fd_sc_hd__nor2_1
*I *148:Y O *D sky130_fd_sc_hd__nor2_1
*CAP
1 *158:A1 4.84725e-05
2 *149:B 0.000175261
3 *148:Y 0.000317755
4 *34:6 0.000541489
5 *149:B *160:A 1.92789e-05
6 *149:B *212:A 9.01334e-05
7 *149:B *43:12 0
8 *158:A1 *158:A2 2.86259e-05
9 *34:6 *148:A 9.90431e-05
10 *34:6 *148:B 7.61932e-05
11 *34:6 *158:A2 2.89016e-05
12 *34:6 *159:B 0.000102207
13 *34:6 *212:A 5.7293e-05
14 *149:A *149:B 8.2731e-05
15 *158:B1_N *34:6 5.52238e-05
16 *33:10 *149:B 9.69119e-06
*RES
1 *148:Y *34:6 15.5857 
2 *34:6 *149:B 21.9964 
3 *34:6 *158:A1 10.2643 
*END

*D_NET *35 0.000686947
*CONN
*I *160:A I *D sky130_fd_sc_hd__xnor2_1
*I *149:Y O *D sky130_fd_sc_hd__nor2_1
*CAP
1 *160:A 0.000273212
2 *149:Y 0.000273212
3 *160:A *211:A 0
4 *160:A *212:A 8.78079e-05
5 *160:A *43:12 3.34366e-05
6 *149:B *160:A 1.92789e-05
*RES
1 *149:Y *160:A 31.725 
*END

*D_NET *36 0.00166024
*CONN
*I *156:A I *D sky130_fd_sc_hd__nor2_1
*I *157:B1 I *D sky130_fd_sc_hd__a21oi_1
*I *174:B1 I *D sky130_fd_sc_hd__a211o_1
*I *150:X O *D sky130_fd_sc_hd__and2_1
*CAP
1 *156:A 2.16417e-05
2 *157:B1 0
3 *174:B1 6.45792e-05
4 *150:X 8.88759e-05
5 *36:14 0.000438584
6 *36:10 0.000484522
7 *156:A *210:A 5.49544e-05
8 *36:10 *156:B 0.000125731
9 *36:14 *161:A 0.000197899
10 *36:14 *210:A 4.27338e-05
11 *36:14 *42:6 4.34858e-05
12 *36:14 *42:10 1.59373e-05
13 *36:14 *43:12 1.51018e-05
14 *174:A1 *174:B1 1.97695e-05
15 *174:C1 *174:B1 4.22908e-05
16 *191:A *36:10 4.13122e-06
*RES
1 *150:X *36:10 19.9429 
2 *36:10 *36:14 7.125 
3 *36:14 *174:B1 10.675 
4 *36:14 *157:B1 9.3 
5 *36:10 *156:A 9.83571 
*END

*D_NET *37 0.00101165
*CONN
*I *153:A I *D sky130_fd_sc_hd__nand2_1
*I *154:B1_N I *D sky130_fd_sc_hd__a21bo_1
*I *151:Y O *D sky130_fd_sc_hd__nand2_1
*CAP
1 *153:A 0.000118977
2 *154:B1_N 0
3 *151:Y 8.85655e-05
4 *37:10 0.000207542
5 *153:A *151:B 6.0038e-05
6 *153:A *153:B 0.000144512
7 *153:A *68:10 0.000136694
8 *153:A *76:10 1.83212e-05
9 *37:10 *151:B 0.000125731
10 *37:10 *153:B 3.34366e-05
11 *37:10 *162:B 4.89264e-05
12 *37:10 *209:A 2.89016e-05
*RES
1 *151:Y *37:10 15.9786 
2 *37:10 *154:B1_N 13.8 
3 *37:10 *153:A 17.0143 
*END

*D_NET *38 0.00142428
*CONN
*I *153:B I *D sky130_fd_sc_hd__nand2_1
*I *154:A2 I *D sky130_fd_sc_hd__a21bo_1
*I *152:X O *D sky130_fd_sc_hd__or2_1
*CAP
1 *153:B 0.000135873
2 *154:A2 0.000147881
3 *152:X 0.000192375
4 *38:6 0.000476129
5 *153:B *162:B 0.000177948
6 *153:B *210:A 5.33433e-05
7 *154:A2 *154:A1 2.84026e-05
8 *38:6 *152:A 1.58163e-05
9 *153:A *153:B 0.000144512
10 *207:A *153:B 1.85642e-05
11 *37:10 *153:B 3.34366e-05
*RES
1 *152:X *38:6 11.8893 
2 *38:6 *154:A2 11.4964 
3 *38:6 *153:B 22.3536 
*END

*D_NET *39 0.000950624
*CONN
*I *162:B I *D sky130_fd_sc_hd__xnor2_1
*I *153:Y O *D sky130_fd_sc_hd__nand2_1
*CAP
1 *162:B 0.000162503
2 *153:Y 0.000162503
3 *162:B *151:B 1.78447e-05
4 *162:B *162:A 0.000226897
5 *162:B *69:14 0
6 *162:B *76:10 0.000125599
7 *153:B *162:B 0.000177948
8 *200:A *162:B 2.84026e-05
9 *37:10 *162:B 4.89264e-05
*RES
1 *153:Y *162:B 32.6179 
*END

*D_NET *40 0.00306027
*CONN
*I *175:A1 I *D sky130_fd_sc_hd__a21oi_1
*I *161:A I *D sky130_fd_sc_hd__xor2_1
*I *157:A1 I *D sky130_fd_sc_hd__a21oi_1
*I *154:X O *D sky130_fd_sc_hd__a21bo_1
*CAP
1 *175:A1 0.000243181
2 *161:A 0.000108714
3 *157:A1 0
4 *154:X 0.000389672
5 *40:12 0.000108714
6 *40:10 0.000632853
7 *161:A *161:B 1.02132e-05
8 *161:A *42:10 0.000316985
9 *175:A1 *157:A2 5.7616e-05
10 *175:A1 *175:A2 0.000373272
11 *175:A1 *175:B1 0
12 *175:A1 *57:12 0
13 *40:10 *155:A 4.73286e-05
14 *40:10 *155:B 0.000141729
15 *40:10 *156:B 0.000230855
16 *40:10 *157:A2 1.02504e-05
17 *40:10 *211:A 5.41494e-05
18 *40:10 *43:12 0.000103253
19 *40:10 *69:14 1.98839e-05
20 *174:C1 *161:A 1.3701e-05
21 *33:8 *175:A1 0
22 *33:10 *40:10 0
23 *36:14 *161:A 0.000197899
*RES
1 *154:X *40:10 22.0321 
2 *40:10 *40:12 4.5 
3 *40:12 *157:A1 9.3 
4 *40:12 *161:A 13.5679 
5 *40:10 *175:A1 19.3714 
*END

*D_NET *41 0.00079491
*CONN
*I *156:B I *D sky130_fd_sc_hd__nor2_1
*I *155:Y O *D sky130_fd_sc_hd__nor2_1
*CAP
1 *156:B 0.000219162
2 *155:Y 0.000219162
3 *36:10 *156:B 0.000125731
4 *40:10 *156:B 0.000230855
*RES
1 *155:Y *156:B 31.4214 
*END

*D_NET *42 0.00189313
*CONN
*I *161:B I *D sky130_fd_sc_hd__xor2_1
*I *175:A2 I *D sky130_fd_sc_hd__a21oi_1
*I *157:A2 I *D sky130_fd_sc_hd__a21oi_1
*I *156:Y O *D sky130_fd_sc_hd__nor2_1
*CAP
1 *161:B 2.00462e-05
2 *175:A2 0.000208178
3 *157:A2 3.16089e-05
4 *156:Y 8.45292e-05
5 *42:10 0.000399537
6 *42:6 0.000264325
7 *175:A2 *57:12 0
8 *42:6 *210:A 5.71472e-05
9 *161:A *161:B 1.02132e-05
10 *161:A *42:10 0.000316985
11 *175:A1 *157:A2 5.7616e-05
12 *175:A1 *175:A2 0.000373272
13 *36:14 *42:6 4.34858e-05
14 *36:14 *42:10 1.59373e-05
15 *40:10 *157:A2 1.02504e-05
*RES
1 *156:Y *42:6 11.0679 
2 *42:6 *42:10 7.91071 
3 *42:10 *157:A2 14.5321 
4 *42:10 *175:A2 18.6393 
5 *42:6 *161:B 9.72857 
*END

*D_NET *43 0.000835979
*CONN
*I *160:B I *D sky130_fd_sc_hd__xnor2_1
*I *158:A2 I *D sky130_fd_sc_hd__o21ba_1
*I *157:Y O *D sky130_fd_sc_hd__a21oi_1
*CAP
1 *160:B 0
2 *158:A2 0.000146069
3 *157:Y 9.73077e-05
4 *43:12 0.000243377
5 *158:A2 *212:A 0.000139907
6 *149:B *43:12 0
7 *158:A1 *158:A2 2.86259e-05
8 *160:A *43:12 3.34366e-05
9 *33:10 *43:12 0
10 *34:6 *158:A2 2.89016e-05
11 *36:14 *43:12 1.51018e-05
12 *40:10 *43:12 0.000103253
*RES
1 *157:Y *43:12 20.3982 
2 *43:12 *158:A2 12.3179 
3 *43:12 *160:B 9.3 
*END

*D_NET *44 0.000280593
*CONN
*I *159:B I *D sky130_fd_sc_hd__xnor2_1
*I *158:X O *D sky130_fd_sc_hd__o21ba_1
*CAP
1 *159:B 6.06192e-05
2 *158:X 6.06192e-05
3 *159:B *212:A 5.71472e-05
4 *34:6 *159:B 0.000102207
*RES
1 *158:X *159:B 20.3679 
*END

*D_NET *45 0.00085495
*CONN
*I *190:A1 I *D sky130_fd_sc_hd__o221a_1
*I *163:X O *D sky130_fd_sc_hd__and2_1
*CAP
1 *190:A1 0.000232321
2 *163:X 0.000232321
3 *190:A1 *167:A 6.05161e-06
4 *190:A1 *183:B 0
5 *190:A1 *190:B2 5.16989e-05
6 *190:A1 *190:C1 0
7 *190:A1 *49:10 0.000100823
8 *190:A1 *49:25 0.000216135
9 *190:A1 *50:50 0
10 *190:A1 *75:14 1.56e-05
*RES
1 *163:X *190:A1 32.5107 
*END

*D_NET *46 0.00358047
*CONN
*I *189:A I *D sky130_fd_sc_hd__nand2_1
*I *166:A I *D sky130_fd_sc_hd__nand2_1
*I *164:Y O *D sky130_fd_sc_hd__nand2_1
*CAP
1 *189:A 0.000504579
2 *166:A 0.000328901
3 *164:Y 0.000242215
4 *46:6 0.0010757
5 *166:A *166:B 5.49489e-05
6 *166:A *170:B 0.000121248
7 *166:A *50:18 0.000497999
8 *166:A *91:14 9.91086e-05
9 *166:A *92:20 2.16719e-05
10 *189:A *181:B1 0.000391848
11 *189:A *182:A 1.98839e-05
12 *189:A *190:B2 6.78055e-06
13 *46:6 *164:A 0.000180342
14 *46:6 *170:B 6.8445e-06
15 *46:6 *181:C1 2.84026e-05
*RES
1 *164:Y *46:6 12.3 
2 *46:6 *166:A 26.2107 
3 *46:6 *189:A 15.9071 
*END

*D_NET *47 0.00161144
*CONN
*I *190:C1 I *D sky130_fd_sc_hd__o221a_1
*I *166:B I *D sky130_fd_sc_hd__nand2_1
*I *165:X O *D sky130_fd_sc_hd__or2_1
*CAP
1 *190:C1 0.000290987
2 *166:B 0.000210797
3 *165:X 3.97478e-05
4 *47:8 0.000541532
5 *166:B *168:B 0.000192205
6 *166:B *182:A 2.00659e-05
7 *166:B *50:18 0
8 *190:C1 *181:A1 2.53878e-05
9 *190:C1 *182:A 5.41045e-05
10 *190:C1 *190:B1 5.49489e-05
11 *190:C1 *216:A 7.1763e-05
12 *190:C1 *49:25 0
13 *47:8 *91:14 5.49489e-05
14 *166:A *166:B 5.49489e-05
15 *190:A1 *190:C1 0
*RES
1 *165:X *47:8 14.3357 
2 *47:8 *166:B 17.8 
3 *47:8 *190:C1 19.3714 
*END

*D_NET *48 0.00122545
*CONN
*I *182:A I *D sky130_fd_sc_hd__xnor2_1
*I *166:Y O *D sky130_fd_sc_hd__nand2_1
*CAP
1 *182:A 0.000260916
2 *166:Y 0.000260916
3 *182:A *167:A 4.43142e-05
4 *182:A *168:B 0.000146474
5 *182:A *181:B1 5.33005e-05
6 *182:A *182:B 5.33005e-05
7 *182:A *49:10 0.000195547
8 *182:A *49:25 2.24646e-05
9 *182:A *50:18 9.41642e-05
10 *166:B *182:A 2.00659e-05
11 *189:A *182:A 1.98839e-05
12 *190:C1 *182:A 5.41045e-05
*RES
1 *166:Y *182:A 33.5643 
*END

*D_NET *49 0.0024375
*CONN
*I *183:A I *D sky130_fd_sc_hd__nand2_1
*I *190:A2 I *D sky130_fd_sc_hd__o221a_1
*I *181:B1 I *D sky130_fd_sc_hd__o211a_1
*I *167:X O *D sky130_fd_sc_hd__or2_1
*CAP
1 *183:A 7.70958e-05
2 *190:A2 1.40568e-05
3 *181:B1 0.000144824
4 *167:X 9.09888e-05
5 *49:25 0.000213136
6 *49:10 0.000357796
7 *181:B1 *182:B 6.66766e-05
8 *181:B1 *216:A 2.27766e-05
9 *183:A *186:A 9.7659e-05
10 *183:A *190:B2 0.000125547
11 *190:A2 *186:A 2.89016e-05
12 *190:A2 *190:B2 5.52238e-05
13 *49:10 *167:A 5.41794e-05
14 *49:10 *50:50 0
15 *49:10 *75:14 5.33005e-05
16 *49:10 *92:20 5.52238e-05
17 *182:A *181:B1 5.33005e-05
18 *182:A *49:10 0.000195547
19 *182:A *49:25 2.24646e-05
20 *189:A *181:B1 0.000391848
21 *190:A1 *49:10 0.000100823
22 *190:A1 *49:25 0.000216135
23 *190:C1 *49:25 0
*RES
1 *167:X *49:10 16.8893 
2 *49:10 *181:B1 18.05 
3 *49:10 *49:25 7.35714 
4 *49:25 *190:A2 9.83571 
5 *49:25 *183:A 11.4964 
*END

*D_NET *50 0.00372087
*CONN
*I *183:B I *D sky130_fd_sc_hd__nand2_1
*I *189:B I *D sky130_fd_sc_hd__nand2_1
*I *170:B I *D sky130_fd_sc_hd__nand2b_1
*I *180:A I *D sky130_fd_sc_hd__nand2_1
*I *168:Y O *D sky130_fd_sc_hd__nand2_1
*CAP
1 *183:B 0.000160236
2 *189:B 0
3 *170:B 0.000224123
4 *180:A 0
5 *168:Y 0
6 *50:50 0.000545194
7 *50:18 0.000547554
8 *50:4 0.000708389
9 *170:B *164:A 0.000136416
10 *170:B *164:B 3.25478e-05
11 *170:B *181:C1 2.84026e-05
12 *170:B *91:14 4.6049e-05
13 *183:B *190:B2 3.18703e-05
14 *50:18 *164:A 0.000126917
15 *50:18 *92:20 3.34295e-05
16 *50:50 *163:B 1.46624e-05
17 *50:50 *75:12 8.8788e-05
18 *50:50 *92:10 1.18064e-05
19 *166:A *170:B 0.000121248
20 *166:A *50:18 0.000497999
21 *166:B *50:18 0
22 *182:A *50:18 9.41642e-05
23 *190:A1 *183:B 0
24 *190:A1 *50:50 0
25 *198:A *50:50 0.000218845
26 *206:A *50:50 4.53834e-05
27 *46:6 *170:B 6.8445e-06
28 *49:10 *50:50 0
*RES
1 *168:Y *50:4 9.3 
2 *50:4 *50:18 20.6429 
3 *50:18 *180:A 13.8 
4 *50:18 *170:B 19.0054 
5 *50:4 *50:50 11.7143 
6 *50:50 *189:B 13.8 
7 *50:50 *183:B 16.6571 
*END

*D_NET *51 0.00240262
*CONN
*I *185:A1 I *D sky130_fd_sc_hd__a21bo_1
*I *170:A_N I *D sky130_fd_sc_hd__nand2b_1
*I *184:A I *D sky130_fd_sc_hd__nand2_1
*I *169:X O *D sky130_fd_sc_hd__or2_1
*CAP
1 *185:A1 7.34008e-05
2 *170:A_N 0.000145023
3 *184:A 2.6618e-05
4 *169:X 0.00020732
5 *51:15 0.000298816
6 *51:6 0.00031433
7 *170:A_N *180:B 0.000205677
8 *170:A_N *188:B 0
9 *170:A_N *60:29 0
10 *184:A *184:B 3.77902e-06
11 *185:A1 *60:29 0.000176751
12 *51:6 *187:A 0.00014285
13 *51:6 *187:B 4.72917e-05
14 *51:6 *60:29 1.24368e-05
15 *51:6 *61:8 6.62761e-05
16 *51:15 *184:B 5.71472e-05
17 *51:15 *187:B 2.44318e-05
18 *51:15 *60:29 0.000447622
19 *51:15 *61:8 9.22103e-06
20 *51:15 *61:19 0.000143625
*RES
1 *169:X *51:6 13.5321 
2 *51:6 *184:A 9.72857 
3 *51:6 *51:15 4.23214 
4 *51:15 *170:A_N 21.4607 
5 *51:15 *185:A1 11.0857 
*END

*D_NET *52 9.13738e-05
*CONN
*I *181:C1 I *D sky130_fd_sc_hd__o211a_1
*I *170:Y O *D sky130_fd_sc_hd__nand2b_1
*CAP
1 *181:C1 1.72843e-05
2 *170:Y 1.72843e-05
3 *170:B *181:C1 2.84026e-05
4 *46:6 *181:C1 2.84026e-05
*RES
1 *170:Y *181:C1 19.1357 
*END

*D_NET *53 0.0020034
*CONN
*I *178:B1 I *D sky130_fd_sc_hd__o31ai_2
*I *173:A I *D sky130_fd_sc_hd__nand2_1
*I *171:Y O *D sky130_fd_sc_hd__nand2_1
*CAP
1 *178:B1 0.000393741
2 *173:A 0.00027623
3 *171:Y 0
4 *53:4 0.000669971
5 *173:A *173:B 0
6 *173:A *70:10 3.30352e-05
7 *173:A *89:12 7.3459e-05
8 *178:B1 *171:A 3.30352e-05
9 *178:B1 *171:B 9.90367e-05
10 *178:B1 *177:A 1.98839e-05
11 *178:B1 *177:B 0.00017372
12 *178:B1 *178:A2 9.3111e-05
13 *178:B1 *72:12 8.18783e-05
14 *193:A *173:A 5.62995e-05
*RES
1 *171:Y *53:4 9.3 
2 *53:4 *173:A 23.7821 
3 *53:4 *178:B1 17.4071 
*END

*D_NET *54 0.000293476
*CONN
*I *173:B I *D sky130_fd_sc_hd__nand2_1
*I *172:X O *D sky130_fd_sc_hd__or2_1
*CAP
1 *173:B 0.000106698
2 *172:X 0.000106698
3 *173:B *55:8 8.00806e-05
4 *173:B *58:14 0
5 *173:B *89:12 0
6 *173:A *173:B 0
*RES
1 *172:X *173:B 29.5464 
*END

*D_NET *55 0.000672127
*CONN
*I *188:A I *D sky130_fd_sc_hd__xnor2_1
*I *178:A1 I *D sky130_fd_sc_hd__o31ai_2
*I *173:Y O *D sky130_fd_sc_hd__nand2_1
*CAP
1 *188:A 0.000145639
2 *178:A1 0
3 *173:Y 9.83151e-05
4 *55:8 0.000243954
5 *188:A *178:A3 0
6 *188:A *188:B 5.52238e-05
7 *188:A *57:12 0
8 *188:A *72:12 4.89148e-05
9 *55:8 *178:A3 0
10 *55:8 *58:14 0
11 *55:8 *89:12 0
12 *173:B *55:8 8.00806e-05
13 *195:A *188:A 0
*RES
1 *173:Y *55:8 15.7464 
2 *55:8 *178:A1 13.8 
3 *55:8 *188:A 16.5857 
*END

*D_NET *56 0.00042707
*CONN
*I *175:B1 I *D sky130_fd_sc_hd__a21oi_1
*I *174:X O *D sky130_fd_sc_hd__a211o_1
*CAP
1 *175:B1 0.000117257
2 *174:X 0.000117257
3 *175:B1 *57:12 5.83304e-05
4 *175:B1 *58:14 2.6949e-05
5 *174:C1 *175:B1 2.89114e-05
6 *175:A1 *175:B1 0
7 *33:8 *175:B1 7.83659e-05
*RES
1 *174:X *175:B1 30.0821 
*END

*D_NET *57 0.00152471
*CONN
*I *177:A I *D sky130_fd_sc_hd__nor2_1
*I *178:A2 I *D sky130_fd_sc_hd__o31ai_2
*I *175:Y O *D sky130_fd_sc_hd__a21oi_1
*CAP
1 *177:A 0.000131029
2 *178:A2 0.000122181
3 *175:Y 0.000315486
4 *57:12 0.000568696
5 *177:A *177:B 2.13661e-05
6 *57:12 *177:B 9.87983e-06
7 *57:12 *178:A3 1.25459e-05
8 *57:12 *58:14 6.89449e-05
9 *57:12 *60:8 0.00010326
10 *175:A1 *57:12 0
11 *175:A2 *57:12 0
12 *175:B1 *57:12 5.83304e-05
13 *178:B1 *177:A 1.98839e-05
14 *178:B1 *178:A2 9.3111e-05
15 *188:A *57:12 0
*RES
1 *175:Y *57:12 24.7286 
2 *57:12 *178:A2 11.4964 
3 *57:12 *177:A 11.4964 
*END

*D_NET *58 0.00158159
*CONN
*I *177:B I *D sky130_fd_sc_hd__nor2_1
*I *178:A3 I *D sky130_fd_sc_hd__o31ai_2
*I *176:Y O *D sky130_fd_sc_hd__o31ai_2
*CAP
1 *177:B 0.000161976
2 *178:A3 3.51165e-05
3 *176:Y 0.000384225
4 *58:14 0.000581318
5 *58:14 *147:B 0
6 *58:14 *70:10 0
7 *173:B *58:14 0
8 *174:C1 *58:14 2.89016e-05
9 *175:B1 *58:14 2.6949e-05
10 *177:A *177:B 2.13661e-05
11 *178:B1 *177:B 0.00017372
12 *188:A *178:A3 0
13 *30:12 *58:14 7.6644e-05
14 *55:8 *178:A3 0
15 *55:8 *58:14 0
16 *57:12 *177:B 9.87983e-06
17 *57:12 *178:A3 1.25459e-05
18 *57:12 *58:14 6.89449e-05
*RES
1 *176:Y *58:14 21.3446 
2 *58:14 *178:A3 14.3804 
3 *58:14 *177:B 17.1125 
*END

*D_NET *59 0.000974624
*CONN
*I *188:B I *D sky130_fd_sc_hd__xnor2_1
*I *177:Y O *D sky130_fd_sc_hd__nor2_1
*CAP
1 *188:B 0.000418903
2 *177:Y 0.000418903
3 *188:B *60:8 8.15939e-05
4 *170:A_N *188:B 0
5 *188:A *188:B 5.52238e-05
*RES
1 *177:Y *188:B 35.0107 
*END

*D_NET *60 0.00377153
*CONN
*I *181:A1 I *D sky130_fd_sc_hd__o211a_1
*I *185:A2 I *D sky130_fd_sc_hd__a21bo_1
*I *187:A I *D sky130_fd_sc_hd__xnor2_1
*I *178:Y O *D sky130_fd_sc_hd__o31ai_2
*CAP
1 *181:A1 0.000186837
2 *185:A2 0
3 *187:A 2.30905e-05
4 *178:Y 0.000334016
5 *60:29 0.00075856
6 *60:8 0.000928829
7 *181:A1 *181:A2 1.00332e-05
8 *181:A1 *190:B1 4.17433e-05
9 *181:A1 *216:A 0.000147681
10 *181:A1 *66:6 9.77414e-05
11 *181:A1 *91:14 0.000105237
12 *187:A *187:B 9.90367e-05
13 *187:A *61:8 1.74352e-05
14 *60:8 *72:12 0
15 *60:29 *214:A 1.02504e-05
16 sum[7] *181:A1 2.11419e-05
17 *170:A_N *60:29 0
18 *185:A1 *60:29 0.000176751
19 *188:B *60:8 8.15939e-05
20 *190:C1 *181:A1 2.53878e-05
21 *195:A *60:8 0
22 *51:6 *187:A 0.00014285
23 *51:6 *60:29 1.24368e-05
24 *51:15 *60:29 0.000447622
25 *57:12 *60:8 0.00010326
*RES
1 *178:Y *60:8 19.6929 
2 *60:8 *187:A 15.1571 
3 *60:8 *60:29 12.9107 
4 *60:29 *185:A2 9.3 
5 *60:29 *181:A1 23.3357 
*END

*D_NET *61 0.00323414
*CONN
*I *185:B1_N I *D sky130_fd_sc_hd__a21bo_1
*I *180:B I *D sky130_fd_sc_hd__nand2_1
*I *184:B I *D sky130_fd_sc_hd__nand2_1
*I *179:Y O *D sky130_fd_sc_hd__nand2_1
*CAP
1 *185:B1_N 0
2 *180:B 0.000334338
3 *184:B 2.40602e-05
4 *179:Y 0.000610164
5 *61:19 0.000439798
6 *61:8 0.000739684
7 *180:B *164:A 8.77502e-06
8 *180:B *164:B 0.000346893
9 *61:8 *169:A 0.000102207
10 *61:8 *187:B 0.000125057
11 *170:A_N *180:B 0.000205677
12 *184:A *184:B 3.77902e-06
13 *187:A *61:8 1.74352e-05
14 *51:6 *61:8 6.62761e-05
15 *51:15 *184:B 5.71472e-05
16 *51:15 *61:8 9.22103e-06
17 *51:15 *61:19 0.000143625
*RES
1 *179:Y *61:8 17.9607 
2 *61:8 *184:B 10.2643 
3 *61:8 *61:19 2.58929 
4 *61:19 *180:B 33.9964 
5 *61:19 *185:B1_N 9.3 
*END

*D_NET *62 0.000630329
*CONN
*I *181:A2 I *D sky130_fd_sc_hd__o211a_1
*I *180:Y O *D sky130_fd_sc_hd__nand2_1
*CAP
1 *181:A2 0.000186661
2 *180:Y 0.000186661
3 *181:A2 *164:B 6.87245e-05
4 *181:A2 *91:14 0.00017825
5 *181:A1 *181:A2 1.00332e-05
*RES
1 *180:Y *181:A2 30.6 
*END

*D_NET *63 0.00030792
*CONN
*I *182:B I *D sky130_fd_sc_hd__xnor2_1
*I *181:X O *D sky130_fd_sc_hd__o211a_1
*CAP
1 *182:B 6.76828e-05
2 *181:X 6.76828e-05
3 *182:B *216:A 5.25774e-05
4 *181:B1 *182:B 6.66766e-05
5 *182:A *182:B 5.33005e-05
*RES
1 *181:X *182:B 20.3679 
*END

*D_NET *64 0.000961677
*CONN
*I *186:A I *D sky130_fd_sc_hd__xnor2_1
*I *183:Y O *D sky130_fd_sc_hd__nand2_1
*CAP
1 *186:A 0.000395946
2 *183:Y 0.000395946
3 *186:A *190:B2 1.74352e-05
4 *186:A *208:A 0
5 *186:A *215:A 6.05161e-06
6 sum[6] *186:A 1.97381e-05
7 *183:A *186:A 9.7659e-05
8 *190:A2 *186:A 2.89016e-05
*RES
1 *183:Y *186:A 34.3143 
*END

*D_NET *65 0.000385199
*CONN
*I *187:B I *D sky130_fd_sc_hd__xnor2_1
*I *184:Y O *D sky130_fd_sc_hd__nand2_1
*CAP
1 *187:B 4.4691e-05
2 *184:Y 4.4691e-05
3 *187:A *187:B 9.90367e-05
4 *51:6 *187:B 4.72917e-05
5 *51:15 *187:B 2.44318e-05
6 *61:8 *187:B 0.000125057
*RES
1 *184:Y *187:B 20.7786 
*END

*D_NET *66 0.00101881
*CONN
*I *190:B1 I *D sky130_fd_sc_hd__o221a_1
*I *186:B I *D sky130_fd_sc_hd__xnor2_1
*I *185:X O *D sky130_fd_sc_hd__a21bo_1
*CAP
1 *190:B1 0.000157504
2 *186:B 0.000142514
3 *185:X 5.17279e-05
4 *66:6 0.000351746
5 *186:B *91:14 0.000103267
6 *181:A1 *190:B1 4.17433e-05
7 *181:A1 *66:6 9.77414e-05
8 *190:C1 *190:B1 5.49489e-05
9 *205:A *186:B 1.76135e-05
*RES
1 *185:X *66:6 10.2464 
2 *66:6 *186:B 21.0857 
3 *66:6 *190:B1 11.9071 
*END

*D_NET *67 0.000838952
*CONN
*I *190:B2 I *D sky130_fd_sc_hd__o221a_1
*I *189:Y O *D sky130_fd_sc_hd__nand2_1
*CAP
1 *190:B2 0.000275198
2 *189:Y 0.000275198
3 *183:A *190:B2 0.000125547
4 *183:B *190:B2 3.18703e-05
5 *186:A *190:B2 1.74352e-05
6 *189:A *190:B2 6.78055e-06
7 *190:A1 *190:B2 5.16989e-05
8 *190:A2 *190:B2 5.52238e-05
*RES
1 *189:Y *190:B2 32.4929 
*END

*D_NET *68 0.00169335
*CONN
*I *152:B I *D sky130_fd_sc_hd__or2_1
*I *151:B I *D sky130_fd_sc_hd__nand2_1
*I *191:X O *D sky130_fd_sc_hd__clkbuf_1
*CAP
1 *152:B 0
2 *151:B 0.000103571
3 *191:X 0.00011913
4 *68:10 0.000222701
5 *151:B *151:A 0.000245349
6 *151:B *209:A 5.52238e-05
7 *151:B *69:14 0
8 *68:10 *151:A 1.02504e-05
9 *68:10 *210:A 0.000227258
10 *68:10 *93:8 9.4724e-05
11 *153:A *151:B 6.0038e-05
12 *153:A *68:10 0.000136694
13 *162:B *151:B 1.78447e-05
14 *191:A *68:10 0.000274839
15 *37:10 *151:B 0.000125731
*RES
1 *191:X *68:10 18.5321 
2 *68:10 *151:B 17.4964 
3 *68:10 *152:B 13.8 
*END

*D_NET *69 0.00114852
*CONN
*I *150:A I *D sky130_fd_sc_hd__and2_1
*I *155:A I *D sky130_fd_sc_hd__nor2_1
*I *192:X O *D sky130_fd_sc_hd__clkbuf_1
*CAP
1 *150:A 0
2 *155:A 8.97227e-05
3 *192:X 0.000256504
4 *69:14 0.000346227
5 *155:A *155:B 5.65955e-05
6 *69:14 *155:B 9.83388e-05
7 *69:14 *162:A 0
8 *69:14 *211:A 0
9 *69:14 *79:12 0.000126439
10 *151:B *69:14 0
11 *162:B *69:14 0
12 *192:A *69:14 5.41794e-05
13 *200:A *69:14 5.33005e-05
14 *40:10 *155:A 4.73286e-05
15 *40:10 *69:14 1.98839e-05
*RES
1 *192:X *69:14 23.3536 
2 *69:14 *155:A 11.0857 
3 *69:14 *150:A 9.3 
*END

*D_NET *70 0.00216478
*CONN
*I *147:A I *D sky130_fd_sc_hd__and2_1
*I *176:A1 I *D sky130_fd_sc_hd__o31ai_2
*I *148:A I *D sky130_fd_sc_hd__nor2_1
*I *193:X O *D sky130_fd_sc_hd__buf_1
*CAP
1 *147:A 0.000133863
2 *176:A1 1.66263e-06
3 *148:A 0.00019292
4 *193:X 0.000172048
5 *70:14 0.000307709
6 *70:10 0.000419038
7 *147:A *144:A 4.72917e-05
8 *147:A *145:B 9.71197e-05
9 *147:A *147:B 9.90431e-05
10 *148:A *148:B 5.7661e-06
11 *148:A *71:14 5.13657e-05
12 *148:A *88:21 0.000113277
13 *176:A1 *88:21 2.26973e-05
14 *70:10 *71:14 1.41029e-05
15 *70:10 *88:21 1.52978e-05
16 *70:14 *71:14 0.000145182
17 *70:14 *88:21 4.5041e-05
18 *173:A *70:10 3.30352e-05
19 *193:A *70:10 1.24368e-05
20 *30:12 *147:A 3.18676e-05
21 *31:12 *70:14 0.000104974
22 *34:6 *148:A 9.90431e-05
23 *58:14 *70:10 0
*RES
1 *193:X *70:10 16.6929 
2 *70:10 *70:14 3.24107 
3 *70:14 *148:A 17.3804 
4 *70:14 *176:A1 14.0768 
5 *70:10 *147:A 16.8 
*END

*D_NET *71 0.00232095
*CONN
*I *143:A I *D sky130_fd_sc_hd__nor2_1
*I *144:A I *D sky130_fd_sc_hd__or2_1
*I *145:A I *D sky130_fd_sc_hd__and2_1
*I *194:X O *D sky130_fd_sc_hd__clkbuf_1
*CAP
1 *143:A 9.60105e-05
2 *144:A 0.000162324
3 *145:A 0
4 *194:X 0
5 *71:14 0.000432267
6 *71:4 0.000365953
7 *143:A *87:10 5.52238e-05
8 *143:A *88:10 5.80706e-06
9 *143:A *88:21 2.84398e-05
10 *144:A *145:B 0.000139907
11 *71:14 *88:21 7.44824e-05
12 *146:A *143:A 0.000140933
13 *146:A *71:14 0.000320024
14 *147:A *144:A 4.72917e-05
15 *148:A *71:14 5.13657e-05
16 *149:A *143:A 0
17 *194:A *71:14 1.41029e-05
18 *202:A *143:A 0.000227532
19 *70:10 *71:14 1.41029e-05
20 *70:14 *71:14 0.000145182
*RES
1 *194:X *71:4 9.3 
2 *71:4 *71:14 16.7679 
3 *71:14 *145:A 9.3 
4 *71:14 *144:A 12.3179 
5 *71:4 *143:A 21.2107 
*END

*D_NET *72 0.000764435
*CONN
*I *172:A I *D sky130_fd_sc_hd__or2_1
*I *171:A I *D sky130_fd_sc_hd__nand2_1
*I *195:X O *D sky130_fd_sc_hd__clkbuf_1
*CAP
1 *172:A 0
2 *171:A 8.87259e-05
3 *195:X 0.000184231
4 *72:12 0.000272956
5 *171:A *171:B 4.50908e-05
6 *178:B1 *171:A 3.30352e-05
7 *178:B1 *72:12 8.18783e-05
8 *188:A *72:12 4.89148e-05
9 *195:A *72:12 9.60337e-06
10 *60:8 *72:12 0
*RES
1 *195:X *72:12 21.8179 
2 *72:12 *171:A 11.0857 
3 *72:12 *172:A 9.3 
*END

*D_NET *73 0.000756776
*CONN
*I *179:A I *D sky130_fd_sc_hd__nand2_1
*I *169:A I *D sky130_fd_sc_hd__or2_1
*I *196:X O *D sky130_fd_sc_hd__clkbuf_1
*CAP
1 *179:A 0
2 *169:A 0.000124906
3 *196:X 9.27533e-05
4 *73:10 0.00021766
5 *169:A *179:B 6.69094e-05
6 *73:10 *213:A 0.00015234
7 *196:A *73:10 0
8 *61:8 *169:A 0.000102207
*RES
1 *196:X *73:10 20.2464 
2 *73:10 *169:A 12.3357 
3 *73:10 *179:A 9.3 
*END

*D_NET *74 0.000848656
*CONN
*I *167:A I *D sky130_fd_sc_hd__or2_1
*I *168:A I *D sky130_fd_sc_hd__nand2_1
*I *197:X O *D sky130_fd_sc_hd__clkbuf_1
*CAP
1 *167:A 0.000151567
2 *168:A 0
3 *197:X 6.62105e-05
4 *74:8 0.000217778
5 *167:A *163:B 3.25078e-05
6 *167:A *168:B 2.7952e-05
7 *167:A *75:14 9.41642e-05
8 *167:A *92:10 7.8327e-05
9 *74:8 *168:B 5.80706e-06
10 *74:8 *92:10 6.97972e-05
11 *182:A *167:A 4.43142e-05
12 *190:A1 *167:A 6.05161e-06
13 *49:10 *167:A 5.41794e-05
*RES
1 *197:X *74:8 15.4429 
2 *74:8 *168:A 13.8 
3 *74:8 *167:A 17.6036 
*END

*D_NET *75 0.00274639
*CONN
*I *163:A I *D sky130_fd_sc_hd__and2_1
*I *165:A I *D sky130_fd_sc_hd__or2_1
*I *164:A I *D sky130_fd_sc_hd__nand2_1
*I *198:X O *D sky130_fd_sc_hd__clkbuf_1
*CAP
1 *163:A 5.77107e-05
2 *165:A 2.08306e-05
3 *164:A 0.000295163
4 *198:X 6.2218e-05
5 *75:14 0.000462566
6 *75:12 0.0002665
7 *163:A *163:B 1.33343e-05
8 *164:A *164:B 0.000304196
9 *164:A *91:14 4.60235e-05
10 *164:A *92:20 5.20751e-05
11 *165:A *164:B 0
12 *165:A *91:14 3.41517e-06
13 *75:12 *163:B 3.34366e-05
14 *75:12 *92:10 7.83587e-05
15 *75:14 *163:B 5.52302e-05
16 *75:14 *168:B 5.33005e-05
17 *75:14 *91:14 6.96796e-05
18 *75:14 *92:20 0.000168046
19 *167:A *75:14 9.41642e-05
20 *170:B *164:A 0.000136416
21 *180:B *164:A 8.77502e-06
22 *190:A1 *75:14 1.56e-05
23 *46:6 *164:A 0.000180342
24 *49:10 *75:14 5.33005e-05
25 *50:18 *164:A 0.000126917
26 *50:50 *75:12 8.8788e-05
*RES
1 *198:X *75:12 20.0679 
2 *75:12 *75:14 4.23214 
3 *75:14 *164:A 25.9964 
4 *75:14 *165:A 9.72857 
5 *75:12 *163:A 10.2464 
*END

*D_NET *76 0.00143298
*CONN
*I *154:A1 I *D sky130_fd_sc_hd__a21bo_1
*I *162:A I *D sky130_fd_sc_hd__xnor2_1
*I *199:X O *D sky130_fd_sc_hd__buf_1
*CAP
1 *154:A1 2.80854e-05
2 *162:A 0.0001969
3 *199:X 0.000271797
4 *76:10 0.000496782
5 *153:A *76:10 1.83212e-05
6 *154:A2 *154:A1 2.84026e-05
7 *162:B *162:A 0.000226897
8 *162:B *76:10 0.000125599
9 *191:A *76:10 2.42564e-05
10 *200:A *162:A 1.59373e-05
11 *69:14 *162:A 0
*RES
1 *199:X *76:10 18.4071 
2 *76:10 *162:A 17.7286 
3 *76:10 *154:A1 14.3357 
*END

*D_NET *77 0.00020892
*CONN
*I *208:A I *D sky130_fd_sc_hd__buf_2
*I *190:X O *D sky130_fd_sc_hd__o221a_1
*CAP
1 *208:A 7.04474e-05
2 *190:X 7.04474e-05
3 cout *208:A 3.40128e-05
4 sum[6] *208:A 3.40128e-05
5 *186:A *208:A 0
*RES
1 *190:X *208:A 29.2429 
*END

*D_NET *78 0.000363053
*CONN
*I *209:A I *D sky130_fd_sc_hd__buf_2
*I *162:Y O *D sky130_fd_sc_hd__xnor2_1
*CAP
1 *209:A 0.000139464
2 *162:Y 0.000139464
3 *151:B *209:A 5.52238e-05
4 *37:10 *209:A 2.89016e-05
*RES
1 *162:Y *209:A 21.225 
*END

*D_NET *79 0.00090284
*CONN
*I *150:B I *D sky130_fd_sc_hd__and2_1
*I *155:B I *D sky130_fd_sc_hd__nor2_1
*I *200:X O *D sky130_fd_sc_hd__clkbuf_1
*CAP
1 *150:B 0
2 *155:B 2.44094e-05
3 *200:X 0.000208463
4 *79:12 0.000232872
5 *79:12 *211:A 0
6 *155:A *155:B 5.65955e-05
7 *192:A *79:12 3.69047e-06
8 *200:A *79:12 1.03037e-05
9 *40:10 *155:B 0.000141729
10 *69:14 *155:B 9.83388e-05
11 *69:14 *79:12 0.000126439
*RES
1 *200:X *79:12 21.6036 
2 *79:12 *155:B 10.6571 
3 *79:12 *150:B 9.3 
*END

*D_NET *80 0.00103561
*CONN
*I *210:A I *D sky130_fd_sc_hd__buf_2
*I *161:X O *D sky130_fd_sc_hd__xor2_1
*CAP
1 *210:A 0.000218681
2 *161:X 0.000218681
3 *153:B *210:A 5.33433e-05
4 *156:A *210:A 5.49544e-05
5 *191:A *210:A 8.91986e-05
6 *207:A *210:A 7.36167e-05
7 *36:14 *210:A 4.27338e-05
8 *42:6 *210:A 5.71472e-05
9 *68:10 *210:A 0.000227258
*RES
1 *161:X *210:A 24.4929 
*END

*D_NET *81 0.000460171
*CONN
*I *211:A I *D sky130_fd_sc_hd__buf_2
*I *160:Y O *D sky130_fd_sc_hd__xnor2_1
*CAP
1 *211:A 0.000203011
2 *160:Y 0.000203011
3 *211:A *212:A 0
4 *160:A *211:A 0
5 *192:A *211:A 0
6 *40:10 *211:A 5.41494e-05
7 *69:14 *211:A 0
8 *79:12 *211:A 0
*RES
1 *160:Y *211:A 31.2071 
*END

*D_NET *82 0.00113191
*CONN
*I *212:A I *D sky130_fd_sc_hd__buf_2
*I *159:Y O *D sky130_fd_sc_hd__xnor2_1
*CAP
1 *212:A 0.000320904
2 *159:Y 0.000320904
3 sum[3] *212:A 2.89114e-05
4 *149:B *212:A 9.01334e-05
5 *158:A2 *212:A 0.000139907
6 *158:B1_N *212:A 2.89016e-05
7 *159:B *212:A 5.71472e-05
8 *160:A *212:A 8.78079e-05
9 *211:A *212:A 0
10 *34:6 *212:A 5.7293e-05
*RES
1 *159:Y *212:A 34.6179 
*END

*D_NET *83 0.000668133
*CONN
*I *213:A I *D sky130_fd_sc_hd__buf_2
*I *188:Y O *D sky130_fd_sc_hd__xnor2_1
*CAP
1 *213:A 0.00023005
2 *188:Y 0.00023005
3 *213:A *90:12 5.56943e-05
4 sum[4] *213:A 0
5 *73:10 *213:A 0.00015234
*RES
1 *188:Y *213:A 32.2071 
*END

*D_NET *84 0.00037354
*CONN
*I *214:A I *D sky130_fd_sc_hd__buf_2
*I *187:Y O *D sky130_fd_sc_hd__xnor2_1
*CAP
1 *214:A 0.000181645
2 *187:Y 0.000181645
3 sum[5] *214:A 0
4 *60:29 *214:A 1.02504e-05
*RES
1 *187:Y *214:A 30.6 
*END

*D_NET *85 0.000179781
*CONN
*I *215:A I *D sky130_fd_sc_hd__buf_2
*I *186:Y O *D sky130_fd_sc_hd__xnor2_1
*CAP
1 *215:A 8.68645e-05
2 *186:Y 8.68645e-05
3 *186:A *215:A 6.05161e-06
*RES
1 *186:Y *215:A 19.8679 
*END

*D_NET *86 0.000684876
*CONN
*I *216:A I *D sky130_fd_sc_hd__buf_2
*I *182:Y O *D sky130_fd_sc_hd__xnor2_1
*CAP
1 *216:A 0.000195039
2 *182:Y 0.000195039
3 *181:A1 *216:A 0.000147681
4 *181:B1 *216:A 2.27766e-05
5 *182:B *216:A 5.25774e-05
6 *190:C1 *216:A 7.1763e-05
*RES
1 *182:Y *216:A 31.3143 
*END

*D_NET *87 0.00231444
*CONN
*I *147:B I *D sky130_fd_sc_hd__and2_1
*I *176:A2 I *D sky130_fd_sc_hd__o31ai_2
*I *148:B I *D sky130_fd_sc_hd__nor2_1
*I *201:X O *D sky130_fd_sc_hd__buf_1
*CAP
1 *147:B 0.000238938
2 *176:A2 0
3 *148:B 0.000109936
4 *201:X 0.000283149
5 *87:29 0.000394549
6 *87:10 0.000548695
7 *147:B *88:21 0.000105614
8 *87:10 *88:21 0.00010326
9 *87:29 *88:21 5.19638e-05
10 *143:A *87:10 5.52238e-05
11 *147:A *147:B 9.90431e-05
12 *148:A *148:B 5.7661e-06
13 *149:A *87:10 0
14 *149:A *87:29 0
15 *159:A *87:29 0.000125724
16 *201:A *87:10 1.32552e-05
17 *202:A *87:10 7.17235e-05
18 *30:12 *147:B 3.14078e-05
19 *30:12 *87:29 0
20 *33:10 *87:29 0
21 *34:6 *148:B 7.61932e-05
22 *58:14 *147:B 0
*RES
1 *201:X *87:10 18.1393 
2 *87:10 *148:B 16.0143 
3 *87:10 *87:29 3.51786 
4 *87:29 *176:A2 13.8 
5 *87:29 *147:B 19.0857 
*END

*D_NET *88 0.00201573
*CONN
*I *144:B I *D sky130_fd_sc_hd__or2_1
*I *145:B I *D sky130_fd_sc_hd__and2_1
*I *143:B I *D sky130_fd_sc_hd__nor2_1
*I *202:X O *D sky130_fd_sc_hd__clkbuf_1
*CAP
1 *144:B 0
2 *145:B 3.86287e-05
3 *143:B 0
4 *202:X 0.000133483
5 *88:21 0.000286153
6 *88:10 0.000381007
7 *143:A *88:10 5.80706e-06
8 *143:A *88:21 2.84398e-05
9 *144:A *145:B 0.000139907
10 *147:A *145:B 9.71197e-05
11 *147:B *88:21 0.000105614
12 *148:A *88:21 0.000113277
13 *159:A *88:21 0.000125724
14 *176:A1 *88:21 2.26973e-05
15 *194:A *88:10 0
16 *194:A *88:21 0
17 *201:A *88:10 0.000142856
18 *31:12 *88:21 0.000104974
19 *70:10 *88:21 1.52978e-05
20 *70:14 *88:21 4.5041e-05
21 *71:14 *88:21 7.44824e-05
22 *87:10 *88:21 0.00010326
23 *87:29 *88:21 5.19638e-05
*RES
1 *202:X *88:10 15.8893 
2 *88:10 *143:B 13.8 
3 *88:10 *88:21 12.2143 
4 *88:21 *145:B 10.6571 
5 *88:21 *144:B 9.3 
*END

*D_NET *89 0.000711849
*CONN
*I *172:B I *D sky130_fd_sc_hd__or2_1
*I *171:B I *D sky130_fd_sc_hd__nand2_1
*I *203:X O *D sky130_fd_sc_hd__clkbuf_1
*CAP
1 *172:B 0
2 *171:B 8.1845e-05
3 *203:X 0.000165286
4 *89:12 0.000247131
5 *171:A *171:B 4.50908e-05
6 *173:A *89:12 7.3459e-05
7 *173:B *89:12 0
8 *178:B1 *171:B 9.90367e-05
9 *55:8 *89:12 0
*RES
1 *203:X *89:12 20.7821 
2 *89:12 *171:B 11.5143 
3 *89:12 *172:B 9.3 
*END

*D_NET *90 0.000433015
*CONN
*I *169:B I *D sky130_fd_sc_hd__or2_1
*I *179:B I *D sky130_fd_sc_hd__nand2_1
*I *204:X O *D sky130_fd_sc_hd__clkbuf_1
*CAP
1 *169:B 0
2 *179:B 3.86021e-05
3 *204:X 0.000116604
4 *90:12 0.000155206
5 *169:A *179:B 6.69094e-05
6 *213:A *90:12 5.56943e-05
*RES
1 *204:X *90:12 20.175 
2 *90:12 *179:B 10.2643 
3 *90:12 *169:B 9.3 
*END

*D_NET *91 0.00231718
*CONN
*I *168:B I *D sky130_fd_sc_hd__nand2_1
*I *167:B I *D sky130_fd_sc_hd__or2_1
*I *205:X O *D sky130_fd_sc_hd__clkbuf_1
*CAP
1 *168:B 0.000171479
2 *167:B 0
3 *205:X 0.000382292
4 *91:14 0.000553771
5 *91:14 *164:B 5.52238e-05
6 sum[7] *91:14 2.26973e-05
7 *164:A *91:14 4.60235e-05
8 *165:A *91:14 3.41517e-06
9 *166:A *91:14 9.91086e-05
10 *166:B *168:B 0.000192205
11 *167:A *168:B 2.7952e-05
12 *170:B *91:14 4.6049e-05
13 *181:A1 *91:14 0.000105237
14 *181:A2 *91:14 0.00017825
15 *182:A *168:B 0.000146474
16 *186:B *91:14 0.000103267
17 *47:8 *91:14 5.49489e-05
18 *74:8 *168:B 5.80706e-06
19 *75:14 *168:B 5.33005e-05
20 *75:14 *91:14 6.96796e-05
*RES
1 *205:X *91:14 27.5143 
2 *91:14 *167:B 9.3 
3 *91:14 *168:B 22.3536 
*END

*D_NET *92 0.0036257
*CONN
*I *163:B I *D sky130_fd_sc_hd__and2_1
*I *165:B I *D sky130_fd_sc_hd__or2_1
*I *164:B I *D sky130_fd_sc_hd__nand2_1
*I *206:X O *D sky130_fd_sc_hd__clkbuf_1
*CAP
1 *163:B 7.46961e-05
2 *165:B 0
3 *164:B 0.000369251
4 *206:X 0.000145896
5 *92:20 0.000787763
6 *92:10 0.000639104
7 *163:A *163:B 1.33343e-05
8 *164:A *164:B 0.000304196
9 *164:A *92:20 5.20751e-05
10 *165:A *164:B 0
11 *166:A *92:20 2.16719e-05
12 *167:A *163:B 3.25078e-05
13 *167:A *92:10 7.8327e-05
14 *170:B *164:B 3.25478e-05
15 *180:B *164:B 0.000346893
16 *181:A2 *164:B 6.87245e-05
17 *199:A *92:10 2.27416e-05
18 *206:A *92:10 6.07532e-05
19 *49:10 *92:20 5.52238e-05
20 *50:18 *92:20 3.34295e-05
21 *50:50 *163:B 1.46624e-05
22 *50:50 *92:10 1.18064e-05
23 *74:8 *92:10 6.97972e-05
24 *75:12 *163:B 3.34366e-05
25 *75:12 *92:10 7.83587e-05
26 *75:14 *163:B 5.52302e-05
27 *75:14 *92:20 0.000168046
28 *91:14 *164:B 5.52238e-05
*RES
1 *206:X *92:10 17.8 
2 *92:10 *92:20 19.1786 
3 *92:20 *164:B 26.9071 
4 *92:20 *165:B 9.3 
5 *92:10 *163:B 15.3714 
*END

*D_NET *93 0.000995628
*CONN
*I *152:A I *D sky130_fd_sc_hd__or2_1
*I *151:A I *D sky130_fd_sc_hd__nand2_1
*I *207:X O *D sky130_fd_sc_hd__clkbuf_1
*CAP
1 *152:A 3.89625e-05
2 *151:A 7.05413e-05
3 *207:X 2.97176e-05
4 *93:8 0.000139221
5 *151:B *151:A 0.000245349
6 *191:A *151:A 0.000247778
7 *191:A *93:8 0.000103267
8 *38:6 *152:A 1.58163e-05
9 *68:10 *151:A 1.02504e-05
10 *68:10 *93:8 9.4724e-05
*RES
1 *207:X *93:8 15.1393 
2 *93:8 *151:A 16.9607 
3 *93:8 *152:A 14.3357 
*END
