*SPEF "ieee 1481-1999"
*DESIGN "acc8"
*DATE "12:30:00 Saturday September 19, 2026"
*VENDOR "The OpenROAD Project"
*PROGRAM "OpenROAD"
*VERSION "edf00dff99f6c40d67a30c0e22a8191c5d2ed9d6"
*DESIGN_FLOW "NAME_SCOPE LOCAL" "PIN_CAP NONE"
*DIVIDER /
*DELIMITER :
*BUS_DELIMITER []
*T_UNIT 1 NS
*C_UNIT 1 PF
*R_UNIT 1 OHM
*L_UNIT 1 HENRY

*NAME_MAP
*3 acc[0]
*4 acc[1]
*5 acc[2]
*6 acc[3]
*7 acc[4]
*8 acc[5]
*9 acc[6]
*10 acc[7]
*11 clk
*12 data_in[0]
*13 data_in[1]
*14 data_in[2]
*15 data_in[3]
*16 data_in[4]
*17 data_in[5]
*18 data_in[6]
*19 data_in[7]
*20 rst
*21 _00_
*22 _01_
*23 _02_
*24 _03_
*25 _04_
*26 _05_
*27 _06_
*28 _07_
*29 _08_
*30 _09_
*31 _10_
*32 _11_
*33 _12_
*34 _13_
*35 _14_
*36 _15_
*37 _16_
*38 _17_
*39 _18_
*40 _19_
*41 _20_
*42 _21_
*43 _22_
*44 _23_
*45 _24_
*46 _25_
*47 _26_
*48 _27_
*49 _28_
*50 _29_
*51 _30_
*52 _31_
*53 _32_
*54 _33_
*55 _34_
*56 _35_
*57 _36_
*58 _37_
*59 _38_
*60 _39_
*61 _40_
*62 _41_
*63 adder\.high\.sum\[0\]
*64 adder\.high\.sum\[1\]
*65 adder\.high\.sum\[2\]
*66 adder\.high\.sum\[3\]
*67 adder\.low\.p\[0\]
*68 adder\.low\.sum\[1\]
*69 adder\.low\.sum\[2\]
*70 adder\.low\.sum\[3\]
*71 clknet_0_clk
*72 clknet_1_0__leaf_clk
*73 clknet_1_1__leaf_clk
*74 net1
*75 net10
*76 net11
*77 net12
*78 net13
*79 net14
*80 net15
*81 net16
*82 net17
*83 net2
*84 net3
*85 net4
*86 net5
*87 net6
*88 net7
*89 net8
*90 net9
*91 FILLER_0_11
*92 FILLER_0_23
*93 FILLER_0_29
*94 FILLER_0_3
*95 FILLER_0_46
*96 FILLER_0_50
*97 FILLER_0_55
*98 FILLER_0_60
*99 FILLER_10_15
*100 FILLER_10_27
*101 FILLER_10_29
*102 FILLER_10_3
*103 FILLER_10_41
*104 FILLER_10_48
*105 FILLER_10_57
*106 FILLER_1_23
*107 FILLER_1_52
*108 FILLER_1_57
*109 FILLER_2_18
*110 FILLER_2_25
*111 FILLER_2_32
*112 FILLER_2_38
*113 FILLER_2_64
*114 FILLER_3_11
*115 FILLER_3_3
*116 FILLER_3_55
*117 FILLER_3_7
*118 FILLER_4_23
*119 FILLER_4_44
*120 FILLER_5_15
*121 FILLER_5_6
*122 FILLER_5_64
*123 FILLER_6_15
*124 FILLER_6_22
*125 FILLER_6_29
*126 FILLER_6_3
*127 FILLER_7_27
*128 FILLER_7_33
*129 FILLER_7_41
*130 FILLER_7_54
*131 FILLER_8_14
*132 FILLER_8_20
*133 FILLER_8_24
*134 FILLER_8_29
*135 FILLER_8_3
*136 FILLER_8_37
*137 FILLER_8_41
*138 FILLER_9_15
*139 FILLER_9_36
*140 FILLER_9_52
*141 FILLER_9_57
*142 FILLER_9_7
*143 PHY_EDGE_ROW_0_Left_11
*144 PHY_EDGE_ROW_0_Right_0
*145 PHY_EDGE_ROW_10_Left_21
*146 PHY_EDGE_ROW_10_Right_10
*147 PHY_EDGE_ROW_1_Left_12
*148 PHY_EDGE_ROW_1_Right_1
*149 PHY_EDGE_ROW_2_Left_13
*150 PHY_EDGE_ROW_2_Right_2
*151 PHY_EDGE_ROW_3_Left_14
*152 PHY_EDGE_ROW_3_Right_3
*153 PHY_EDGE_ROW_4_Left_15
*154 PHY_EDGE_ROW_4_Right_4
*155 PHY_EDGE_ROW_5_Left_16
*156 PHY_EDGE_ROW_5_Right_5
*157 PHY_EDGE_ROW_6_Left_17
*158 PHY_EDGE_ROW_6_Right_6
*159 PHY_EDGE_ROW_7_Left_18
*160 PHY_EDGE_ROW_7_Right_7
*161 PHY_EDGE_ROW_8_Left_19
*162 PHY_EDGE_ROW_8_Right_8
*163 PHY_EDGE_ROW_9_Left_20
*164 PHY_EDGE_ROW_9_Right_9
*165 TAP_TAPCELL_ROW_0_22
*166 TAP_TAPCELL_ROW_0_23
*167 TAP_TAPCELL_ROW_10_33
*168 TAP_TAPCELL_ROW_10_34
*169 TAP_TAPCELL_ROW_1_24
*170 TAP_TAPCELL_ROW_2_25
*171 TAP_TAPCELL_ROW_3_26
*172 TAP_TAPCELL_ROW_4_27
*173 TAP_TAPCELL_ROW_5_28
*174 TAP_TAPCELL_ROW_6_29
*175 TAP_TAPCELL_ROW_7_30
*176 TAP_TAPCELL_ROW_8_31
*177 TAP_TAPCELL_ROW_9_32
*178 _42_
*179 _43_
*180 _44_
*181 _45_
*182 _46_
*183 _47_
*184 _48_
*185 _49_
*186 _50_
*187 _51_
*188 _52_
*189 _53_
*190 _54_
*191 _55_
*192 _56_
*193 _57_
*194 _58_
*195 _59_
*196 _60_
*197 _61_
*198 _62_
*199 _63_
*200 _64_
*201 _65_
*202 _66_
*203 _67_
*204 _68_
*205 _69_
*206 _70_
*207 _71_
*208 _72_
*209 _73_
*210 _74_
*211 _75_
*212 _76_
*213 _77_
*214 _78_
*215 _79_
*216 _80_
*217 _81_
*218 _82_
*219 _83_
*220 _84_
*221 _85_
*222 _86_
*223 _87_
*224 _88_
*225 _89_
*226 _90_
*227 _91_
*228 _92_
*229 _93_
*230 _94_
*231 _95_
*232 _96_
*233 _97_
*234 _98_
*235 _99_
*236 clkbuf_0_clk
*237 clkbuf_1_0__f_clk
*238 clkbuf_1_1__f_clk
*239 input1
*240 input2
*241 input3
*242 input4
*243 input5
*244 input6
*245 input7
*246 input8
*247 input9
*248 output10
*249 output11
*250 output12
*251 output13
*252 output14
*253 output15
*254 output16
*255 output17

*PORTS
acc[0] O
acc[1] O
acc[2] O
acc[3] O
acc[4] O
acc[5] O
acc[6] O
acc[7] O
clk I
data_in[0] I
data_in[1] I
data_in[2] I
data_in[3] I
data_in[4] I
data_in[5] I
data_in[6] I
data_in[7] I
rst I

*D_NET *3 0.00185632
*CONN
*P acc[0] O
*I *248:X O *D sky130_fd_sc_hd__buf_2
*CAP
1 acc[0] 0.000140889
2 *248:X 0.000450784
3 *3:10 0.000591673
4 acc[0] acc[7] 0
5 acc[0] *12:13 7.82427e-05
6 acc[0] *19:15 7.1481e-05
7 *3:10 *211:A 0.00012076
8 *3:10 *19:15 0.000308317
9 *3:10 *75:10 0
10 *3:10 *82:14 0
11 *3:10 *89:8 9.41704e-05
*RES
1 *248:X *3:10 47.1868 
2 *3:10 acc[0] 8.75787 
*END

*D_NET *4 0.000606634
*CONN
*P acc[1] O
*I *249:X O *D sky130_fd_sc_hd__buf_2
*CAP
1 acc[1] 0.000259629
2 *249:X 0.000259629
3 acc[1] *13:13 8.73764e-05
4 acc[1] *76:22 0
*RES
1 *249:X acc[1] 47.8691 
*END

*D_NET *5 0.00129558
*CONN
*P acc[2] O
*I *250:X O *D sky130_fd_sc_hd__buf_2
*CAP
1 acc[2] 0.000374185
2 *250:X 0.000374185
3 acc[2] *250:A 7.62307e-05
4 acc[2] *14:13 0.000385728
5 acc[2] *76:30 8.52482e-05
*RES
1 *250:X acc[2] 47.0936 
*END

*D_NET *6 0.00101023
*CONN
*P acc[3] O
*I *251:X O *D sky130_fd_sc_hd__buf_2
*CAP
1 acc[3] 0.000480337
2 *251:X 0.000480337
3 acc[3] *183:A 2.25419e-05
4 acc[3] *242:A 0
5 acc[3] *251:A 1.94812e-05
6 acc[3] *14:13 0
7 acc[3] *77:38 7.53384e-06
*RES
1 *251:X acc[3] 47.57 
*END

*D_NET *7 0.000786044
*CONN
*P acc[4] O
*I *252:X O *D sky130_fd_sc_hd__buf_2
*CAP
1 acc[4] 7.65184e-05
2 *252:X 0.0002903
3 *7:14 0.000366819
4 acc[4] acc[5] 2.12457e-05
5 acc[4] *16:17 1.5289e-05
6 *7:14 *16:17 1.21605e-05
7 *7:14 *79:40 3.7122e-06
*RES
1 *252:X *7:14 49.9 
2 *7:14 acc[4] 0.382667 
*END

*D_NET *8 0.000696347
*CONN
*P acc[5] O
*I *253:X O *D sky130_fd_sc_hd__buf_2
*CAP
1 acc[5] 0.000306719
2 *253:X 0.000306719
3 acc[5] *49:10 6.16635e-05
4 acc[4] acc[5] 2.12457e-05
*RES
1 *253:X acc[5] 48.5734 
*END

*D_NET *9 0.000774375
*CONN
*P acc[6] O
*I *254:X O *D sky130_fd_sc_hd__buf_2
*CAP
1 acc[6] 0.000259516
2 *254:X 0.000259516
3 acc[6] acc[7] 8.45038e-05
4 acc[6] *81:8 0.00012758
5 acc[6] *90:106 4.32584e-05
*RES
1 *254:X acc[6] 48.5734 
*END

*D_NET *10 0.000583146
*CONN
*P acc[7] O
*I *255:X O *D sky130_fd_sc_hd__buf_2
*CAP
1 acc[7] 0.000207689
2 *255:X 0.000207689
3 acc[7] *211:A 4.6318e-06
4 acc[7] *19:15 7.52725e-05
5 acc[7] *82:14 3.35885e-06
6 acc[0] acc[7] 0
7 acc[6] acc[7] 8.45038e-05
*RES
1 *255:X acc[7] 47.1648 
*END

*D_NET *11 0.0017009
*CONN
*P clk I
*I *236:A I *D sky130_fd_sc_hd__clkbuf_16
*CAP
1 clk 0.000713757
2 *236:A 0
3 *11:13 0.000713757
4 *11:13 *197:B 0.000187129
5 *11:13 *233:CLK 0
6 *11:13 *16:17 8.62581e-05
*RES
1 clk *11:13 32.9209 
2 *11:13 *236:A 23 
*END

*D_NET *12 0.00189034
*CONN
*P data_in[0] I
*I *239:A I *D sky130_fd_sc_hd__clkbuf_1
*CAP
1 data_in[0] 0.000553764
2 *239:A 0
3 *12:13 0.000553764
4 *12:13 *247:A 0.00023045
5 *12:13 *21:8 2.5343e-05
6 *12:13 *76:10 6.7177e-06
7 *12:13 *90:14 0.000187129
8 *12:13 *90:119 0.000254925
9 acc[0] *12:13 7.82427e-05
*RES
1 data_in[0] *12:13 34.1461 
2 *12:13 *239:A 23 
*END

*D_NET *13 0.00204067
*CONN
*P data_in[1] I
*I *240:A I *D sky130_fd_sc_hd__clkbuf_1
*CAP
1 data_in[1] 0.000750642
2 *240:A 0
3 *13:13 0.000750642
4 *13:13 *186:A 0.000187129
5 *13:13 *247:A 7.94542e-05
6 *13:13 *36:16 0.000185428
7 *13:13 *59:10 0
8 *13:13 *76:10 0
9 acc[1] *13:13 8.73764e-05
*RES
1 data_in[1] *13:13 28.8349 
2 *13:13 *240:A 23 
*END

*D_NET *14 0.00274119
*CONN
*P data_in[2] I
*I *241:A I *D sky130_fd_sc_hd__buf_1
*CAP
1 data_in[2] 0.000922262
2 *241:A 2.98451e-05
3 *14:13 0.000952107
4 *241:A *77:18 5.56279e-05
5 *14:13 *33:10 0.000164291
6 *14:13 *36:31 6.07306e-05
7 *14:13 *39:29 0
8 *14:13 *60:8 7.85367e-05
9 *14:13 *76:30 2.16891e-05
10 *14:13 *90:14 7.03766e-05
11 acc[2] *14:13 0.000385728
12 acc[3] *14:13 0
*RES
1 data_in[2] *14:13 48.4357 
2 *14:13 *241:A 38.6214 
*END

*D_NET *15 0.00125574
*CONN
*P data_in[3] I
*I *242:A I *D sky130_fd_sc_hd__clkbuf_1
*CAP
1 data_in[3] 0.00054689
2 *242:A 0.00054689
3 *242:A *251:A 0.000161965
4 acc[3] *242:A 0
*RES
1 data_in[3] *242:A 49.9936 
*END

*D_NET *16 0.000739622
*CONN
*P data_in[4] I
*I *243:A I *D sky130_fd_sc_hd__clkbuf_1
*CAP
1 data_in[4] 0.000312957
2 *243:A 0
3 *16:17 0.000312957
4 *16:17 *233:CLK 0
5 acc[4] *16:17 1.5289e-05
6 *7:14 *16:17 1.21605e-05
7 *11:13 *16:17 8.62581e-05
*RES
1 data_in[4] *16:17 27.5105 
2 *16:17 *243:A 23 
*END

*D_NET *17 0.0011606
*CONN
*P data_in[5] I
*I *244:A I *D sky130_fd_sc_hd__clkbuf_1
*CAP
1 data_in[5] 0.000580301
2 *244:A 0
3 *17:9 0.000580301
*RES
1 data_in[5] *17:9 27.7393 
2 *17:9 *244:A 23 
*END

*D_NET *18 0.00118384
*CONN
*P data_in[6] I
*I *245:A I *D sky130_fd_sc_hd__clkbuf_1
*CAP
1 data_in[6] 0.000573414
2 *245:A 0
3 *18:9 0.000573414
4 *18:9 *52:10 3.70094e-05
*RES
1 data_in[6] *18:9 27.7393 
2 *18:9 *245:A 23 
*END

*D_NET *19 0.00285516
*CONN
*P data_in[7] I
*I *246:A I *D sky130_fd_sc_hd__clkbuf_1
*CAP
1 data_in[7] 0.000613133
2 *246:A 0
3 *19:15 0.000613133
4 *19:15 *227:A 3.23857e-06
5 *19:15 *75:14 9.84794e-05
6 *19:15 *75:23 0.000190672
7 *19:15 *82:14 5.50106e-05
8 *19:15 *89:8 0.000695006
9 *19:15 *90:89 7.72342e-05
10 *19:15 *90:106 5.41801e-05
11 acc[0] *19:15 7.1481e-05
12 acc[7] *19:15 7.52725e-05
13 *3:10 *19:15 0.000308317
*RES
1 data_in[7] *19:15 38.6381 
2 *19:15 *246:A 23 
*END

*D_NET *20 0.000917195
*CONN
*P rst I
*I *247:A I *D sky130_fd_sc_hd__clkbuf_4
*CAP
1 rst 0.000227333
2 *247:A 0.000227333
3 *247:A *90:119 0.000152625
4 *12:13 *247:A 0.00023045
5 *13:13 *247:A 7.94542e-05
*RES
1 rst *247:A 48.9255 
*END

*D_NET *21 0.000419123
*CONN
*I *228:RESET_B I *D sky130_fd_sc_hd__dfrtp_1
*I *178:Y O *D sky130_fd_sc_hd__inv_2
*CAP
1 *228:RESET_B 5.70618e-05
2 *178:Y 0.000121504
3 *21:8 0.000178566
4 *228:RESET_B *75:10 2.52027e-05
5 *21:8 *62:8 0
6 *21:8 *90:119 1.14452e-05
7 *12:13 *21:8 2.5343e-05
*RES
1 *178:Y *21:8 40.2579 
2 *21:8 *228:RESET_B 16.0254 
*END

*D_NET *22 0.00079818
*CONN
*I *229:RESET_B I *D sky130_fd_sc_hd__dfrtp_1
*I *221:Y O *D sky130_fd_sc_hd__inv_2
*CAP
1 *229:RESET_B 0.00039909
2 *221:Y 0.00039909
*RES
1 *221:Y *229:RESET_B 28.4789 
*END

*D_NET *23 0.00189904
*CONN
*I *230:RESET_B I *D sky130_fd_sc_hd__dfrtp_1
*I *222:Y O *D sky130_fd_sc_hd__inv_2
*CAP
1 *230:RESET_B 0.00019203
2 *222:Y 0.000385817
3 *23:10 0.000577848
4 *230:RESET_B *230:CLK 4.84129e-06
5 *230:RESET_B *232:RESET_B 0.000225285
6 *230:RESET_B *77:10 4.0413e-05
7 *23:10 *194:A1 0.000135037
8 *23:10 *194:B1 7.43025e-06
9 *23:10 *196:C1 0.000143655
10 *23:10 *32:27 1.32939e-05
11 *23:10 *41:46 2.02872e-05
12 *23:10 *42:41 0.000107232
13 *23:10 *44:10 4.587e-05
*RES
1 *222:Y *23:10 43.9864 
2 *23:10 *230:RESET_B 18.8839 
*END

*D_NET *24 0.000361873
*CONN
*I *231:RESET_B I *D sky130_fd_sc_hd__dfrtp_1
*I *223:Y O *D sky130_fd_sc_hd__inv_2
*CAP
1 *231:RESET_B 0
2 *223:Y 5.11793e-05
3 *24:8 5.11793e-05
4 *24:8 *182:A 8.76088e-05
5 *24:8 *90:49 0.000171906
*RES
1 *223:Y *24:8 40.2579 
2 *24:8 *231:RESET_B 15 
*END

*D_NET *25 0.00214032
*CONN
*I *232:RESET_B I *D sky130_fd_sc_hd__dfrtp_1
*I *224:Y O *D sky130_fd_sc_hd__inv_2
*CAP
1 *232:RESET_B 0.000323334
2 *224:Y 0.000331111
3 *25:8 0.000654445
4 *232:RESET_B *217:A 4.70852e-05
5 *232:RESET_B *230:CLK 3.3154e-05
6 *232:RESET_B *79:18 2.64616e-05
7 *25:8 *90:29 0.000499443
8 *230:RESET_B *232:RESET_B 0.000225285
*RES
1 *224:Y *25:8 44.8357 
2 *25:8 *232:RESET_B 20.0025 
*END

*D_NET *26 0.000425053
*CONN
*I *233:RESET_B I *D sky130_fd_sc_hd__dfrtp_1
*I *225:Y O *D sky130_fd_sc_hd__inv_2
*CAP
1 *233:RESET_B 0
2 *225:Y 0.000155616
3 *26:10 0.000155616
4 *26:10 *29:19 9.98891e-05
5 *26:10 *46:21 0
6 *26:10 *55:10 0
7 *26:10 *79:26 1.39317e-05
*RES
1 *225:Y *26:10 41.2314 
2 *26:10 *233:RESET_B 15 
*END

*D_NET *27 0.000381673
*CONN
*I *234:RESET_B I *D sky130_fd_sc_hd__dfrtp_1
*I *226:Y O *D sky130_fd_sc_hd__inv_2
*CAP
1 *234:RESET_B 0
2 *226:Y 9.0986e-05
3 *27:8 9.0986e-05
4 *27:8 *90:106 0.000199701
*RES
1 *226:Y *27:8 40.61 
2 *27:8 *234:RESET_B 15 
*END

*D_NET *28 0.00114279
*CONN
*I *235:RESET_B I *D sky130_fd_sc_hd__dfrtp_1
*I *227:Y O *D sky130_fd_sc_hd__inv_2
*CAP
1 *235:RESET_B 0
2 *227:Y 0.000253832
3 *28:10 0.000253832
4 *28:10 *219:A 0.000154138
5 *28:10 *39:10 6.32794e-05
6 *28:10 *74:10 0.000166513
7 *28:10 *75:31 0.000111852
8 *28:10 *89:8 0.000139346
*RES
1 *227:Y *28:10 43.945 
2 *28:10 *235:RESET_B 15 
*END

*D_NET *29 0.0041361
*CONN
*I *208:C1 I *D sky130_fd_sc_hd__o211a_1
*I *206:A1 I *D sky130_fd_sc_hd__a31o_1
*I *201:A I *D sky130_fd_sc_hd__nand2_1
*I *181:A I *D sky130_fd_sc_hd__nand2_1
*I *179:Y O *D sky130_fd_sc_hd__nand2_1
*CAP
1 *208:C1 0
2 *206:A1 1.83025e-05
3 *201:A 0.00019893
4 *181:A 0.000126318
5 *179:Y 0
6 *29:59 0.000368111
7 *29:38 0.000684901
8 *29:19 0.000871677
9 *29:4 0.000500577
10 *181:A *179:A 2.87553e-05
11 *181:A *79:32 5.14746e-06
12 *201:A *201:B 0.000243084
13 *201:A *202:B 3.22879e-05
14 *206:A1 *200:A_N 4.00259e-06
15 *206:A1 *253:A 0
16 *29:19 *55:10 0
17 *29:19 *64:8 0
18 *29:19 *79:26 8.71094e-05
19 *29:19 *79:32 3.58084e-06
20 *29:19 *80:10 0.000114083
21 *29:38 *200:A_N 4.5051e-05
22 *29:38 *253:A 5.3304e-05
23 *29:38 *48:25 8.48502e-06
24 *29:38 *80:10 3.70187e-05
25 *29:38 *80:21 0.000155068
26 *29:59 *208:A1 4.19743e-05
27 *29:59 *208:B1 5.56356e-05
28 *29:59 *46:51 0
29 *29:59 *48:25 4.96717e-05
30 *29:59 *54:14 0.000248128
31 *29:59 *55:10 5.50049e-05
32 *26:10 *29:19 9.98891e-05
*RES
1 *179:Y *29:4 23 
2 *29:4 *181:A 25.2993 
3 *29:4 *29:19 22.3743 
4 *29:19 *201:A 42.4536 
5 *29:19 *29:38 20.1579 
6 *29:38 *206:A1 23.4971 
7 *29:38 *29:59 37.1464 
8 *29:59 *208:C1 23 
*END

*D_NET *30 0.000112845
*CONN
*I *181:B I *D sky130_fd_sc_hd__nand2_1
*I *180:X O *D sky130_fd_sc_hd__or2_1
*CAP
1 *181:B 2.58329e-05
2 *180:X 2.58329e-05
3 *181:B *179:A 5.50049e-05
4 *181:B *31:10 6.17437e-06
*RES
1 *180:X *181:B 46.6214 
*END

*D_NET *31 0.00320642
*CONN
*I *196:C1 I *D sky130_fd_sc_hd__a311o_1
*I *195:A I *D sky130_fd_sc_hd__nand2_1
*I *181:Y O *D sky130_fd_sc_hd__nand2_1
*CAP
1 *196:C1 0.000590979
2 *195:A 9.47913e-05
3 *181:Y 0.000288282
4 *31:10 0.000974052
5 *195:A *195:B 1.14452e-05
6 *195:A *32:27 0
7 *195:A *45:8 0.000114083
8 *195:A *72:10 8.15327e-05
9 *195:A *72:27 5.67058e-05
10 *196:C1 *196:B1 1.14154e-05
11 *196:C1 *222:A 0.00010018
12 *196:C1 *32:27 0.000195896
13 *196:C1 *71:14 1.14154e-05
14 *31:10 *179:A 1.5769e-05
15 *31:10 *233:CLK 0.000200422
16 *31:10 *45:8 0.00025307
17 *31:10 *72:10 5.65491e-05
18 *181:B *31:10 6.17437e-06
19 *23:10 *196:C1 0.000143655
*RES
1 *181:Y *31:10 45.4571 
2 *31:10 *195:A 40.8793 
3 *31:10 *196:C1 49.455 
*END

*D_NET *32 0.00335325
*CONN
*I *194:B1 I *D sky130_fd_sc_hd__a31o_1
*I *196:B1 I *D sky130_fd_sc_hd__a311o_1
*I *193:A_N I *D sky130_fd_sc_hd__nand2b_1
*I *182:Y O *D sky130_fd_sc_hd__nor2_1
*CAP
1 *194:B1 0.000245123
2 *196:B1 3.16101e-05
3 *193:A_N 9.25089e-05
4 *182:Y 0
5 *32:27 0.000965946
6 *32:4 0.000781722
7 *193:A_N *42:35 4.07902e-05
8 *194:B1 *194:A1 1.46286e-05
9 *194:B1 *194:A2 0.00031538
10 *194:B1 *41:46 4.49877e-05
11 *194:B1 *46:10 0.00027141
12 *196:B1 *194:A2 1.37232e-05
13 *32:27 *217:B 0.000164401
14 *32:27 *222:A 5.41385e-05
15 *32:27 *45:8 0
16 *32:27 *46:10 1.32314e-05
17 *32:27 *63:10 7.5614e-05
18 *32:27 *71:14 0
19 *32:27 *90:49 0
20 *195:A *32:27 0
21 *196:C1 *196:B1 1.14154e-05
22 *196:C1 *32:27 0.000195896
23 *23:10 *194:B1 7.43025e-06
24 *23:10 *32:27 1.32939e-05
*RES
1 *182:Y *32:4 23 
2 *32:4 *193:A_N 24.9679 
3 *32:4 *32:27 43.0086 
4 *32:27 *196:B1 23.8493 
5 *32:27 *194:B1 29.3593 
*END

*D_NET *33 0.0015867
*CONN
*I *191:B1 I *D sky130_fd_sc_hd__a211o_1
*I *215:A1 I *D sky130_fd_sc_hd__o211ai_1
*I *183:X O *D sky130_fd_sc_hd__and2_1
*CAP
1 *191:B1 4.75862e-05
2 *215:A1 0
3 *183:X 0.000275108
4 *33:14 0.000139756
5 *33:10 0.000367278
6 *191:B1 *191:A1 0.000125879
7 *191:B1 *191:A2 2.812e-05
8 *33:10 *188:A 4.93812e-05
9 *33:10 *213:B1 0
10 *33:10 *250:A 1.08287e-05
11 *33:10 *38:10 9.82009e-05
12 *33:10 *38:16 0
13 *33:10 *39:29 0
14 *33:14 *191:A1 6.06224e-05
15 *33:14 *191:A2 9.90118e-05
16 *33:14 *36:25 9.41704e-05
17 *33:14 *40:6 2.64616e-05
18 *14:13 *33:10 0.000164291
*RES
1 *183:X *33:10 42.785 
2 *33:10 *33:14 17.5271 
3 *33:14 *215:A1 23 
4 *33:14 *191:B1 25.0921 
*END

*D_NET *34 0.00395337
*CONN
*I *194:A1 I *D sky130_fd_sc_hd__a31o_1
*I *196:A1 I *D sky130_fd_sc_hd__a311o_1
*I *217:A I *D sky130_fd_sc_hd__nand2_1
*I *184:Y O *D sky130_fd_sc_hd__nand2_1
*CAP
1 *194:A1 0.000236585
2 *196:A1 0
3 *217:A 0.000697944
4 *184:Y 0.000313396
5 *34:31 0.000291493
6 *34:10 0.00106625
7 *194:A1 *194:A2 3.44001e-05
8 *194:A1 *194:A3 0.000230081
9 *194:A1 *41:46 5.3304e-05
10 *217:A *230:CLK 0.000113241
11 *217:A *72:27 9.8834e-05
12 *34:10 *216:B 9.84794e-05
13 *34:10 *41:46 0.000100007
14 *34:10 *42:35 0.000108681
15 *34:10 *42:41 1.90416e-05
16 *34:10 *77:30 0
17 *34:10 *79:18 8.68742e-05
18 *34:31 *41:46 0.000100778
19 *34:31 *79:18 0.000107232
20 *194:B1 *194:A1 1.46286e-05
21 *232:RESET_B *217:A 4.70852e-05
22 *23:10 *194:A1 0.000135037
*RES
1 *184:Y *34:10 43.8207 
2 *34:10 *217:A 48.9579 
3 *34:10 *34:31 16.5536 
4 *34:31 *196:A1 23 
5 *34:31 *194:A1 27.93 
*END

*D_NET *35 0.00106158
*CONN
*I *215:A2 I *D sky130_fd_sc_hd__o211ai_1
*I *191:C1 I *D sky130_fd_sc_hd__a211o_1
*I *185:Y O *D sky130_fd_sc_hd__nor2_1
*CAP
1 *215:A2 7.05291e-05
2 *191:C1 0
3 *185:Y 0.000225688
4 *35:12 6.15901e-05
5 *35:6 0.000357807
6 *215:A2 *191:A2 9.92345e-05
7 *35:6 *191:A2 0.000186385
8 *35:6 *77:30 3.71369e-05
9 *35:12 *60:8 2.32121e-05
10 *35:12 *77:38 0
*RES
1 *185:Y *35:6 26.48 
2 *35:6 *35:12 31.2014 
3 *35:12 *191:C1 23 
4 *35:6 *215:A2 24.0979 
*END

*D_NET *36 0.00350023
*CONN
*I *187:A I *D sky130_fd_sc_hd__inv_2
*I *191:A1 I *D sky130_fd_sc_hd__a211o_1
*I *215:B1 I *D sky130_fd_sc_hd__o211ai_1
*I *190:C_N I *D sky130_fd_sc_hd__or3b_1
*I *186:Y O *D sky130_fd_sc_hd__nand2_1
*CAP
1 *187:A 2.1727e-05
2 *191:A1 0.000271116
3 *215:B1 0
4 *190:C_N 0
5 *186:Y 8.19347e-05
6 *36:31 2.89798e-05
7 *36:25 0.000405246
8 *36:16 0.000390185
9 *36:6 0.000388696
10 *187:A *186:A 4.00259e-06
11 *191:A1 *191:A2 3.71458e-05
12 *36:6 *186:A 7.42621e-05
13 *36:16 *186:A 7.42621e-05
14 *36:16 *190:A 0.000100061
15 *36:16 *213:B1 0.000144237
16 *36:16 *214:A 5.50049e-05
17 *36:16 *37:10 0.000270682
18 *36:16 *39:29 1.46784e-05
19 *36:16 *40:6 8.97481e-05
20 *36:16 *59:10 0.000164282
21 *36:16 *90:14 0.000273273
22 *36:25 *40:6 9.78729e-06
23 *36:25 *90:14 1.12349e-05
24 *36:31 *60:8 6.28499e-05
25 *191:B1 *191:A1 0.000125879
26 *13:13 *36:16 0.000185428
27 *14:13 *36:31 6.07306e-05
28 *33:14 *191:A1 6.06224e-05
29 *33:14 *36:25 9.41704e-05
*RES
1 *186:Y *36:6 25.0507 
2 *36:6 *36:16 39.9221 
3 *36:16 *190:C_N 23 
4 *36:16 *36:25 2.07143 
5 *36:25 *36:31 30.8493 
6 *36:31 *215:B1 23 
7 *36:25 *191:A1 27.8264 
8 *36:6 *187:A 23.4971 
*END

*D_NET *37 0.00118354
*CONN
*I *213:A1 I *D sky130_fd_sc_hd__o21ai_1
*I *187:Y O *D sky130_fd_sc_hd__inv_2
*CAP
1 *213:A1 0
2 *187:Y 0.000250664
3 *37:10 0.000250664
4 *37:10 *188:A 0.000116768
5 *37:10 *213:B1 5.56279e-05
6 *37:10 *38:10 5.56356e-05
7 *37:10 *59:10 0.0001835
8 *36:16 *37:10 0.000270682
*RES
1 *187:Y *37:10 44.235 
2 *37:10 *213:A1 38 
*END

*D_NET *38 0.000845551
*CONN
*I *213:A2 I *D sky130_fd_sc_hd__o21ai_1
*I *190:B I *D sky130_fd_sc_hd__or3b_1
*I *188:Y O *D sky130_fd_sc_hd__nor2_1
*CAP
1 *213:A2 0
2 *190:B 0
3 *188:Y 0.000157964
4 *38:16 7.30288e-05
5 *38:10 0.000230992
6 *38:10 *188:A 0.000202378
7 *38:16 *213:B1 2.73522e-05
8 *33:10 *38:10 9.82009e-05
9 *33:10 *38:16 0
10 *37:10 *38:10 5.56356e-05
*RES
1 *188:Y *38:10 26.6457 
2 *38:10 *38:16 31.2014 
3 *38:16 *190:B 23 
4 *38:10 *213:A2 23 
*END

*D_NET *39 0.00477071
*CONN
*I *190:A I *D sky130_fd_sc_hd__or3b_1
*I *213:B1 I *D sky130_fd_sc_hd__o21ai_1
*I *220:A I *D sky130_fd_sc_hd__and2_1
*I *189:Y O *D sky130_fd_sc_hd__nand2_1
*CAP
1 *190:A 2.16905e-05
2 *213:B1 0.000205727
3 *220:A 0.000280835
4 *189:Y 0.00049343
5 *39:29 0.000571945
6 *39:10 0.00111879
7 *190:A *40:6 0.000100061
8 *213:B1 *188:A 2.18926e-05
9 *220:A *220:B 0.000274078
10 *220:A *229:CLK 1.23773e-05
11 *220:A *67:10 8.2832e-05
12 *220:A *73:14 0
13 *220:A *77:10 0.000196652
14 *39:10 *229:CLK 0.000104275
15 *39:10 *234:CLK 8.66558e-05
16 *39:10 *67:10 0.000116314
17 *39:10 *73:10 0.000223034
18 *39:10 *73:14 0.000141869
19 *39:10 *74:10 0
20 *39:10 *75:31 0.000200288
21 *39:29 *229:CLK 6.24374e-05
22 *39:29 *68:8 5.02859e-05
23 *39:29 *74:10 0
24 *14:13 *39:29 0
25 *28:10 *39:10 6.32794e-05
26 *33:10 *213:B1 0
27 *33:10 *39:29 0
28 *36:16 *190:A 0.000100061
29 *36:16 *213:B1 0.000144237
30 *36:16 *39:29 1.46784e-05
31 *37:10 *213:B1 5.56279e-05
32 *38:16 *213:B1 2.73522e-05
*RES
1 *189:Y *39:10 49.8796 
2 *39:10 *220:A 46.2339 
3 *39:10 *39:29 6.84607 
4 *39:29 *213:B1 41.9979 
5 *39:29 *190:A 39.0979 
*END

*D_NET *40 0.00199861
*CONN
*I *214:A I *D sky130_fd_sc_hd__and2_1
*I *215:C1 I *D sky130_fd_sc_hd__o211ai_1
*I *191:A2 I *D sky130_fd_sc_hd__a211o_1
*I *190:X O *D sky130_fd_sc_hd__or3b_1
*CAP
1 *214:A 0.000138133
2 *215:C1 2.34823e-05
3 *191:A2 0.000207417
4 *190:X 0
5 *40:6 0.000436376
6 *40:4 0.00034361
7 *214:A *214:B 5.50106e-05
8 *214:A *90:14 6.36209e-05
9 *190:A *40:6 0.000100061
10 *191:A1 *191:A2 3.71458e-05
11 *191:B1 *191:A2 2.812e-05
12 *215:A2 *191:A2 9.92345e-05
13 *33:14 *191:A2 9.90118e-05
14 *33:14 *40:6 2.64616e-05
15 *35:6 *191:A2 0.000186385
16 *36:16 *214:A 5.50049e-05
17 *36:16 *40:6 8.97481e-05
18 *36:25 *40:6 9.78729e-06
*RES
1 *190:X *40:4 23 
2 *40:4 *40:6 3.95643 
3 *40:6 *191:A2 28.2821 
4 *40:6 *215:C1 23.4971 
5 *40:4 *214:A 26.0243 
*END

*D_NET *41 0.0043004
*CONN
*I *194:A2 I *D sky130_fd_sc_hd__a31o_1
*I *196:A2 I *D sky130_fd_sc_hd__a311o_1
*I *217:B I *D sky130_fd_sc_hd__nand2_1
*I *216:A I *D sky130_fd_sc_hd__and2_1
*I *191:X O *D sky130_fd_sc_hd__a211o_1
*CAP
1 *194:A2 9.81594e-05
2 *196:A2 0
3 *217:B 0.00035564
4 *216:A 0
5 *191:X 4.83154e-05
6 *41:46 0.000634299
7 *41:16 0.000629586
8 *41:8 0.000858401
9 *194:A2 *194:A3 0.000230081
10 *217:B *195:B 0
11 *217:B *231:CLK 0
12 *217:B *61:10 0
13 *217:B *90:49 5.31385e-05
14 *41:8 *77:30 8.62783e-05
15 *41:8 *84:16 2.54046e-05
16 *41:16 *182:A 0
17 *41:16 *216:B 0.0002263
18 *41:16 *42:35 6.07456e-05
19 *41:16 *90:49 6.16531e-05
20 *41:46 *77:30 5.94125e-05
21 *41:46 *79:18 1.22803e-05
22 *41:46 *84:16 1.34354e-05
23 *41:46 *90:49 0
24 *194:A1 *194:A2 3.44001e-05
25 *194:A1 *41:46 5.3304e-05
26 *194:B1 *194:A2 0.00031538
27 *194:B1 *41:46 4.49877e-05
28 *196:B1 *194:A2 1.37232e-05
29 *23:10 *41:46 2.02872e-05
30 *32:27 *217:B 0.000164401
31 *34:10 *41:46 0.000100007
32 *34:31 *41:46 0.000100778
*RES
1 *191:X *41:8 39.2014 
2 *41:8 *41:16 34.3293 
3 *41:16 *216:A 38 
4 *41:16 *217:B 44.4629 
5 *41:8 *41:46 24.7771 
6 *41:46 *196:A2 23 
7 *41:46 *194:A2 26.9771 
*END

*D_NET *42 0.00457618
*CONN
*I *194:A3 I *D sky130_fd_sc_hd__a31o_1
*I *196:A3 I *D sky130_fd_sc_hd__a311o_1
*I *193:B I *D sky130_fd_sc_hd__nand2b_1
*I *192:Y O *D sky130_fd_sc_hd__nand2_1
*CAP
1 *194:A3 4.66745e-05
2 *196:A3 0
3 *193:B 7.63652e-06
4 *192:Y 0.000327054
5 *42:41 0.000269662
6 *42:35 0.000901989
7 *42:12 0.000686638
8 *42:10 0.000327054
9 *42:10 *182:B 6.07929e-05
10 *42:10 *192:B 1.57571e-05
11 *42:10 *231:CLK 0
12 *42:10 *251:A 6.17437e-06
13 *42:10 *70:10 0
14 *42:10 *78:12 0.000114645
15 *42:35 *182:A 5.50106e-05
16 *42:35 *216:B 7.25514e-05
17 *42:35 *230:CLK 0.00013843
18 *42:35 *69:10 0.000313249
19 *42:35 *84:10 0.00010018
20 *42:35 *84:16 0.000111943
21 *42:41 *44:10 1.48851e-05
22 *42:41 *79:18 0.000209199
23 *193:A_N *42:35 4.07902e-05
24 *194:A1 *194:A3 0.000230081
25 *194:A2 *194:A3 0.000230081
26 *23:10 *42:41 0.000107232
27 *34:10 *42:35 0.000108681
28 *34:10 *42:41 1.90416e-05
29 *41:16 *42:35 6.07456e-05
*RES
1 *192:Y *42:10 43.8207 
2 *42:10 *42:12 15 
3 *42:12 *193:B 23.1502 
4 *42:12 *42:35 43.6921 
5 *42:35 *42:41 33.6664 
6 *42:41 *196:A3 23 
7 *42:41 *194:A3 25.5271 
*END

*D_NET *43 0.000187429
*CONN
*I *218:A I *D sky130_fd_sc_hd__xnor2_1
*I *193:Y O *D sky130_fd_sc_hd__nand2b_1
*CAP
1 *218:A 9.37145e-05
2 *193:Y 9.37145e-05
*RES
1 *193:Y *218:A 47.5743 
*END

*D_NET *44 0.00334941
*CONN
*I *195:B I *D sky130_fd_sc_hd__nand2_1
*I *194:X O *D sky130_fd_sc_hd__a31o_1
*CAP
1 *195:B 0.00144761
2 *194:X 0.000115209
3 *44:10 0.00156282
4 *195:B *231:CLK 2.31116e-05
5 *195:B *72:10 3.70187e-05
6 *44:10 *69:10 2.33476e-05
7 *44:10 *90:29 6.80934e-05
8 *195:A *195:B 1.14452e-05
9 *217:B *195:B 0
10 *23:10 *44:10 4.587e-05
11 *42:41 *44:10 1.48851e-05
*RES
1 *194:X *44:10 48.4339 
2 *44:10 *195:B 49.2193 
*END

*D_NET *45 0.000729115
*CONN
*I *197:A I *D sky130_fd_sc_hd__and2_1
*I *195:Y O *D sky130_fd_sc_hd__nand2_1
*CAP
1 *197:A 0
2 *195:Y 0.000180981
3 *45:8 0.000180981
4 *45:8 *63:10 0
5 *195:A *45:8 0.000114083
6 *31:10 *45:8 0.00025307
7 *32:27 *45:8 0
*RES
1 *195:Y *45:8 42.7229 
2 *45:8 *197:A 38 
*END

*D_NET *46 0.00502429
*CONN
*I *206:A2 I *D sky130_fd_sc_hd__a31o_1
*I *201:B I *D sky130_fd_sc_hd__nand2_1
*I *210:A1 I *D sky130_fd_sc_hd__a21oi_1
*I *197:B I *D sky130_fd_sc_hd__and2_1
*I *196:X O *D sky130_fd_sc_hd__a311o_1
*CAP
1 *206:A2 0
2 *201:B 0.000269295
3 *210:A1 0
4 *197:B 0.000357393
5 *196:X 0.000299265
6 *46:51 0.000112558
7 *46:34 0.000616154
8 *46:21 0.000514242
9 *46:10 0.000936599
10 *197:B *63:10 7.24365e-05
11 *197:B *71:14 0.00019975
12 *201:B *198:B 5.50106e-05
13 *201:B *209:A1 5.41385e-05
14 *46:10 *71:14 0
15 *46:10 *79:18 7.58711e-05
16 *46:21 *225:A 0
17 *46:21 *55:10 1.14452e-05
18 *46:21 *57:8 8.76088e-05
19 *46:21 *71:14 0
20 *46:21 *79:18 4.66036e-05
21 *46:21 *90:29 0
22 *46:21 *90:41 0
23 *46:21 *90:89 0
24 *46:34 *209:A1 0.000141144
25 *46:34 *52:44 0
26 *46:34 *55:10 0.000210668
27 *46:34 *56:10 5.80963e-05
28 *46:34 *90:89 0
29 *46:51 *55:10 0
30 *46:51 *87:12 0.000191157
31 *194:B1 *46:10 0.00027141
32 *201:A *201:B 0.000243084
33 *11:13 *197:B 0.000187129
34 *26:10 *46:21 0
35 *29:59 *46:51 0
36 *32:27 *46:10 1.32314e-05
*RES
1 *196:X *46:10 43.2614 
2 *46:10 *197:B 46.7207 
3 *46:10 *46:21 5.77929 
4 *46:21 *210:A1 38 
5 *46:21 *46:34 20.9657 
6 *46:34 *201:B 29.0279 
7 *46:34 *46:51 32.61 
8 *46:51 *206:A2 23 
*END

*D_NET *47 0.00177224
*CONN
*I *209:A1 I *D sky130_fd_sc_hd__a21o_1
*I *206:B1 I *D sky130_fd_sc_hd__a31o_1
*I *200:A_N I *D sky130_fd_sc_hd__nand2b_1
*I *198:Y O *D sky130_fd_sc_hd__nor2_1
*CAP
1 *209:A1 0.000313499
2 *206:B1 0
3 *200:A_N 5.03043e-05
4 *198:Y 0
5 *47:10 0.000173277
6 *47:4 0.000436471
7 *200:A_N *200:B 5.64664e-05
8 *200:A_N *253:A 2.40491e-05
9 *200:A_N *48:25 1.83444e-05
10 *209:A1 *209:B1 5.68958e-05
11 *209:A1 *56:10 5.50049e-05
12 *47:10 *199:B 1.58805e-05
13 *47:10 *55:10 0
14 *47:10 *80:10 1.83564e-05
15 *47:10 *80:21 9.03979e-05
16 *47:10 *87:12 0.000218952
17 *201:B *209:A1 5.41385e-05
18 *206:A1 *200:A_N 4.00259e-06
19 *29:38 *200:A_N 4.5051e-05
20 *46:34 *209:A1 0.000141144
*RES
1 *198:Y *47:4 23 
2 *47:4 *47:10 33.3143 
3 *47:10 *200:A_N 24.595 
4 *47:10 *206:B1 23 
5 *47:4 *209:A1 29.3386 
*END

*D_NET *48 0.00127137
*CONN
*I *208:A1 I *D sky130_fd_sc_hd__o211a_1
*I *206:A3 I *D sky130_fd_sc_hd__a31o_1
*I *200:B I *D sky130_fd_sc_hd__nand2b_1
*I *199:Y O *D sky130_fd_sc_hd__nand2_1
*CAP
1 *208:A1 0.000103062
2 *206:A3 0
3 *200:B 0.000103248
4 *199:Y 5.40832e-05
5 *48:25 0.000199661
6 *48:10 0.000199847
7 *48:8 5.40832e-05
8 *200:B *253:A 2.55893e-05
9 *208:A1 *54:14 0.000187129
10 *48:8 *199:B 5.56306e-05
11 *48:8 *87:12 0.000114092
12 *200:A_N *200:B 5.64664e-05
13 *200:A_N *48:25 1.83444e-05
14 *29:38 *48:25 8.48502e-06
15 *29:59 *208:A1 4.19743e-05
16 *29:59 *48:25 4.96717e-05
*RES
1 *199:Y *48:8 39.5536 
2 *48:8 *48:10 15 
3 *48:10 *200:B 25.2216 
4 *48:10 *48:25 2.07143 
5 *48:25 *206:A3 23 
6 *48:25 *208:A1 26.0036 
*END

*D_NET *49 0.00099351
*CONN
*I *202:A I *D sky130_fd_sc_hd__xnor2_1
*I *200:Y O *D sky130_fd_sc_hd__nand2b_1
*CAP
1 *202:A 0
2 *200:Y 0.000339838
3 *49:10 0.000339838
4 *49:10 *253:A 0.000252171
5 acc[5] *49:10 6.16635e-05
*RES
1 *200:Y *49:10 45.5193 
2 *49:10 *202:A 38 
*END

*D_NET *50 0.000297042
*CONN
*I *202:B I *D sky130_fd_sc_hd__xnor2_1
*I *201:Y O *D sky130_fd_sc_hd__nand2_1
*CAP
1 *202:B 0.000132377
2 *201:Y 0.000132377
3 *201:A *202:B 3.22879e-05
*RES
1 *201:Y *202:B 48.5271 
*END

*D_NET *51 0.00344706
*CONN
*I *208:A2 I *D sky130_fd_sc_hd__o211a_1
*I *205:A_N I *D sky130_fd_sc_hd__and2b_1
*I *209:B1 I *D sky130_fd_sc_hd__a21o_1
*I *203:Y O *D sky130_fd_sc_hd__nor2_1
*CAP
1 *208:A2 0.000425015
2 *205:A_N 0.000137345
3 *209:B1 0.000263142
4 *203:Y 0
5 *51:17 0.000676143
6 *51:4 0.000376924
7 *205:A_N *207:A 0.000138607
8 *205:A_N *52:27 0.000138607
9 *205:A_N *81:22 0.000201747
10 *208:A2 *204:B 1.16734e-05
11 *208:A2 *208:B1 0.000271879
12 *208:A2 *52:27 0.00022652
13 *208:A2 *54:14 1.34995e-05
14 *208:A2 *88:14 3.62936e-05
15 *209:B1 *203:B 0.000100069
16 *209:B1 *52:44 0.000100061
17 *51:17 *203:B 3.67885e-05
18 *51:17 *204:B 2.23884e-05
19 *51:17 *88:14 0.000213463
20 *209:A1 *209:B1 5.68958e-05
*RES
1 *203:Y *51:4 23 
2 *51:4 *209:B1 28.4064 
3 *51:4 *51:17 17.9621 
4 *51:17 *205:A_N 41.9564 
5 *51:17 *208:A2 45.0843 
*END

*D_NET *52 0.00305631
*CONN
*I *209:A2 I *D sky130_fd_sc_hd__a21o_1
*I *208:B1 I *D sky130_fd_sc_hd__o211a_1
*I *205:B I *D sky130_fd_sc_hd__and2b_1
*I *204:Y O *D sky130_fd_sc_hd__nand2_1
*CAP
1 *209:A2 0
2 *208:B1 7.09602e-05
3 *205:B 0.000181711
4 *204:Y 0.000234083
5 *52:44 0.000213686
6 *52:27 0.000439622
7 *52:10 0.000570769
8 *205:B *88:14 4.29558e-05
9 *208:B1 *54:14 7.51832e-05
10 *52:10 *204:A 5.79559e-05
11 *52:10 *88:14 0.000102295
12 *52:27 *207:A 4.78497e-05
13 *52:27 *54:14 4.5051e-05
14 *52:27 *81:22 9.78729e-06
15 *52:44 *203:B 8.16356e-05
16 *52:44 *204:B 5.30518e-05
17 *52:44 *55:10 0
18 *205:A_N *52:27 0.000138607
19 *208:A2 *208:B1 0.000271879
20 *208:A2 *52:27 0.00022652
21 *209:B1 *52:44 0.000100061
22 *18:9 *52:10 3.70094e-05
23 *29:59 *208:B1 5.56356e-05
24 *46:34 *52:44 0
*RES
1 *204:Y *52:10 42.1843 
2 *52:10 *205:B 40.4443 
3 *52:10 *52:27 18.9564 
4 *52:27 *208:B1 26.0243 
5 *52:27 *52:44 34.7643 
6 *52:44 *209:A2 23 
*END

*D_NET *53 0.000586353
*CONN
*I *207:A I *D sky130_fd_sc_hd__xnor2_1
*I *205:X O *D sky130_fd_sc_hd__and2b_1
*CAP
1 *207:A 8.59827e-05
2 *205:X 8.59827e-05
3 *207:A *81:22 0.000227931
4 *205:A_N *207:A 0.000138607
5 *52:27 *207:A 4.78497e-05
*RES
1 *205:X *207:A 49.0243 
*END

*D_NET *54 0.00123157
*CONN
*I *207:B I *D sky130_fd_sc_hd__xnor2_1
*I *206:X O *D sky130_fd_sc_hd__a31o_1
*CAP
1 *207:B 0
2 *206:X 0.000325069
3 *54:14 0.000325069
4 *54:14 *81:22 1.24376e-05
5 *208:A1 *54:14 0.000187129
6 *208:A2 *54:14 1.34995e-05
7 *208:B1 *54:14 7.51832e-05
8 *29:59 *54:14 0.000248128
9 *52:27 *54:14 4.5051e-05
*RES
1 *206:X *54:14 31.3271 
2 *54:14 *207:B 23 
*END

*D_NET *55 0.00080877
*CONN
*I *210:A2 I *D sky130_fd_sc_hd__a21oi_1
*I *208:X O *D sky130_fd_sc_hd__o211a_1
*CAP
1 *210:A2 0
2 *208:X 0.000265826
3 *55:10 0.000265826
4 *55:10 *80:10 0
5 *55:10 *87:12 0
6 *26:10 *55:10 0
7 *29:19 *55:10 0
8 *29:59 *55:10 5.50049e-05
9 *46:21 *55:10 1.14452e-05
10 *46:34 *55:10 0.000210668
11 *46:51 *55:10 0
12 *47:10 *55:10 0
13 *52:44 *55:10 0
*RES
1 *208:X *55:10 43.3443 
2 *55:10 *210:A2 38 
*END

*D_NET *56 0.00034273
*CONN
*I *210:B1 I *D sky130_fd_sc_hd__a21oi_1
*I *209:X O *D sky130_fd_sc_hd__a21o_1
*CAP
1 *210:B1 0
2 *209:X 0.000114815
3 *56:10 0.000114815
4 *209:A1 *56:10 5.50049e-05
5 *46:34 *56:10 5.80963e-05
*RES
1 *209:X *56:10 40.175 
2 *56:10 *210:B1 38 
*END

*D_NET *57 0.000447322
*CONN
*I *212:A I *D sky130_fd_sc_hd__xnor2_1
*I *210:Y O *D sky130_fd_sc_hd__a21oi_1
*CAP
1 *212:A 4.72552e-05
2 *210:Y 9.32033e-05
3 *57:8 0.000140458
4 *212:A *79:26 5.56279e-05
5 *212:A *90:39 2.31687e-05
6 *46:21 *57:8 8.76088e-05
*RES
1 *210:Y *57:8 40.2579 
2 *57:8 *212:A 39.0979 
*END

*D_NET *58 0.00218254
*CONN
*I *212:B I *D sky130_fd_sc_hd__xnor2_1
*I *211:Y O *D sky130_fd_sc_hd__xnor2_1
*CAP
1 *212:B 0.000408491
2 *211:Y 0.000107841
3 *58:8 0.000516331
4 *212:B *189:A 0.000306048
5 *212:B *224:A 0.000100069
6 *212:B *71:29 6.65573e-05
7 *212:B *73:8 9.50411e-05
8 *212:B *75:31 0.000312567
9 *212:B *90:39 0.000187968
10 *58:8 *62:8 0
11 *58:8 *75:10 8.16253e-05
*RES
1 *211:Y *58:8 40.2579 
2 *58:8 *212:B 48.6264 
*END

*D_NET *59 0.000986286
*CONN
*I *214:B I *D sky130_fd_sc_hd__and2_1
*I *213:Y O *D sky130_fd_sc_hd__o21ai_1
*CAP
1 *214:B 1.49804e-05
2 *213:Y 0.000249261
3 *59:10 0.000264241
4 *214:B *90:14 5.50106e-05
5 *214:A *214:B 5.50106e-05
6 *13:13 *59:10 0
7 *36:16 *59:10 0.000164282
8 *37:10 *59:10 0.0001835
*RES
1 *213:Y *59:10 42.3086 
2 *59:10 *214:B 38.6214 
*END

*D_NET *60 0.00188932
*CONN
*I *216:B I *D sky130_fd_sc_hd__and2_1
*I *215:Y O *D sky130_fd_sc_hd__o211ai_1
*CAP
1 *216:B 0.000246474
2 *215:Y 0.000160437
3 *60:8 0.000406911
4 *216:B *77:18 0.000215942
5 *216:B *77:30 5.67058e-05
6 *216:B *84:10 1.72202e-05
7 *216:B *84:16 0.000223698
8 *60:8 *77:30 0
9 *14:13 *60:8 7.85367e-05
10 *34:10 *216:B 9.84794e-05
11 *35:12 *60:8 2.32121e-05
12 *36:31 *60:8 6.28499e-05
13 *41:16 *216:B 0.0002263
14 *42:35 *216:B 7.25514e-05
*RES
1 *215:Y *60:8 41.3143 
2 *60:8 *216:B 45.3121 
*END

*D_NET *61 0.000739505
*CONN
*I *218:B I *D sky130_fd_sc_hd__xnor2_1
*I *217:Y O *D sky130_fd_sc_hd__nand2_1
*CAP
1 *218:B 0
2 *217:Y 0.000233497
3 *61:10 0.000233497
4 *61:10 *231:CLK 0.00014411
5 *61:10 *72:27 0.000128401
6 *217:B *61:10 0
*RES
1 *217:Y *61:10 42.4329 
2 *61:10 *218:B 38 
*END

*D_NET *62 0.00178776
*CONN
*I *220:B I *D sky130_fd_sc_hd__and2_1
*I *219:X O *D sky130_fd_sc_hd__or2_1
*CAP
1 *220:B 6.54444e-05
2 *219:X 0.000441274
3 *62:8 0.000506719
4 *220:B *67:10 0.000103647
5 *62:8 *219:A 8.16356e-05
6 *62:8 *74:10 0.000314964
7 *62:8 *75:10 0
8 *220:A *220:B 0.000274078
9 *21:8 *62:8 0
10 *58:8 *62:8 0
*RES
1 *219:X *62:8 48.3571 
2 *62:8 *220:B 41.0036 
*END

*D_NET *63 0.00114096
*CONN
*I *232:D I *D sky130_fd_sc_hd__dfrtp_1
*I *197:X O *D sky130_fd_sc_hd__and2_1
*CAP
1 *232:D 0
2 *197:X 0.000442759
3 *63:10 0.000442759
4 *63:10 *90:41 4.99925e-05
5 *63:10 *90:49 5.74005e-05
6 *197:B *63:10 7.24365e-05
7 *32:27 *63:10 7.5614e-05
8 *45:8 *63:10 0
*RES
1 *197:X *63:10 45.1257 
2 *63:10 *232:D 38 
*END

*D_NET *64 0.000176484
*CONN
*I *233:D I *D sky130_fd_sc_hd__dfrtp_1
*I *202:Y O *D sky130_fd_sc_hd__xnor2_1
*CAP
1 *233:D 0
2 *202:Y 8.82422e-05
3 *64:8 8.82422e-05
4 *29:19 *64:8 0
*RES
1 *202:Y *64:8 39.5536 
2 *64:8 *233:D 38 
*END

*D_NET *65 0.000590841
*CONN
*I *234:D I *D sky130_fd_sc_hd__dfrtp_1
*I *207:Y O *D sky130_fd_sc_hd__xnor2_1
*CAP
1 *234:D 7.78999e-05
2 *207:Y 0.000149812
3 *65:10 0.000227712
4 *65:10 *81:22 9.77405e-05
5 *65:10 *88:14 3.76761e-05
*RES
1 *207:Y *65:10 40.2993 
2 *65:10 *234:D 38.9995 
*END

*D_NET *66 0.000368676
*CONN
*I *235:D I *D sky130_fd_sc_hd__dfrtp_1
*I *212:Y O *D sky130_fd_sc_hd__xnor2_1
*CAP
1 *235:D 4.27774e-05
2 *212:Y 5.87056e-05
3 *66:8 0.000101483
4 *235:D *235:CLK 1.39317e-05
5 *66:8 *71:29 3.76854e-05
6 *66:8 *90:29 0.000114092
*RES
1 *212:Y *66:8 39.5536 
2 *66:8 *235:D 38.6214 
*END

*D_NET *67 0.00102792
*CONN
*I *228:D I *D sky130_fd_sc_hd__dfrtp_1
*I *220:X O *D sky130_fd_sc_hd__and2_1
*CAP
1 *228:D 0
2 *220:X 0.000344736
3 *67:10 0.000344736
4 *67:10 *74:10 3.56537e-05
5 *220:A *67:10 8.2832e-05
6 *220:B *67:10 0.000103647
7 *39:10 *67:10 0.000116314
*RES
1 *220:X *67:10 43.9864 
2 *67:10 *228:D 38 
*END

*D_NET *68 0.000251209
*CONN
*I *229:D I *D sky130_fd_sc_hd__dfrtp_1
*I *214:X O *D sky130_fd_sc_hd__and2_1
*CAP
1 *229:D 0
2 *214:X 0.000100462
3 *68:8 0.000100462
4 *68:8 *74:10 0
5 *39:29 *68:8 5.02859e-05
*RES
1 *214:X *68:8 39.5536 
2 *68:8 *229:D 38 
*END

*D_NET *69 0.00168961
*CONN
*I *230:D I *D sky130_fd_sc_hd__dfrtp_1
*I *216:X O *D sky130_fd_sc_hd__and2_1
*CAP
1 *230:D 0
2 *216:X 0.000531465
3 *69:10 0.000531465
4 *69:10 *77:10 8.62876e-05
5 *69:10 *77:18 6.80031e-05
6 *69:10 *84:10 9.43908e-05
7 *69:10 *90:29 4.14013e-05
8 *42:35 *69:10 0.000313249
9 *44:10 *69:10 2.33476e-05
*RES
1 *216:X *69:10 46.7207 
2 *69:10 *230:D 38 
*END

*D_NET *70 0.000595958
*CONN
*I *231:D I *D sky130_fd_sc_hd__dfrtp_1
*I *218:Y O *D sky130_fd_sc_hd__xnor2_1
*CAP
1 *231:D 0
2 *218:Y 0.000242053
3 *70:10 0.000242053
4 *70:10 *231:CLK 0.000111852
5 *42:10 *70:10 0
*RES
1 *218:Y *70:10 41.8321 
2 *70:10 *231:D 38 
*END

*D_NET *71 0.00298954
*CONN
*I *238:A I *D sky130_fd_sc_hd__clkbuf_16
*I *237:A I *D sky130_fd_sc_hd__clkbuf_16
*I *236:X O *D sky130_fd_sc_hd__clkbuf_16
*CAP
1 *238:A 0
2 *237:A 0
3 *236:X 0
4 *71:29 0.000512881
5 *71:14 0.000526725
6 *71:4 0.00103961
7 *71:14 *79:18 0
8 *71:14 *90:41 0.000276784
9 *71:29 *189:A 5.79559e-05
10 *71:29 *224:A 8.76309e-05
11 *71:29 *235:CLK 1.07201e-06
12 *71:29 *79:18 2.40392e-05
13 *71:29 *90:29 6.22448e-06
14 *71:29 *90:39 0.000141215
15 *196:C1 *71:14 1.14154e-05
16 *197:B *71:14 0.00019975
17 *212:B *71:29 6.65573e-05
18 *32:27 *71:14 0
19 *46:10 *71:14 0
20 *46:21 *71:14 0
21 *66:8 *71:29 3.76854e-05
*RES
1 *236:X *71:4 23 
2 *71:4 *71:14 39.425 
3 *71:14 *237:A 23 
4 *71:4 *71:29 38.0371 
5 *71:29 *238:A 23 
*END

*D_NET *72 0.00497678
*CONN
*I *233:CLK I *D sky130_fd_sc_hd__dfrtp_1
*I *232:CLK I *D sky130_fd_sc_hd__dfrtp_1
*I *230:CLK I *D sky130_fd_sc_hd__dfrtp_1
*I *231:CLK I *D sky130_fd_sc_hd__dfrtp_1
*I *237:X O *D sky130_fd_sc_hd__clkbuf_16
*CAP
1 *233:CLK 0.000314685
2 *232:CLK 0
3 *230:CLK 0.000711197
4 *231:CLK 0.00037973
5 *237:X 5.45426e-05
6 *72:27 0.000876066
7 *72:10 0.000699199
8 *72:8 0.000523828
9 *230:CLK *79:18 5.56279e-05
10 *233:CLK *79:40 8.15957e-05
11 *233:CLK *86:8 5.21024e-05
12 *195:A *72:10 8.15327e-05
13 *195:A *72:27 5.67058e-05
14 *195:B *231:CLK 2.31116e-05
15 *195:B *72:10 3.70187e-05
16 *217:A *230:CLK 0.000113241
17 *217:A *72:27 9.8834e-05
18 *217:B *231:CLK 0
19 *230:RESET_B *230:CLK 4.84129e-06
20 *232:RESET_B *230:CLK 3.3154e-05
21 *11:13 *233:CLK 0
22 *16:17 *233:CLK 0
23 *31:10 *233:CLK 0.000200422
24 *31:10 *72:10 5.65491e-05
25 *42:10 *231:CLK 0
26 *42:35 *230:CLK 0.00013843
27 *61:10 *231:CLK 0.00014411
28 *61:10 *72:27 0.000128401
29 *70:10 *231:CLK 0.000111852
*RES
1 *237:X *72:8 38.6214 
2 *72:8 *72:10 4.01857 
3 *72:10 *231:CLK 45.6229 
4 *72:10 *72:27 18.9564 
5 *72:27 *230:CLK 34.6621 
6 *72:27 *232:CLK 23 
7 *72:8 *233:CLK 45.54 
*END

*D_NET *73 0.00462531
*CONN
*I *234:CLK I *D sky130_fd_sc_hd__dfrtp_1
*I *235:CLK I *D sky130_fd_sc_hd__dfrtp_1
*I *228:CLK I *D sky130_fd_sc_hd__dfrtp_1
*I *229:CLK I *D sky130_fd_sc_hd__dfrtp_1
*I *238:X O *D sky130_fd_sc_hd__clkbuf_16
*CAP
1 *234:CLK 0.000432814
2 *235:CLK 0.000446598
3 *228:CLK 0
4 *229:CLK 0.000293448
5 *238:X 0.000480759
6 *73:14 0.000404198
7 *73:10 0.000663852
8 *73:8 0.00102008
9 *229:CLK *90:29 0
10 *234:CLK *75:37 1.50365e-05
11 *234:CLK *88:14 1.12863e-05
12 *234:CLK *90:29 0
13 *234:CLK *90:89 0
14 *73:8 *189:A 0.000116554
15 *212:B *73:8 9.50411e-05
16 *220:A *229:CLK 1.23773e-05
17 *220:A *73:14 0
18 *235:D *235:CLK 1.39317e-05
19 *39:10 *229:CLK 0.000104275
20 *39:10 *234:CLK 8.66558e-05
21 *39:10 *73:10 0.000223034
22 *39:10 *73:14 0.000141869
23 *39:29 *229:CLK 6.24374e-05
24 *71:29 *235:CLK 1.07201e-06
*RES
1 *238:X *73:8 44.3386 
2 *73:8 *73:10 2.96214 
3 *73:10 *73:14 2.52714 
4 *73:14 *229:CLK 44.5457 
5 *73:14 *228:CLK 38 
6 *73:10 *235:CLK 43.7586 
7 *73:8 *234:CLK 45.25 
*END

*D_NET *74 0.00313598
*CONN
*I *219:A I *D sky130_fd_sc_hd__or2_1
*I *189:A I *D sky130_fd_sc_hd__nand2_1
*I *239:X O *D sky130_fd_sc_hd__clkbuf_1
*CAP
1 *219:A 0.000125463
2 *189:A 0.000112778
3 *239:X 6.52773e-05
4 *74:10 0.000817776
5 *74:8 0.000644813
6 *219:A *75:10 0
7 *219:A *75:31 3.62323e-05
8 *74:8 *90:14 0.00010018
9 *74:10 *76:10 0
10 *212:B *189:A 0.000306048
11 *28:10 *219:A 0.000154138
12 *28:10 *74:10 0.000166513
13 *39:10 *74:10 0
14 *39:29 *74:10 0
15 *62:8 *219:A 8.16356e-05
16 *62:8 *74:10 0.000314964
17 *67:10 *74:10 3.56537e-05
18 *68:8 *74:10 0
19 *71:29 *189:A 5.79559e-05
20 *73:8 *189:A 0.000116554
*RES
1 *239:X *74:8 39.0979 
2 *74:8 *74:10 13.1743 
3 *74:10 *189:A 41.48 
4 *74:10 *219:A 41.3143 
*END

*D_NET *75 0.00384581
*CONN
*I *219:B I *D sky130_fd_sc_hd__or2_1
*I *189:B I *D sky130_fd_sc_hd__nand2_1
*I *248:A I *D sky130_fd_sc_hd__buf_2
*I *228:Q O *D sky130_fd_sc_hd__dfrtp_1
*CAP
1 *219:B 0
2 *189:B 0
3 *248:A 0
4 *228:Q 0.000515346
5 *75:37 4.42031e-05
6 *75:31 0.000312897
7 *75:23 0.000362471
8 *75:14 0.00011787
9 *75:10 0.000539439
10 *75:10 *82:14 0.000454237
11 *75:14 *90:106 4.6595e-05
12 *75:23 *90:106 0.000359332
13 *75:37 *90:29 2.76611e-06
14 *75:37 *90:89 1.86973e-05
15 *212:B *75:31 0.000312567
16 *219:A *75:10 0
17 *219:A *75:31 3.62323e-05
18 *228:RESET_B *75:10 2.52027e-05
19 *234:CLK *75:37 1.50365e-05
20 *3:10 *75:10 0
21 *19:15 *75:14 9.84794e-05
22 *19:15 *75:23 0.000190672
23 *28:10 *75:31 0.000111852
24 *39:10 *75:31 0.000200288
25 *58:8 *75:10 8.16253e-05
26 *62:8 *75:10 0
*RES
1 *228:Q *75:10 48.4193 
2 *75:10 *75:14 16.0979 
3 *75:14 *248:A 23 
4 *75:14 *75:23 4.45357 
5 *75:23 *75:31 36.4421 
6 *75:31 *75:37 30.8493 
7 *75:37 *189:B 23 
8 *75:23 *219:B 23 
*END

*D_NET *76 0.00351735
*CONN
*I *249:A I *D sky130_fd_sc_hd__buf_2
*I *186:B I *D sky130_fd_sc_hd__nand2_1
*I *188:B I *D sky130_fd_sc_hd__nor2_1
*I *229:Q O *D sky130_fd_sc_hd__dfrtp_1
*CAP
1 *249:A 0
2 *186:B 0
3 *188:B 0
4 *229:Q 0.000395879
5 *76:30 0.000120801
6 *76:22 0.00112169
7 *76:14 0.00107361
8 *76:12 7.27151e-05
9 *76:10 0.000395879
10 *76:10 *90:119 0.000111852
11 *76:30 *188:A 5.56356e-05
12 *76:30 *250:A 5.56356e-05
13 acc[1] *76:22 0
14 acc[2] *76:30 8.52482e-05
15 *12:13 *76:10 6.7177e-06
16 *13:13 *76:10 0
17 *14:13 *76:30 2.16891e-05
18 *74:10 *76:10 0
*RES
1 *229:Q *76:10 44.1729 
2 *76:10 *76:12 15 
3 *76:12 *76:14 1.09786 
4 *76:14 *76:22 43.0086 
5 *76:22 *76:30 32.5271 
6 *76:30 *188:B 23 
7 *76:14 *186:B 23 
8 *76:12 *249:A 23 
*END

*D_NET *77 0.00503094
*CONN
*I *184:B I *D sky130_fd_sc_hd__nand2_1
*I *185:B I *D sky130_fd_sc_hd__nor2_1
*I *183:B I *D sky130_fd_sc_hd__and2_1
*I *250:A I *D sky130_fd_sc_hd__buf_2
*I *230:Q O *D sky130_fd_sc_hd__dfrtp_1
*CAP
1 *184:B 0
2 *185:B 0
3 *183:B 0
4 *250:A 0.000241904
5 *230:Q 0.000596569
6 *77:38 0.000539424
7 *77:30 0.000626147
8 *77:18 0.000462127
9 *77:10 0.000730069
10 *250:A *188:A 0.000177733
11 *77:10 *90:29 0.000139647
12 *77:18 *84:10 0.000198304
13 *77:30 *84:10 5.67058e-05
14 *77:30 *84:16 0
15 *77:38 *183:A 0.000203546
16 *77:38 *84:16 6.07611e-06
17 *77:38 *90:49 0
18 acc[2] *250:A 7.62307e-05
19 acc[3] *77:38 7.53384e-06
20 *216:B *77:18 0.000215942
21 *216:B *77:30 5.67058e-05
22 *220:A *77:10 0.000196652
23 *230:RESET_B *77:10 4.0413e-05
24 *241:A *77:18 5.56279e-05
25 *33:10 *250:A 1.08287e-05
26 *34:10 *77:30 0
27 *35:6 *77:30 3.71369e-05
28 *35:12 *77:38 0
29 *41:8 *77:30 8.62783e-05
30 *41:46 *77:30 5.94125e-05
31 *60:8 *77:30 0
32 *69:10 *77:10 8.62876e-05
33 *69:10 *77:18 6.80031e-05
34 *76:30 *250:A 5.56356e-05
*RES
1 *230:Q *77:10 47.1971 
2 *77:10 *77:18 19.5986 
3 *77:18 *77:30 35.4271 
4 *77:30 *77:38 36.3179 
5 *77:38 *250:A 28.7534 
6 *77:38 *183:B 23 
7 *77:30 *185:B 23 
8 *77:18 *184:B 23 
*END

*D_NET *78 0.0024877
*CONN
*I *182:B I *D sky130_fd_sc_hd__nor2_1
*I *251:A I *D sky130_fd_sc_hd__buf_2
*I *192:B I *D sky130_fd_sc_hd__nand2_1
*I *231:Q O *D sky130_fd_sc_hd__dfrtp_1
*CAP
1 *182:B 6.39543e-05
2 *251:A 0.000194766
3 *192:B 2.70235e-05
4 *231:Q 0.000300506
5 *78:12 0.000372534
6 *78:8 0.000515205
7 *182:B *182:A 0.000138727
8 *251:A *183:A 1.32314e-05
9 *251:A *85:8 0.000182832
10 *78:12 *182:A 0.000238454
11 *78:12 *192:A 6.16531e-05
12 acc[3] *251:A 1.94812e-05
13 *242:A *251:A 0.000161965
14 *42:10 *182:B 6.07929e-05
15 *42:10 *192:B 1.57571e-05
16 *42:10 *251:A 6.17437e-06
17 *42:10 *78:12 0.000114645
*RES
1 *231:Q *78:8 41.48 
2 *78:8 *78:12 19.0186 
3 *78:12 *192:B 23.6214 
4 *78:12 *251:A 28.4271 
5 *78:8 *182:B 39.9057 
*END

*D_NET *79 0.0047016
*CONN
*I *179:B I *D sky130_fd_sc_hd__nand2_1
*I *180:B I *D sky130_fd_sc_hd__or2_1
*I *252:A I *D sky130_fd_sc_hd__buf_2
*I *232:Q O *D sky130_fd_sc_hd__dfrtp_1
*CAP
1 *179:B 0
2 *180:B 0
3 *252:A 0
4 *232:Q 0.000497105
5 *79:40 0.000236956
6 *79:32 0.000620599
7 *79:26 0.000733175
8 *79:18 0.000846637
9 *79:26 *90:39 0.000529883
10 *79:32 *179:A 0.000275894
11 *79:32 *86:12 5.50106e-05
12 *79:40 *86:8 1.14452e-05
13 *181:A *79:32 5.14746e-06
14 *212:A *79:26 5.56279e-05
15 *230:CLK *79:18 5.56279e-05
16 *232:RESET_B *79:18 2.64616e-05
17 *233:CLK *79:40 8.15957e-05
18 *7:14 *79:40 3.7122e-06
19 *26:10 *79:26 1.39317e-05
20 *29:19 *79:26 8.71094e-05
21 *29:19 *79:32 3.58084e-06
22 *34:10 *79:18 8.68742e-05
23 *34:31 *79:18 0.000107232
24 *41:46 *79:18 1.22803e-05
25 *42:41 *79:18 0.000209199
26 *46:10 *79:18 7.58711e-05
27 *46:21 *79:18 4.66036e-05
28 *71:14 *79:18 0
29 *71:29 *79:18 2.40392e-05
*RES
1 *232:Q *79:18 48.3986 
2 *79:18 *79:26 24.8393 
3 *79:26 *79:32 6.25571 
4 *79:32 *79:40 34.7643 
5 *79:40 *252:A 23 
6 *79:32 *180:B 23 
7 *79:26 *179:B 23 
*END

*D_NET *80 0.00289207
*CONN
*I *199:B I *D sky130_fd_sc_hd__nand2_1
*I *253:A I *D sky130_fd_sc_hd__buf_2
*I *198:B I *D sky130_fd_sc_hd__nor2_1
*I *233:Q O *D sky130_fd_sc_hd__dfrtp_1
*CAP
1 *199:B 0.0002342
2 *253:A 0.000316118
3 *198:B 2.95011e-05
4 *233:Q 0.000315073
5 *80:21 0.000646082
6 *80:10 0.000440338
7 *199:B *87:12 1.42006e-05
8 *200:A_N *253:A 2.40491e-05
9 *200:B *253:A 2.55893e-05
10 *201:B *198:B 5.50106e-05
11 *206:A1 *253:A 0
12 *29:19 *80:10 0.000114083
13 *29:38 *253:A 5.3304e-05
14 *29:38 *80:10 3.70187e-05
15 *29:38 *80:21 0.000155068
16 *47:10 *199:B 1.58805e-05
17 *47:10 *80:10 1.83564e-05
18 *47:10 *80:21 9.03979e-05
19 *48:8 *199:B 5.56306e-05
20 *49:10 *253:A 0.000252171
21 *55:10 *80:10 0
*RES
1 *233:Q *80:10 42.9093 
2 *80:10 *198:B 38.6214 
3 *80:10 *80:21 2.61 
4 *80:21 *253:A 45.8093 
5 *80:21 *199:B 41.9357 
*END

*D_NET *81 0.00344983
*CONN
*I *254:A I *D sky130_fd_sc_hd__buf_2
*I *204:B I *D sky130_fd_sc_hd__nand2_1
*I *203:B I *D sky130_fd_sc_hd__nor2_1
*I *234:Q O *D sky130_fd_sc_hd__dfrtp_1
*CAP
1 *254:A 2.34823e-05
2 *204:B 0.000290135
3 *203:B 0.000150525
4 *234:Q 0.000120776
5 *81:22 0.000992949
6 *81:12 0.000672066
7 *81:8 0.000217069
8 *81:8 *90:106 0
9 acc[6] *81:8 0.00012758
10 *205:A_N *81:22 0.000201747
11 *207:A *81:22 0.000227931
12 *208:A2 *204:B 1.16734e-05
13 *209:B1 *203:B 0.000100069
14 *51:17 *203:B 3.67885e-05
15 *51:17 *204:B 2.23884e-05
16 *52:27 *81:22 9.78729e-06
17 *52:44 *203:B 8.16356e-05
18 *52:44 *204:B 5.30518e-05
19 *54:14 *81:22 1.24376e-05
20 *65:10 *81:22 9.77405e-05
*RES
1 *234:Q *81:8 40.61 
2 *81:8 *81:12 16.5743 
3 *81:12 *81:22 26.2893 
4 *81:22 *203:B 41.3557 
5 *81:22 *204:B 42.7643 
6 *81:12 *254:A 23.4971 
*END

*D_NET *82 0.0016016
*CONN
*I *211:B I *D sky130_fd_sc_hd__xnor2_1
*I *255:A I *D sky130_fd_sc_hd__buf_2
*I *235:Q O *D sky130_fd_sc_hd__dfrtp_1
*CAP
1 *211:B 0
2 *255:A 0
3 *235:Q 0.00015447
4 *82:14 0.000195665
5 *82:6 0.000350135
6 *82:14 *211:A 0.000382555
7 *82:14 *90:106 6.17437e-06
8 acc[7] *82:14 3.35885e-06
9 *3:10 *82:14 0
10 *19:15 *82:14 5.50106e-05
11 *75:10 *82:14 0.000454237
*RES
1 *235:Q *82:6 25.5271 
2 *82:6 *82:14 36.7529 
3 *82:14 *255:A 23 
4 *82:6 *211:B 23 
*END

*D_NET *83 0.0020432
*CONN
*I *186:A I *D sky130_fd_sc_hd__nand2_1
*I *188:A I *D sky130_fd_sc_hd__nor2_1
*I *240:X O *D sky130_fd_sc_hd__clkbuf_1
*CAP
1 *186:A 0.000233558
2 *188:A 0.000306319
3 *240:X 0
4 *83:4 0.000539877
5 *188:A *183:A 0
6 *187:A *186:A 4.00259e-06
7 *213:B1 *188:A 2.18926e-05
8 *250:A *188:A 0.000177733
9 *13:13 *186:A 0.000187129
10 *33:10 *188:A 4.93812e-05
11 *36:6 *186:A 7.42621e-05
12 *36:16 *186:A 7.42621e-05
13 *37:10 *188:A 0.000116768
14 *38:10 *188:A 0.000202378
15 *76:30 *188:A 5.56356e-05
*RES
1 *240:X *83:4 23 
2 *83:4 *188:A 30.7057 
3 *83:4 *186:A 28.9036 
*END

*D_NET *84 0.00227209
*CONN
*I *184:A I *D sky130_fd_sc_hd__nand2_1
*I *185:A I *D sky130_fd_sc_hd__nor2_1
*I *183:A I *D sky130_fd_sc_hd__and2_1
*I *241:X O *D sky130_fd_sc_hd__buf_1
*CAP
1 *184:A 0
2 *185:A 0
3 *183:A 0.000275214
4 *241:X 0.000101426
5 *84:16 0.000473537
6 *84:10 0.000299749
7 *183:A *90:49 0
8 *84:16 *90:49 3.54915e-05
9 acc[3] *183:A 2.25419e-05
10 *188:A *183:A 0
11 *216:B *84:10 1.72202e-05
12 *216:B *84:16 0.000223698
13 *251:A *183:A 1.32314e-05
14 *41:8 *84:16 2.54046e-05
15 *41:46 *84:16 1.34354e-05
16 *42:35 *84:10 0.00010018
17 *42:35 *84:16 0.000111943
18 *69:10 *84:10 9.43908e-05
19 *77:18 *84:10 0.000198304
20 *77:30 *84:10 5.67058e-05
21 *77:30 *84:16 0
22 *77:38 *183:A 0.000203546
23 *77:38 *84:16 6.07611e-06
*RES
1 *241:X *84:10 26.9979 
2 *84:10 *84:16 20.1371 
3 *84:16 *183:A 44.1107 
4 *84:16 *185:A 38 
5 *84:10 *184:A 23 
*END

*D_NET *85 0.00147483
*CONN
*I *182:A I *D sky130_fd_sc_hd__nor2_1
*I *192:A I *D sky130_fd_sc_hd__nand2_1
*I *242:X O *D sky130_fd_sc_hd__clkbuf_1
*CAP
1 *182:A 0.000197892
2 *192:A 3.17996e-05
3 *242:X 0.000101682
4 *85:8 0.000331374
5 *182:A *90:49 2.91145e-05
6 *192:A *90:49 1.86869e-05
7 *182:B *182:A 0.000138727
8 *251:A *85:8 0.000182832
9 *24:8 *182:A 8.76088e-05
10 *41:16 *182:A 0
11 *42:35 *182:A 5.50106e-05
12 *78:12 *182:A 0.000238454
13 *78:12 *192:A 6.16531e-05
*RES
1 *242:X *85:8 40.0507 
2 *85:8 *192:A 38.8493 
3 *85:8 *182:A 43.6964 
*END

*D_NET *86 0.000948119
*CONN
*I *179:A I *D sky130_fd_sc_hd__nand2_1
*I *180:A I *D sky130_fd_sc_hd__or2_1
*I *243:X O *D sky130_fd_sc_hd__clkbuf_1
*CAP
1 *179:A 0.000102958
2 *180:A 0
3 *243:X 9.68564e-05
4 *86:12 0.000130212
5 *86:8 0.000124111
6 *181:A *179:A 2.87553e-05
7 *181:B *179:A 5.50049e-05
8 *233:CLK *86:8 5.21024e-05
9 *31:10 *179:A 1.5769e-05
10 *79:32 *179:A 0.000275894
11 *79:32 *86:12 5.50106e-05
12 *79:40 *86:8 1.14452e-05
*RES
1 *243:X *86:8 39.5536 
2 *86:8 *86:12 15.6214 
3 *86:12 *180:A 23 
4 *86:12 *179:A 26.5007 
*END

*D_NET *87 0.00120155
*CONN
*I *199:A I *D sky130_fd_sc_hd__nand2_1
*I *198:A I *D sky130_fd_sc_hd__nor2_1
*I *244:X O *D sky130_fd_sc_hd__clkbuf_1
*CAP
1 *199:A 4.01155e-05
2 *198:A 0
3 *244:X 5.45426e-05
4 *87:12 0.000236915
5 *87:6 0.000331573
6 *199:B *87:12 1.42006e-05
7 *46:51 *87:12 0.000191157
8 *47:10 *87:12 0.000218952
9 *48:8 *87:12 0.000114092
10 *55:10 *87:12 0
*RES
1 *244:X *87:6 23.6214 
2 *87:6 *87:12 35.075 
3 *87:12 *198:A 23 
4 *87:6 *199:A 23.8493 
*END

*D_NET *88 0.0012064
*CONN
*I *204:A I *D sky130_fd_sc_hd__nand2_1
*I *203:A I *D sky130_fd_sc_hd__nor2_1
*I *245:X O *D sky130_fd_sc_hd__clkbuf_1
*CAP
1 *204:A 6.97337e-05
2 *203:A 0
3 *245:X 0
4 *88:14 0.000282506
5 *88:4 0.000352239
6 *205:B *88:14 4.29558e-05
7 *208:A2 *88:14 3.62936e-05
8 *234:CLK *88:14 1.12863e-05
9 *51:17 *88:14 0.000213463
10 *52:10 *204:A 5.79559e-05
11 *52:10 *88:14 0.000102295
12 *65:10 *88:14 3.76761e-05
*RES
1 *245:X *88:4 23 
2 *88:4 *88:14 35.8414 
3 *88:14 *203:A 23 
4 *88:4 *204:A 24.4707 
*END

*D_NET *89 0.002337
*CONN
*I *211:A I *D sky130_fd_sc_hd__xnor2_1
*I *246:X O *D sky130_fd_sc_hd__clkbuf_1
*CAP
1 *211:A 0.000140627
2 *246:X 0.000309638
3 *89:8 0.000450265
4 acc[7] *211:A 4.6318e-06
5 *3:10 *211:A 0.00012076
6 *3:10 *89:8 9.41704e-05
7 *19:15 *89:8 0.000695006
8 *28:10 *89:8 0.000139346
9 *82:14 *211:A 0.000382555
*RES
1 *246:X *89:8 45.7679 
2 *89:8 *211:A 43.075 
*END

*D_NET *90 0.0131137
*CONN
*I *178:A I *D sky130_fd_sc_hd__inv_2
*I *226:A I *D sky130_fd_sc_hd__inv_2
*I *227:A I *D sky130_fd_sc_hd__inv_2
*I *224:A I *D sky130_fd_sc_hd__inv_2
*I *225:A I *D sky130_fd_sc_hd__inv_2
*I *222:A I *D sky130_fd_sc_hd__inv_2
*I *223:A I *D sky130_fd_sc_hd__inv_2
*I *221:A I *D sky130_fd_sc_hd__inv_2
*I *247:X O *D sky130_fd_sc_hd__clkbuf_4
*CAP
1 *178:A 0
2 *226:A 0
3 *227:A 2.20546e-05
4 *224:A 1.89501e-05
5 *225:A 5.44183e-05
6 *222:A 0.000120145
7 *223:A 0
8 *221:A 4.27777e-05
9 *247:X 0
10 *90:119 0.000267679
11 *90:106 0.000660591
12 *90:89 0.00106963
13 *90:49 0.000710086
14 *90:41 0.00105292
15 *90:39 0.000788821
16 *90:31 0.000530661
17 *90:29 0.000902484
18 *90:14 0.00110645
19 *90:4 0.000815858
20 acc[6] *90:106 4.32584e-05
21 *182:A *90:49 2.91145e-05
22 *183:A *90:49 0
23 *192:A *90:49 1.86869e-05
24 *196:C1 *222:A 0.00010018
25 *212:A *90:39 2.31687e-05
26 *212:B *224:A 0.000100069
27 *212:B *90:39 0.000187968
28 *214:A *90:14 6.36209e-05
29 *214:B *90:14 5.50106e-05
30 *217:B *90:49 5.31385e-05
31 *229:CLK *90:29 0
32 *234:CLK *90:29 0
33 *234:CLK *90:89 0
34 *247:A *90:119 0.000152625
35 *12:13 *90:14 0.000187129
36 *12:13 *90:119 0.000254925
37 *14:13 *90:14 7.03766e-05
38 *19:15 *227:A 3.23857e-06
39 *19:15 *90:89 7.72342e-05
40 *19:15 *90:106 5.41801e-05
41 *21:8 *90:119 1.14452e-05
42 *24:8 *90:49 0.000171906
43 *25:8 *90:29 0.000499443
44 *27:8 *90:106 0.000199701
45 *32:27 *222:A 5.41385e-05
46 *32:27 *90:49 0
47 *36:16 *90:14 0.000273273
48 *36:25 *90:14 1.12349e-05
49 *41:16 *90:49 6.16531e-05
50 *41:46 *90:49 0
51 *44:10 *90:29 6.80934e-05
52 *46:21 *225:A 0
53 *46:21 *90:29 0
54 *46:21 *90:41 0
55 *46:21 *90:89 0
56 *46:34 *90:89 0
57 *63:10 *90:41 4.99925e-05
58 *63:10 *90:49 5.74005e-05
59 *66:8 *90:29 0.000114092
60 *69:10 *90:29 4.14013e-05
61 *71:14 *90:41 0.000276784
62 *71:29 *224:A 8.76309e-05
63 *71:29 *90:29 6.22448e-06
64 *71:29 *90:39 0.000141215
65 *74:8 *90:14 0.00010018
66 *75:14 *90:106 4.6595e-05
67 *75:23 *90:106 0.000359332
68 *75:37 *90:29 2.76611e-06
69 *75:37 *90:89 1.86973e-05
70 *76:10 *90:119 0.000111852
71 *77:10 *90:29 0.000139647
72 *77:38 *90:49 0
73 *79:26 *90:39 0.000529883
74 *81:8 *90:106 0
75 *82:14 *90:106 6.17437e-06
76 *84:16 *90:49 3.54915e-05
*RES
1 *247:X *90:4 23 
2 *90:4 *90:14 26.745 
3 *90:14 *221:A 38.6214 
4 *90:14 *90:29 12.18 
5 *90:29 *90:31 15 
6 *90:31 *90:39 24.715 
7 *90:39 *90:41 5.25107 
8 *90:41 *90:49 27.4804 
9 *90:49 *223:A 23 
10 *90:41 *222:A 40.5168 
11 *90:39 *225:A 38.8493 
12 *90:31 *224:A 24.0979 
13 *90:29 *90:89 22.1464 
14 *90:89 *227:A 23.4971 
15 *90:89 *90:106 42.3871 
16 *90:106 *226:A 23 
17 *90:4 *90:119 37.0014 
18 *90:119 *178:A 23 
*END
