*SPEF "ieee 1481-1999"
*DESIGN "cla32"
*DATE "12:02:29 Saturday September 19, 2026"
*VENDOR "The OpenROAD Project"
*PROGRAM "OpenROAD"
*VERSION "edf00dff99f6c40d67a30c0e22a8191c5d2ed9d6"
*DESIGN_FLOW "NAME_SCOPE LOCAL" "PIN_CAP NONE"
*DIVIDER /
*DELIMITER :
*BUS_DELIMITER []
*T_UNIT 1 NS
*C_UNIT 1 PF
*R_UNIT 1 OHM
*L_UNIT 1 HENRY

*NAME_MAP
*3 a[0]
*4 a[10]
*5 a[11]
*6 a[12]
*7 a[13]
*8 a[14]
*9 a[15]
*10 a[16]
*11 a[17]
*12 a[18]
*13 a[19]
*14 a[1]
*15 a[20]
*16 a[21]
*17 a[22]
*18 a[23]
*19 a[24]
*20 a[25]
*21 a[26]
*22 a[27]
*23 a[28]
*24 a[29]
*25 a[2]
*26 a[30]
*27 a[31]
*28 a[3]
*29 a[4]
*30 a[5]
*31 a[6]
*32 a[7]
*33 a[8]
*34 a[9]
*35 b[0]
*36 b[10]
*37 b[11]
*38 b[12]
*39 b[13]
*40 b[14]
*41 b[15]
*42 b[16]
*43 b[17]
*44 b[18]
*45 b[19]
*46 b[1]
*47 b[20]
*48 b[21]
*49 b[22]
*50 b[23]
*51 b[24]
*52 b[25]
*53 b[26]
*54 b[27]
*55 b[28]
*56 b[29]
*57 b[2]
*58 b[30]
*59 b[31]
*60 b[3]
*61 b[4]
*62 b[5]
*63 b[6]
*64 b[7]
*65 b[8]
*66 b[9]
*67 cin
*68 cout
*69 sum[0]
*70 sum[10]
*71 sum[11]
*72 sum[12]
*73 sum[13]
*74 sum[14]
*75 sum[15]
*76 sum[16]
*77 sum[17]
*78 sum[18]
*79 sum[19]
*80 sum[1]
*81 sum[20]
*82 sum[21]
*83 sum[22]
*84 sum[23]
*85 sum[24]
*86 sum[25]
*87 sum[26]
*88 sum[27]
*89 sum[28]
*90 sum[29]
*91 sum[2]
*92 sum[30]
*93 sum[31]
*94 sum[3]
*95 sum[4]
*96 sum[5]
*97 sum[6]
*98 sum[7]
*99 sum[8]
*100 sum[9]
*101 _000_
*102 _001_
*103 _002_
*104 _003_
*105 _004_
*106 _005_
*107 _006_
*108 _007_
*109 _008_
*110 _009_
*111 _010_
*112 _011_
*113 _012_
*114 _013_
*115 _014_
*116 _015_
*117 _016_
*118 _017_
*119 _018_
*120 _019_
*121 _020_
*122 _021_
*123 _022_
*124 _023_
*125 _024_
*126 _025_
*127 _026_
*128 _027_
*129 _028_
*130 _029_
*131 _030_
*132 _031_
*133 _032_
*134 _033_
*135 _034_
*136 _035_
*137 _036_
*138 _037_
*139 _038_
*140 _039_
*141 _040_
*142 _041_
*143 _042_
*144 _043_
*145 _044_
*146 _045_
*147 _046_
*148 _047_
*149 _048_
*150 _049_
*151 _050_
*152 _051_
*153 _052_
*154 _053_
*155 _054_
*156 _055_
*157 _056_
*158 _057_
*159 _058_
*160 _059_
*161 _060_
*162 _061_
*163 _062_
*164 _063_
*165 _064_
*166 _065_
*167 _066_
*168 _067_
*169 _068_
*170 _069_
*171 _070_
*172 _071_
*173 _072_
*174 _073_
*175 _074_
*176 _075_
*177 _076_
*178 _077_
*179 _078_
*180 _079_
*181 _080_
*182 _081_
*183 _082_
*184 _083_
*185 _084_
*186 _085_
*187 _086_
*188 _087_
*189 _088_
*190 _089_
*191 _090_
*192 _091_
*193 _092_
*194 _093_
*195 _094_
*196 _095_
*197 _096_
*198 _097_
*199 _098_
*200 _099_
*201 _100_
*202 _101_
*203 _102_
*204 _103_
*205 _104_
*206 _105_
*207 _106_
*208 _107_
*209 _108_
*210 _109_
*211 _110_
*212 _111_
*213 _112_
*214 _113_
*215 _114_
*216 _115_
*217 _116_
*218 _117_
*219 _118_
*220 _119_
*221 _120_
*222 _121_
*223 _122_
*224 _123_
*225 _124_
*226 _125_
*227 _126_
*228 _127_
*229 _128_
*230 _129_
*231 _130_
*232 _131_
*233 _132_
*234 _133_
*235 _134_
*236 _135_
*237 _136_
*238 _137_
*239 _138_
*240 _139_
*241 _140_
*242 _141_
*243 _142_
*244 _143_
*245 _144_
*246 _145_
*247 _146_
*248 _147_
*249 _148_
*250 _149_
*251 _150_
*252 _151_
*253 _152_
*254 _153_
*255 _154_
*256 _155_
*257 _156_
*258 _157_
*259 _158_
*260 _159_
*261 _160_
*262 _161_
*263 _162_
*264 _163_
*265 _164_
*266 _165_
*267 _166_
*268 _167_
*269 _168_
*270 _169_
*271 _170_
*272 _171_
*273 _172_
*274 _173_
*275 _174_
*276 _175_
*277 net1
*278 net10
*279 net11
*280 net12
*281 net13
*282 net14
*283 net15
*284 net16
*285 net17
*286 net18
*287 net19
*288 net2
*289 net20
*290 net21
*291 net22
*292 net23
*293 net24
*294 net25
*295 net26
*296 net27
*297 net28
*298 net29
*299 net3
*300 net30
*301 net31
*302 net32
*303 net33
*304 net34
*305 net35
*306 net36
*307 net37
*308 net38
*309 net39
*310 net4
*311 net40
*312 net41
*313 net42
*314 net43
*315 net44
*316 net45
*317 net46
*318 net47
*319 net48
*320 net49
*321 net5
*322 net50
*323 net51
*324 net52
*325 net53
*326 net54
*327 net55
*328 net56
*329 net57
*330 net58
*331 net59
*332 net6
*333 net60
*334 net61
*335 net62
*336 net63
*337 net64
*338 net65
*339 net66
*340 net67
*341 net68
*342 net69
*343 net7
*344 net70
*345 net71
*346 net72
*347 net73
*348 net74
*349 net75
*350 net76
*351 net77
*352 net78
*353 net79
*354 net8
*355 net80
*356 net81
*357 net82
*358 net83
*359 net84
*360 net85
*361 net86
*362 net87
*363 net88
*364 net89
*365 net9
*366 net90
*367 net91
*368 net92
*369 net93
*370 net94
*371 net95
*372 net96
*373 net97
*374 net98
*375 FILLER_0_104
*376 FILLER_0_113
*377 FILLER_0_118
*378 FILLER_0_125
*379 FILLER_0_132
*380 FILLER_0_27
*381 FILLER_0_29
*382 FILLER_0_35
*383 FILLER_0_41
*384 FILLER_0_49
*385 FILLER_0_55
*386 FILLER_0_57
*387 FILLER_0_63
*388 FILLER_0_72
*389 FILLER_0_76
*390 FILLER_0_85
*391 FILLER_0_91
*392 FILLER_0_98
*393 FILLER_10_101
*394 FILLER_10_123
*395 FILLER_10_131
*396 FILLER_10_15
*397 FILLER_10_21
*398 FILLER_10_29
*399 FILLER_10_41
*400 FILLER_10_53
*401 FILLER_10_6
*402 FILLER_10_65
*403 FILLER_10_77
*404 FILLER_10_83
*405 FILLER_10_85
*406 FILLER_10_97
*407 FILLER_11_101
*408 FILLER_11_110
*409 FILLER_11_113
*410 FILLER_11_12
*411 FILLER_11_143
*412 FILLER_11_24
*413 FILLER_11_3
*414 FILLER_11_36
*415 FILLER_11_48
*416 FILLER_11_57
*417 FILLER_11_69
*418 FILLER_11_81
*419 FILLER_11_93
*420 FILLER_12_109
*421 FILLER_12_119
*422 FILLER_12_127
*423 FILLER_12_21
*424 FILLER_12_27
*425 FILLER_12_29
*426 FILLER_12_41
*427 FILLER_12_53
*428 FILLER_12_65
*429 FILLER_12_77
*430 FILLER_12_83
*431 FILLER_12_85
*432 FILLER_12_9
*433 FILLER_12_97
*434 FILLER_13_101
*435 FILLER_13_109
*436 FILLER_13_113
*437 FILLER_13_125
*438 FILLER_13_129
*439 FILLER_13_133
*440 FILLER_13_141
*441 FILLER_13_3
*442 FILLER_13_31
*443 FILLER_13_43
*444 FILLER_13_55
*445 FILLER_13_57
*446 FILLER_13_69
*447 FILLER_13_81
*448 FILLER_13_93
*449 FILLER_14_105
*450 FILLER_14_126
*451 FILLER_14_139
*452 FILLER_14_14
*453 FILLER_14_24
*454 FILLER_14_29
*455 FILLER_14_41
*456 FILLER_14_53
*457 FILLER_14_6
*458 FILLER_14_65
*459 FILLER_14_77
*460 FILLER_14_83
*461 FILLER_14_85
*462 FILLER_14_97
*463 FILLER_15_100
*464 FILLER_15_113
*465 FILLER_15_125
*466 FILLER_15_13
*467 FILLER_15_137
*468 FILLER_15_25
*469 FILLER_15_35
*470 FILLER_15_47
*471 FILLER_15_57
*472 FILLER_15_70
*473 FILLER_15_82
*474 FILLER_15_94
*475 FILLER_16_111
*476 FILLER_16_131
*477 FILLER_16_139
*478 FILLER_16_17
*479 FILLER_16_25
*480 FILLER_16_29
*481 FILLER_16_41
*482 FILLER_16_49
*483 FILLER_16_54
*484 FILLER_16_66
*485 FILLER_16_7
*486 FILLER_16_78
*487 FILLER_16_85
*488 FILLER_16_91
*489 FILLER_17_102
*490 FILLER_17_113
*491 FILLER_17_120
*492 FILLER_17_128
*493 FILLER_17_138
*494 FILLER_17_14
*495 FILLER_17_26
*496 FILLER_17_34
*497 FILLER_17_43
*498 FILLER_17_47
*499 FILLER_17_55
*500 FILLER_17_57
*501 FILLER_17_63
*502 FILLER_17_72
*503 FILLER_17_87
*504 FILLER_17_94
*505 FILLER_18_109
*506 FILLER_18_121
*507 FILLER_18_135
*508 FILLER_18_139
*509 FILLER_18_141
*510 FILLER_18_18
*511 FILLER_18_26
*512 FILLER_18_29
*513 FILLER_18_33
*514 FILLER_18_45
*515 FILLER_18_53
*516 FILLER_18_6
*517 FILLER_18_63
*518 FILLER_18_75
*519 FILLER_18_82
*520 FILLER_18_85
*521 FILLER_18_97
*522 FILLER_19_10
*523 FILLER_19_100
*524 FILLER_19_126
*525 FILLER_19_130
*526 FILLER_19_137
*527 FILLER_19_21
*528 FILLER_19_36
*529 FILLER_19_55
*530 FILLER_19_57
*531 FILLER_19_65
*532 FILLER_19_72
*533 FILLER_19_80
*534 FILLER_19_88
*535 FILLER_1_106
*536 FILLER_1_119
*537 FILLER_1_12
*538 FILLER_1_136
*539 FILLER_1_3
*540 FILLER_1_41
*541 FILLER_1_50
*542 FILLER_1_57
*543 FILLER_1_76
*544 FILLER_1_84
*545 FILLER_20_107
*546 FILLER_20_115
*547 FILLER_20_127
*548 FILLER_20_15
*549 FILLER_20_27
*550 FILLER_20_29
*551 FILLER_20_38
*552 FILLER_20_50
*553 FILLER_20_62
*554 FILLER_20_76
*555 FILLER_20_82
*556 FILLER_20_92
*557 FILLER_20_96
*558 FILLER_21_110
*559 FILLER_21_113
*560 FILLER_21_120
*561 FILLER_21_140
*562 FILLER_21_20
*563 FILLER_21_26
*564 FILLER_21_3
*565 FILLER_21_31
*566 FILLER_21_43
*567 FILLER_21_47
*568 FILLER_21_55
*569 FILLER_21_65
*570 FILLER_21_77
*571 FILLER_21_89
*572 FILLER_21_98
*573 FILLER_22_107
*574 FILLER_22_126
*575 FILLER_22_134
*576 FILLER_22_15
*577 FILLER_22_20
*578 FILLER_22_27
*579 FILLER_22_36
*580 FILLER_22_49
*581 FILLER_22_58
*582 FILLER_22_70
*583 FILLER_22_85
*584 FILLER_22_91
*585 FILLER_23_104
*586 FILLER_23_113
*587 FILLER_23_125
*588 FILLER_23_14
*589 FILLER_23_22
*590 FILLER_23_29
*591 FILLER_23_42
*592 FILLER_23_48
*593 FILLER_23_55
*594 FILLER_23_57
*595 FILLER_23_63
*596 FILLER_23_70
*597 FILLER_23_76
*598 FILLER_23_83
*599 FILLER_23_85
*600 FILLER_23_9
*601 FILLER_23_91
*602 FILLER_23_97
*603 FILLER_2_103
*604 FILLER_2_111
*605 FILLER_2_131
*606 FILLER_2_22
*607 FILLER_2_29
*608 FILLER_2_34
*609 FILLER_2_43
*610 FILLER_2_62
*611 FILLER_2_74
*612 FILLER_2_81
*613 FILLER_2_85
*614 FILLER_2_9
*615 FILLER_3_100
*616 FILLER_3_12
*617 FILLER_3_120
*618 FILLER_3_132
*619 FILLER_3_140
*620 FILLER_3_24
*621 FILLER_3_3
*622 FILLER_3_36
*623 FILLER_3_48
*624 FILLER_3_57
*625 FILLER_3_63
*626 FILLER_3_73
*627 FILLER_3_81
*628 FILLER_3_88
*629 FILLER_4_109
*630 FILLER_4_121
*631 FILLER_4_128
*632 FILLER_4_136
*633 FILLER_4_16
*634 FILLER_4_38
*635 FILLER_4_50
*636 FILLER_4_56
*637 FILLER_4_6
*638 FILLER_4_64
*639 FILLER_4_73
*640 FILLER_4_77
*641 FILLER_4_83
*642 FILLER_4_85
*643 FILLER_4_97
*644 FILLER_5_10
*645 FILLER_5_103
*646 FILLER_5_110
*647 FILLER_5_124
*648 FILLER_5_134
*649 FILLER_5_143
*650 FILLER_5_21
*651 FILLER_5_29
*652 FILLER_5_41
*653 FILLER_5_54
*654 FILLER_5_57
*655 FILLER_5_69
*656 FILLER_5_77
*657 FILLER_5_99
*658 FILLER_6_101
*659 FILLER_6_12
*660 FILLER_6_122
*661 FILLER_6_129
*662 FILLER_6_141
*663 FILLER_6_24
*664 FILLER_6_3
*665 FILLER_6_36
*666 FILLER_6_40
*667 FILLER_6_48
*668 FILLER_6_60
*669 FILLER_6_72
*670 FILLER_6_85
*671 FILLER_6_93
*672 FILLER_7_10
*673 FILLER_7_105
*674 FILLER_7_111
*675 FILLER_7_113
*676 FILLER_7_125
*677 FILLER_7_137
*678 FILLER_7_22
*679 FILLER_7_3
*680 FILLER_7_34
*681 FILLER_7_46
*682 FILLER_7_54
*683 FILLER_7_57
*684 FILLER_7_69
*685 FILLER_7_81
*686 FILLER_7_93
*687 FILLER_8_109
*688 FILLER_8_118
*689 FILLER_8_130
*690 FILLER_8_136
*691 FILLER_8_27
*692 FILLER_8_29
*693 FILLER_8_3
*694 FILLER_8_46
*695 FILLER_8_58
*696 FILLER_8_70
*697 FILLER_8_82
*698 FILLER_8_85
*699 FILLER_8_97
*700 FILLER_9_106
*701 FILLER_9_113
*702 FILLER_9_117
*703 FILLER_9_18
*704 FILLER_9_30
*705 FILLER_9_38
*706 FILLER_9_50
*707 FILLER_9_57
*708 FILLER_9_6
*709 FILLER_9_69
*710 FILLER_9_81
*711 FILLER_9_93
*712 PHY_EDGE_ROW_0_Left_24
*713 PHY_EDGE_ROW_0_Right_0
*714 PHY_EDGE_ROW_10_Left_34
*715 PHY_EDGE_ROW_10_Right_10
*716 PHY_EDGE_ROW_11_Left_35
*717 PHY_EDGE_ROW_11_Right_11
*718 PHY_EDGE_ROW_12_Left_36
*719 PHY_EDGE_ROW_12_Right_12
*720 PHY_EDGE_ROW_13_Left_37
*721 PHY_EDGE_ROW_13_Right_13
*722 PHY_EDGE_ROW_14_Left_38
*723 PHY_EDGE_ROW_14_Right_14
*724 PHY_EDGE_ROW_15_Left_39
*725 PHY_EDGE_ROW_15_Right_15
*726 PHY_EDGE_ROW_16_Left_40
*727 PHY_EDGE_ROW_16_Right_16
*728 PHY_EDGE_ROW_17_Left_41
*729 PHY_EDGE_ROW_17_Right_17
*730 PHY_EDGE_ROW_18_Left_42
*731 PHY_EDGE_ROW_18_Right_18
*732 PHY_EDGE_ROW_19_Left_43
*733 PHY_EDGE_ROW_19_Right_19
*734 PHY_EDGE_ROW_1_Left_25
*735 PHY_EDGE_ROW_1_Right_1
*736 PHY_EDGE_ROW_20_Left_44
*737 PHY_EDGE_ROW_20_Right_20
*738 PHY_EDGE_ROW_21_Left_45
*739 PHY_EDGE_ROW_21_Right_21
*740 PHY_EDGE_ROW_22_Left_46
*741 PHY_EDGE_ROW_22_Right_22
*742 PHY_EDGE_ROW_23_Left_47
*743 PHY_EDGE_ROW_23_Right_23
*744 PHY_EDGE_ROW_2_Left_26
*745 PHY_EDGE_ROW_2_Right_2
*746 PHY_EDGE_ROW_3_Left_27
*747 PHY_EDGE_ROW_3_Right_3
*748 PHY_EDGE_ROW_4_Left_28
*749 PHY_EDGE_ROW_4_Right_4
*750 PHY_EDGE_ROW_5_Left_29
*751 PHY_EDGE_ROW_5_Right_5
*752 PHY_EDGE_ROW_6_Left_30
*753 PHY_EDGE_ROW_6_Right_6
*754 PHY_EDGE_ROW_7_Left_31
*755 PHY_EDGE_ROW_7_Right_7
*756 PHY_EDGE_ROW_8_Left_32
*757 PHY_EDGE_ROW_8_Right_8
*758 PHY_EDGE_ROW_9_Left_33
*759 PHY_EDGE_ROW_9_Right_9
*760 TAP_TAPCELL_ROW_0_48
*761 TAP_TAPCELL_ROW_0_49
*762 TAP_TAPCELL_ROW_0_50
*763 TAP_TAPCELL_ROW_0_51
*764 TAP_TAPCELL_ROW_0_52
*765 TAP_TAPCELL_ROW_10_75
*766 TAP_TAPCELL_ROW_10_76
*767 TAP_TAPCELL_ROW_10_77
*768 TAP_TAPCELL_ROW_11_78
*769 TAP_TAPCELL_ROW_11_79
*770 TAP_TAPCELL_ROW_12_80
*771 TAP_TAPCELL_ROW_12_81
*772 TAP_TAPCELL_ROW_12_82
*773 TAP_TAPCELL_ROW_13_83
*774 TAP_TAPCELL_ROW_13_84
*775 TAP_TAPCELL_ROW_14_85
*776 TAP_TAPCELL_ROW_14_86
*777 TAP_TAPCELL_ROW_14_87
*778 TAP_TAPCELL_ROW_15_88
*779 TAP_TAPCELL_ROW_15_89
*780 TAP_TAPCELL_ROW_16_90
*781 TAP_TAPCELL_ROW_16_91
*782 TAP_TAPCELL_ROW_16_92
*783 TAP_TAPCELL_ROW_17_93
*784 TAP_TAPCELL_ROW_17_94
*785 TAP_TAPCELL_ROW_18_95
*786 TAP_TAPCELL_ROW_18_96
*787 TAP_TAPCELL_ROW_18_97
*788 TAP_TAPCELL_ROW_19_98
*789 TAP_TAPCELL_ROW_19_99
*790 TAP_TAPCELL_ROW_1_53
*791 TAP_TAPCELL_ROW_1_54
*792 TAP_TAPCELL_ROW_20_100
*793 TAP_TAPCELL_ROW_20_101
*794 TAP_TAPCELL_ROW_20_102
*795 TAP_TAPCELL_ROW_21_103
*796 TAP_TAPCELL_ROW_21_104
*797 TAP_TAPCELL_ROW_22_105
*798 TAP_TAPCELL_ROW_22_106
*799 TAP_TAPCELL_ROW_22_107
*800 TAP_TAPCELL_ROW_23_108
*801 TAP_TAPCELL_ROW_23_109
*802 TAP_TAPCELL_ROW_23_110
*803 TAP_TAPCELL_ROW_23_111
*804 TAP_TAPCELL_ROW_23_112
*805 TAP_TAPCELL_ROW_2_55
*806 TAP_TAPCELL_ROW_2_56
*807 TAP_TAPCELL_ROW_2_57
*808 TAP_TAPCELL_ROW_3_58
*809 TAP_TAPCELL_ROW_3_59
*810 TAP_TAPCELL_ROW_4_60
*811 TAP_TAPCELL_ROW_4_61
*812 TAP_TAPCELL_ROW_4_62
*813 TAP_TAPCELL_ROW_5_63
*814 TAP_TAPCELL_ROW_5_64
*815 TAP_TAPCELL_ROW_6_65
*816 TAP_TAPCELL_ROW_6_66
*817 TAP_TAPCELL_ROW_6_67
*818 TAP_TAPCELL_ROW_7_68
*819 TAP_TAPCELL_ROW_7_69
*820 TAP_TAPCELL_ROW_8_70
*821 TAP_TAPCELL_ROW_8_71
*822 TAP_TAPCELL_ROW_8_72
*823 TAP_TAPCELL_ROW_9_73
*824 TAP_TAPCELL_ROW_9_74
*825 _176_
*826 _177_
*827 _178_
*828 _179_
*829 _180_
*830 _181_
*831 _182_
*832 _183_
*833 _184_
*834 _185_
*835 _186_
*836 _187_
*837 _188_
*838 _189_
*839 _190_
*840 _191_
*841 _192_
*842 _193_
*843 _194_
*844 _195_
*845 _196_
*846 _197_
*847 _198_
*848 _199_
*849 _200_
*850 _201_
*851 _202_
*852 _203_
*853 _204_
*854 _205_
*855 _206_
*856 _207_
*857 _208_
*858 _209_
*859 _210_
*860 _211_
*861 _212_
*862 _213_
*863 _214_
*864 _215_
*865 _216_
*866 _217_
*867 _218_
*868 _219_
*869 _220_
*870 _221_
*871 _222_
*872 _223_
*873 _224_
*874 _225_
*875 _226_
*876 _227_
*877 _228_
*878 _229_
*879 _230_
*880 _231_
*881 _232_
*882 _233_
*883 _234_
*884 _235_
*885 _236_
*886 _237_
*887 _238_
*888 _239_
*889 _240_
*890 _241_
*891 _242_
*892 _243_
*893 _244_
*894 _245_
*895 _246_
*896 _247_
*897 _248_
*898 _249_
*899 _250_
*900 _251_
*901 _252_
*902 _253_
*903 _254_
*904 _255_
*905 _256_
*906 _257_
*907 _258_
*908 _259_
*909 _260_
*910 _261_
*911 _262_
*912 _263_
*913 _264_
*914 _265_
*915 _266_
*916 _267_
*917 _268_
*918 _269_
*919 _270_
*920 _271_
*921 _272_
*922 _273_
*923 _274_
*924 _275_
*925 _276_
*926 _277_
*927 _278_
*928 _279_
*929 _280_
*930 _281_
*931 _282_
*932 _283_
*933 _284_
*934 _285_
*935 _286_
*936 _287_
*937 _288_
*938 _289_
*939 _290_
*940 _291_
*941 _292_
*942 _293_
*943 _294_
*944 _295_
*945 _296_
*946 _297_
*947 _298_
*948 _299_
*949 _300_
*950 _301_
*951 _302_
*952 _303_
*953 _304_
*954 _305_
*955 _306_
*956 _307_
*957 _308_
*958 _309_
*959 _310_
*960 _311_
*961 _312_
*962 _313_
*963 _314_
*964 _315_
*965 _316_
*966 _317_
*967 _318_
*968 _319_
*969 _320_
*970 _321_
*971 _322_
*972 _323_
*973 _324_
*974 _325_
*975 _326_
*976 _327_
*977 _328_
*978 _329_
*979 _330_
*980 _331_
*981 _332_
*982 _333_
*983 _334_
*984 _335_
*985 _336_
*986 _337_
*987 _338_
*988 _339_
*989 _340_
*990 _341_
*991 _342_
*992 _343_
*993 _344_
*994 _345_
*995 _346_
*996 _347_
*997 _348_
*998 _349_
*999 _350_
*1000 _351_
*1001 _352_
*1002 _353_
*1003 _354_
*1004 _355_
*1005 _356_
*1006 _357_
*1007 _358_
*1008 _359_
*1009 _360_
*1010 _361_
*1011 _362_
*1012 _363_
*1013 _364_
*1014 _365_
*1015 _366_
*1016 _367_
*1017 _368_
*1018 _369_
*1019 _370_
*1020 _371_
*1021 _372_
*1022 _373_
*1023 _374_
*1024 _375_
*1025 _376_
*1026 _377_
*1027 _378_
*1028 _379_
*1029 _380_
*1030 _381_
*1031 _382_
*1032 _383_
*1033 _384_
*1034 input1
*1035 input10
*1036 input11
*1037 input12
*1038 input13
*1039 input14
*1040 input15
*1041 input16
*1042 input17
*1043 input18
*1044 input19
*1045 input2
*1046 input20
*1047 input21
*1048 input22
*1049 input23
*1050 input24
*1051 input25
*1052 input26
*1053 input27
*1054 input28
*1055 input29
*1056 input3
*1057 input30
*1058 input31
*1059 input32
*1060 input33
*1061 input34
*1062 input35
*1063 input36
*1064 input37
*1065 input38
*1066 input39
*1067 input4
*1068 input40
*1069 input41
*1070 input42
*1071 input43
*1072 input44
*1073 input45
*1074 input46
*1075 input47
*1076 input48
*1077 input49
*1078 input5
*1079 input50
*1080 input51
*1081 input52
*1082 input53
*1083 input54
*1084 input55
*1085 input56
*1086 input57
*1087 input58
*1088 input59
*1089 input6
*1090 input60
*1091 input61
*1092 input62
*1093 input63
*1094 input64
*1095 input65
*1096 input7
*1097 input8
*1098 input9
*1099 output66
*1100 output67
*1101 output68
*1102 output69
*1103 output70
*1104 output71
*1105 output72
*1106 output73
*1107 output74
*1108 output75
*1109 output76
*1110 output77
*1111 output78
*1112 output79
*1113 output80
*1114 output81
*1115 output82
*1116 output83
*1117 output84
*1118 output85
*1119 output86
*1120 output87
*1121 output88
*1122 output89
*1123 output90
*1124 output91
*1125 output92
*1126 output93
*1127 output94
*1128 output95
*1129 output96
*1130 output97
*1131 output98

*PORTS
a[0] I
a[10] I
a[11] I
a[12] I
a[13] I
a[14] I
a[15] I
a[16] I
a[17] I
a[18] I
a[19] I
a[1] I
a[20] I
a[21] I
a[22] I
a[23] I
a[24] I
a[25] I
a[26] I
a[27] I
a[28] I
a[29] I
a[2] I
a[30] I
a[31] I
a[3] I
a[4] I
a[5] I
a[6] I
a[7] I
a[8] I
a[9] I
b[0] I
b[10] I
b[11] I
b[12] I
b[13] I
b[14] I
b[15] I
b[16] I
b[17] I
b[18] I
b[19] I
b[1] I
b[20] I
b[21] I
b[22] I
b[23] I
b[24] I
b[25] I
b[26] I
b[27] I
b[28] I
b[29] I
b[2] I
b[30] I
b[31] I
b[3] I
b[4] I
b[5] I
b[6] I
b[7] I
b[8] I
b[9] I
cin I
cout O
sum[0] O
sum[10] O
sum[11] O
sum[12] O
sum[13] O
sum[14] O
sum[15] O
sum[16] O
sum[17] O
sum[18] O
sum[19] O
sum[1] O
sum[20] O
sum[21] O
sum[22] O
sum[23] O
sum[24] O
sum[25] O
sum[26] O
sum[27] O
sum[28] O
sum[29] O
sum[2] O
sum[30] O
sum[31] O
sum[3] O
sum[4] O
sum[5] O
sum[6] O
sum[7] O
sum[8] O
sum[9] O

*D_NET *3 0.00157641
*CONN
*P a[0] I
*I *1034:A I *D sky130_fd_sc_hd__clkbuf_1
*CAP
1 a[0] 0.000474657
2 *1034:A 0.000474657
3 *1034:A sum[0] 0
4 *1034:A sum[2] 0.000276609
5 *1034:A *1095:A 0.000272978
6 *1034:A *292:10 3.03684e-05
7 *1034:A *338:14 4.71433e-05
*RES
1 a[0] *1034:A 14.565 
*END

*D_NET *4 0.000469441
*CONN
*P a[10] I
*I *1045:A I *D sky130_fd_sc_hd__clkbuf_1
*CAP
1 a[10] 0.000145463
2 *1045:A 0.000145463
3 *1045:A *890:A 0
4 *1045:A *1061:A 8.59685e-05
5 *1045:A *1094:A 9.25475e-05
*RES
1 a[10] *1045:A 4.90503 
*END

*D_NET *5 0.00107916
*CONN
*P a[11] I
*I *1056:A I *D sky130_fd_sc_hd__clkbuf_1
*CAP
1 a[11] 0.000354215
2 *1056:A 0.000354215
3 *1056:A sum[11] 0.000103415
4 *1056:A sum[12] 9.92338e-05
5 *1056:A sum[13] 0
6 *1056:A *907:A1 8.53113e-06
7 *1056:A *134:10 0.000139933
8 *1056:A *299:10 1.9615e-05
*RES
1 a[11] *1056:A 6.9231 
*END

*D_NET *6 0.00214758
*CONN
*P a[12] I
*I *1067:A I *D sky130_fd_sc_hd__clkbuf_1
*CAP
1 a[12] 0.00049488
2 *1067:A 0.00049488
3 *1067:A *898:B 0
4 *1067:A *1078:A 6.59989e-05
5 *1067:A *1089:A 0.000239639
6 *1067:A *1093:A 0.000801634
7 *1067:A *365:22 5.05437e-05
*RES
1 a[12] *1067:A 15.7702 
*END

*D_NET *7 0.00168103
*CONN
*P a[13] I
*I *1078:A I *D sky130_fd_sc_hd__buf_1
*CAP
1 a[13] 0.000623079
2 *1078:A 0.000623079
3 *1078:A sum[15] 0
4 *1078:A *1058:A 0.000141106
5 *1078:A *1065:A 0.000179739
6 *1078:A *1089:A 4.80285e-05
7 *1078:A *1093:A 0
8 *1067:A *1078:A 6.59989e-05
*RES
1 a[13] *1078:A 10.1325 
*END

*D_NET *8 0.0026087
*CONN
*P a[14] I
*I *1089:A I *D sky130_fd_sc_hd__clkbuf_1
*CAP
1 a[14] 0.000825034
2 *1089:A 0.000825034
3 *1089:A sum[15] 1.47347e-05
4 *1089:A *1058:A 5.05437e-05
5 *1089:A *1066:A 0.0001249
6 *1089:A *1098:A 4.82919e-05
7 *1089:A *308:12 3.00381e-05
8 *1089:A *309:12 4.60584e-05
9 *1089:A *332:12 0.000356395
10 *1067:A *1089:A 0.000239639
11 *1078:A *1089:A 4.80285e-05
*RES
1 a[14] *1089:A 20.97 
*END

*D_NET *9 0.000787594
*CONN
*P a[15] I
*I *1096:A I *D sky130_fd_sc_hd__clkbuf_1
*CAP
1 a[15] 0.000393797
2 *1096:A 0.000393797
3 *1096:A sum[17] 0
4 *1096:A *1066:A 0
5 *1096:A *1108:A 0
*RES
1 a[15] *1096:A 10.35 
*END

*D_NET *10 0.00291722
*CONN
*P a[16] I
*I *1097:A I *D sky130_fd_sc_hd__buf_1
*CAP
1 a[16] 0.000890055
2 *1097:A 0.000890055
3 *1097:A sum[19] 0
4 *1097:A sum[25] 8.35365e-05
5 *1097:A *964:A1 0
6 *1097:A *1039:A 0.000366014
7 *1097:A *1041:A 0.000328384
8 *1097:A *1073:A 4.82919e-05
9 *1097:A *1114:A 0.00014301
10 *1097:A *1117:A 0.000116165
11 *1097:A *219:8 2.30292e-05
12 *1097:A *284:16 2.86817e-05
*RES
1 a[16] *1097:A 26.62 
*END

*D_NET *11 0.000873567
*CONN
*P a[17] I
*I *1098:A I *D sky130_fd_sc_hd__buf_1
*CAP
1 a[17] 0.000296459
2 *1098:A 0.000296459
3 *1098:A sum[15] 0
4 *1098:A *1058:A 0
5 *1098:A *1093:A 0.000232357
6 *1098:A *1106:A 0
7 *1089:A *1098:A 4.82919e-05
*RES
1 a[17] *1098:A 10.35 
*END

*D_NET *12 0.00174093
*CONN
*P a[18] I
*I *1035:A I *D sky130_fd_sc_hd__clkbuf_1
*CAP
1 a[18] 0.000555593
2 *1035:A 0.000555593
3 *1035:A sum[24] 0.000300846
4 *1035:A sum[25] 8.61534e-05
5 *1035:A *1036:A 0.000119285
6 *1035:A *1117:A 4.0813e-05
7 *1035:A *279:16 8.26509e-05
8 *1035:A *358:26 0
*RES
1 a[18] *1035:A 15.075 
*END

*D_NET *13 0.000970344
*CONN
*P a[19] I
*I *1036:A I *D sky130_fd_sc_hd__buf_1
*CAP
1 a[19] 0.000396937
2 *1036:A 0.000396937
3 *1036:A sum[19] 0
4 *1036:A *1117:A 2.69203e-05
5 *1036:A *358:26 3.0264e-05
6 *1035:A *1036:A 0.000119285
*RES
1 a[19] *1036:A 10.8 
*END

*D_NET *14 0.0010626
*CONN
*P a[1] I
*I *1037:A I *D sky130_fd_sc_hd__clkbuf_1
*CAP
1 a[1] 0.000531302
2 *1037:A 0.000531302
3 *1037:A sum[8] 0
4 *1037:A *1072:A 0
5 *1037:A *1130:A 0
*RES
1 a[1] *1037:A 13.08 
*END

*D_NET *15 0.000627358
*CONN
*P a[20] I
*I *1038:A I *D sky130_fd_sc_hd__clkbuf_1
*CAP
1 a[20] 0.000192192
2 *1038:A 0.000192192
3 *1038:A sum[23] 8.28724e-05
4 *1038:A *966:B 0
5 *1038:A *1075:A 0.000107791
6 *1038:A *281:10 5.23093e-05
*RES
1 a[20] *1038:A 6.37677 
*END

*D_NET *16 0.00100642
*CONN
*P a[21] I
*I *1039:A I *D sky130_fd_sc_hd__buf_1
*CAP
1 a[21] 0.000317983
2 *1039:A 0.000317983
3 *1039:A sum[19] 0
4 *1039:A sum[22] 0
5 *1039:A *1114:A 4.43871e-06
6 *1097:A *1039:A 0.000366014
*RES
1 a[21] *1039:A 10.35 
*END

*D_NET *17 0.000926894
*CONN
*P a[22] I
*I *1040:A I *D sky130_fd_sc_hd__clkbuf_1
*CAP
1 a[22] 0.000410794
2 *1040:A 0.000410794
3 *1040:A *1073:A 3.45293e-05
4 *1040:A *1075:A 2.24901e-05
5 *1040:A *318:12 4.82863e-05
*RES
1 a[22] *1040:A 10.0754 
*END

*D_NET *18 0.00248601
*CONN
*P a[23] I
*I *1041:A I *D sky130_fd_sc_hd__clkbuf_1
*CAP
1 a[23] 0.000836682
2 *1041:A 0.000836682
3 *1041:A sum[19] 0
4 *1041:A sum[24] 0
5 *1041:A sum[25] 3.6993e-05
6 *1041:A *1073:A 0.000230935
7 *1041:A *1110:A 8.23457e-05
8 *1041:A *279:16 8.23457e-05
9 *1041:A *284:16 5.16418e-05
10 *1097:A *1041:A 0.000328384
*RES
1 a[23] *1041:A 10.2606 
*END

*D_NET *19 0.000871693
*CONN
*P a[24] I
*I *1042:A I *D sky130_fd_sc_hd__clkbuf_1
*CAP
1 a[24] 0.000265583
2 *1042:A 0.000265583
3 *1042:A *979:A 4.99619e-05
4 *1042:A *1076:A 4.66616e-05
5 *1042:A *1077:A 4.66616e-05
6 *1042:A *230:10 0.000164874
7 *1042:A *285:8 3.23663e-05
*RES
1 a[24] *1042:A 8.5287 
*END

*D_NET *20 0.000606639
*CONN
*P a[25] I
*I *1043:A I *D sky130_fd_sc_hd__clkbuf_1
*CAP
1 a[25] 0.00023036
2 *1043:A 0.00023036
3 *1043:A sum[27] 2.24901e-05
4 *1043:A *1079:A 8.28724e-05
5 *1043:A *226:12 0
6 *1043:A *286:10 4.05569e-05
*RES
1 a[25] *1043:A 6.37677 
*END

*D_NET *21 0.000902405
*CONN
*P a[26] I
*I *1044:A I *D sky130_fd_sc_hd__buf_1
*CAP
1 a[26] 0.000332404
2 *1044:A 0.000332404
3 *1044:A *1000:B 3.97211e-05
4 *1044:A *1030:A2 9.50342e-06
5 *1044:A *1046:A 3.14094e-05
6 *1044:A *1050:A 2.24901e-05
7 *1044:A *1051:A 0
8 *1044:A *1055:A 8.28317e-05
9 *1044:A *1081:A 0
10 *1044:A *294:21 5.16418e-05
*RES
1 a[26] *1044:A 5.9031 
*END

*D_NET *22 0.000807231
*CONN
*P a[27] I
*I *1046:A I *D sky130_fd_sc_hd__buf_1
*CAP
1 a[27] 0.000337504
2 *1046:A 0.000337504
3 *1046:A *1081:A 2.24901e-05
4 *1046:A *1086:A 3.00381e-05
5 *1046:A *324:12 4.82863e-05
6 *1044:A *1046:A 3.14094e-05
*RES
1 a[27] *1046:A 8.4843 
*END

*D_NET *23 0.00101576
*CONN
*P a[28] I
*I *1047:A I *D sky130_fd_sc_hd__buf_1
*CAP
1 a[28] 0.000492861
2 *1047:A 0.000492861
3 *1047:A sum[29] 0
4 *1047:A *1082:A 0
5 *1047:A *291:43 3.00381e-05
*RES
1 a[28] *1047:A 12.39 
*END

*D_NET *24 0.00129707
*CONN
*P a[29] I
*I *1048:A I *D sky130_fd_sc_hd__buf_1
*CAP
1 a[29] 0.000473109
2 *1048:A 0.000473109
3 *1048:A cout 0
4 *1048:A *1050:A 4.99619e-05
5 *1048:A *1086:A 0.000281073
6 *1048:A *291:20 5.4155e-06
7 *1048:A *293:6 1.4399e-05
*RES
1 a[29] *1048:A 13.53 
*END

*D_NET *25 0.00191924
*CONN
*P a[2] I
*I *1049:A I *D sky130_fd_sc_hd__clkbuf_1
*CAP
1 a[2] 0.000672905
2 *1049:A 0.000672905
3 *1049:A sum[2] 0.000128246
4 *1049:A sum[9] 0.000245943
5 *1049:A *1052:A 0.000186992
6 *1049:A *1060:A 0
7 *1049:A *1084:A 1.22505e-05
*RES
1 a[2] *1049:A 10.9956 
*END

*D_NET *26 0.000789418
*CONN
*P a[30] I
*I *1050:A I *D sky130_fd_sc_hd__buf_1
*CAP
1 a[30] 0.000344229
2 *1050:A 0.000344229
3 *1050:A *1051:A 2.85068e-05
4 *1044:A *1050:A 2.24901e-05
5 *1048:A *1050:A 4.99619e-05
*RES
1 a[30] *1050:A 8.6193 
*END

*D_NET *27 0.0016809
*CONN
*P a[31] I
*I *1051:A I *D sky130_fd_sc_hd__buf_1
*CAP
1 a[31] 0.000623077
2 *1051:A 0.000623077
3 *1051:A *1031:B1 3.89528e-05
4 *1051:A *1033:A2 4.9253e-06
5 *1051:A *1033:B1 1.26773e-05
6 *1051:A *1080:A 6.05593e-05
7 *1051:A *1086:A 0
8 *1051:A *294:8 0.000158066
9 *1051:A *329:25 0.00013106
10 *1044:A *1051:A 0
11 *1050:A *1051:A 2.85068e-05
*RES
1 a[31] *1051:A 13.6702 
*END

*D_NET *28 0.00212119
*CONN
*P a[3] I
*I *1052:A I *D sky130_fd_sc_hd__clkbuf_1
*CAP
1 a[3] 0.000574959
2 *1052:A 0.000574959
3 *1052:A sum[0] 0
4 *1052:A sum[9] 0
5 *1052:A *1084:A 0.000187452
6 *1052:A *1095:A 8.12126e-05
7 *1052:A *1100:A 0
8 *1052:A *1122:A 5.11148e-06
9 *1052:A *1131:A 0.000166221
10 *1052:A *103:12 6.02202e-05
11 *1052:A *105:10 2.75229e-05
12 *1052:A *277:12 0.000159964
13 *1052:A *302:10 4.9968e-05
14 *1052:A *327:8 4.66108e-05
15 *1049:A *1052:A 0.000186992
*RES
1 a[3] *1052:A 12.626 
*END

*D_NET *29 0.00052274
*CONN
*P a[4] I
*I *1053:A I *D sky130_fd_sc_hd__clkbuf_1
*CAP
1 a[4] 0.000170512
2 *1053:A 0.000170512
3 *1053:A sum[10] 9.50048e-05
4 *1053:A sum[4] 8.67122e-05
*RES
1 a[4] *1053:A 5.41503 
*END

*D_NET *30 0.00100816
*CONN
*P a[5] I
*I *1054:A I *D sky130_fd_sc_hd__clkbuf_1
*CAP
1 a[5] 0.000502255
2 *1054:A 0.000502255
3 *1054:A sum[5] 0
4 *1054:A *1090:A 0
5 *1054:A *333:12 3.64998e-06
*RES
1 a[5] *1054:A 12.39 
*END

*D_NET *31 0.00348523
*CONN
*P a[6] I
*I *1055:A I *D sky130_fd_sc_hd__buf_1
*CAP
1 a[6] 0.00117945
2 *1055:A 0.00117945
3 *1055:A cout 0.00039594
4 *1055:A *1000:B 6.48652e-05
5 *1055:A *1030:A2 8.34348e-05
6 *1055:A *1033:B1 5.92191e-05
7 *1055:A *1080:A 0
8 *1055:A *1083:A 0
9 *1055:A *1085:A 0
10 *1055:A *1086:A 9.92338e-05
11 *1055:A *1099:A 2.96383e-05
12 *1055:A *287:8 0.000140912
13 *1055:A *293:12 0.000137578
14 *1055:A *329:25 3.26822e-05
15 *1044:A *1055:A 8.28317e-05
*RES
1 a[6] *1055:A 23.2962 
*END

*D_NET *32 0.00059703
*CONN
*P a[7] I
*I *1057:A I *D sky130_fd_sc_hd__buf_1
*CAP
1 a[7] 0.000236848
2 *1057:A 0.000236848
3 *1057:A *1014:A_N 0
4 *1057:A *1077:A 2.24901e-05
5 *1057:A *1092:A 0.000100844
*RES
1 a[7] *1057:A 5.5189 
*END

*D_NET *33 0.00122826
*CONN
*P a[8] I
*I *1058:A I *D sky130_fd_sc_hd__buf_1
*CAP
1 a[8] 0.000413235
2 *1058:A 0.000413235
3 *1058:A sum[14] 9.3282e-05
4 *1058:A sum[15] 0.000116855
5 *1078:A *1058:A 0.000141106
6 *1089:A *1058:A 5.05437e-05
7 *1098:A *1058:A 0
*RES
1 a[8] *1058:A 7.17463 
*END

*D_NET *34 0.00131445
*CONN
*P a[9] I
*I *1059:A I *D sky130_fd_sc_hd__clkbuf_1
*CAP
1 a[9] 0.000389258
2 *1059:A 0.000389258
3 *1059:A sum[3] 0
4 *1059:A *830:B 0.000137199
5 *1059:A *1084:A 0.000153012
6 *1059:A *1087:A 8.59685e-05
7 *1059:A *1122:A 0.000149604
8 *1059:A *292:10 1.0145e-05
*RES
1 a[9] *1059:A 6.8429 
*END

*D_NET *35 0.00099519
*CONN
*P b[0] I
*I *1060:A I *D sky130_fd_sc_hd__clkbuf_1
*CAP
1 b[0] 0.000494829
2 *1060:A 0.000494829
3 *1060:A sum[1] 0
4 *1060:A sum[9] 0
5 *1060:A *835:A 5.53249e-06
6 *1049:A *1060:A 0
*RES
1 b[0] *1060:A 12.39 
*END

*D_NET *36 0.00068692
*CONN
*P b[10] I
*I *1061:A I *D sky130_fd_sc_hd__clkbuf_1
*CAP
1 b[10] 0.00018711
2 *1061:A 0.00018711
3 *1061:A sum[11] 9.50048e-05
4 *1061:A *871:B 0.000131726
5 *1045:A *1061:A 8.59685e-05
*RES
1 b[10] *1061:A 6.18003 
*END

*D_NET *37 0.000490303
*CONN
*P b[11] I
*I *1062:A I *D sky130_fd_sc_hd__clkbuf_1
*CAP
1 b[11] 0.000147002
2 *1062:A 0.000147002
3 *1062:A sum[14] 8.4907e-05
4 *1062:A *1064:A 9.20289e-05
5 *1062:A *1093:A 1.00941e-05
6 *1062:A *1105:A 9.26907e-06
*RES
1 b[11] *1062:A 4.90503 
*END

*D_NET *38 0.000599118
*CONN
*P b[12] I
*I *1063:A I *D sky130_fd_sc_hd__clkbuf_1
*CAP
1 b[12] 0.000162373
2 *1063:A 0.000162373
3 *1063:A sum[13] 9.25475e-05
4 *1063:A *1064:A 9.20289e-05
5 *1063:A *305:16 8.97963e-05
*RES
1 b[12] *1063:A 5.67003 
*END

*D_NET *39 0.00092432
*CONN
*P b[13] I
*I *1064:A I *D sky130_fd_sc_hd__buf_1
*CAP
1 b[13] 0.000283991
2 *1064:A 0.000283991
3 *1064:A sum[13] 0
4 *1064:A *310:10 8.7562e-05
5 *1064:A *336:28 8.47169e-05
6 *1062:A *1064:A 9.20289e-05
7 *1063:A *1064:A 9.20289e-05
*RES
1 b[13] *1064:A 6.6681 
*END

*D_NET *40 0.000882373
*CONN
*P b[14] I
*I *1065:A I *D sky130_fd_sc_hd__clkbuf_1
*CAP
1 b[14] 0.000351317
2 *1065:A 0.000351317
3 *1065:A sum[15] 0
4 *1065:A *1066:A 0
5 *1065:A *1106:A 0
6 *1078:A *1065:A 0.000179739
*RES
1 b[14] *1065:A 10.35 
*END

*D_NET *41 0.000950245
*CONN
*P b[15] I
*I *1066:A I *D sky130_fd_sc_hd__clkbuf_1
*CAP
1 b[15] 0.000412672
2 *1066:A 0.000412672
3 *1065:A *1066:A 0
4 *1089:A *1066:A 0.0001249
5 *1096:A *1066:A 0
*RES
1 b[15] *1066:A 11.04 
*END

*D_NET *42 0.000886843
*CONN
*P b[16] I
*I *1068:A I *D sky130_fd_sc_hd__clkbuf_1
*CAP
1 b[16] 0.000413294
2 *1068:A 0.000413294
3 *1068:A sum[7] 0
4 *1068:A *941:A 9.50342e-06
5 *1068:A *1070:A 0
6 *1068:A *199:14 5.0751e-05
*RES
1 b[16] *1068:A 11.04 
*END

*D_NET *43 0.000787594
*CONN
*P b[17] I
*I *1069:A I *D sky130_fd_sc_hd__clkbuf_1
*CAP
1 b[17] 0.000393797
2 *1069:A 0.000393797
3 *1069:A sum[17] 0
4 *1069:A sum[18] 0
5 *1069:A *1109:A 0
*RES
1 b[17] *1069:A 10.35 
*END

*D_NET *44 0.000790085
*CONN
*P b[18] I
*I *1070:A I *D sky130_fd_sc_hd__clkbuf_1
*CAP
1 b[18] 0.000384365
2 *1070:A 0.000384365
3 *1070:A sum[20] 0
4 *1070:A *924:A 1.83847e-05
5 *1070:A *941:B 2.97004e-06
6 *1070:A *1112:A 0
7 *1068:A *1070:A 0
*RES
1 b[18] *1070:A 10.35 
*END

*D_NET *45 0.000821123
*CONN
*P b[19] I
*I *1071:A I *D sky130_fd_sc_hd__clkbuf_1
*CAP
1 b[19] 0.000381338
2 *1071:A 0.000381338
3 *1071:A sum[20] 0
4 *1071:A sum[21] 0
5 *1071:A *278:12 2.75229e-05
6 *1071:A *279:16 3.09233e-05
*RES
1 b[19] *1071:A 10.35 
*END

*D_NET *46 0.000986593
*CONN
*P b[1] I
*I *1072:A I *D sky130_fd_sc_hd__clkbuf_1
*CAP
1 b[1] 0.000493296
2 *1072:A 0.000493296
3 *1072:A sum[5] 0
4 *1072:A *1127:A 0
5 *1037:A *1072:A 0
*RES
1 b[1] *1072:A 12.39 
*END

*D_NET *47 0.00257741
*CONN
*P b[20] I
*I *1073:A I *D sky130_fd_sc_hd__clkbuf_1
*CAP
1 b[20] 0.000889278
2 *1073:A 0.000889278
3 *1073:A sum[19] 5.8678e-05
4 *1073:A *968:B 7.58604e-05
5 *1073:A *1114:A 3.83194e-05
6 *1073:A *205:10 0
7 *1073:A *219:8 0.000193801
8 *1073:A *284:16 0.000118438
9 *1040:A *1073:A 3.45293e-05
10 *1041:A *1073:A 0.000230935
11 *1097:A *1073:A 4.82919e-05
*RES
1 b[20] *1073:A 10.8658 
*END

*D_NET *48 0.000859985
*CONN
*P b[21] I
*I *1074:A I *D sky130_fd_sc_hd__buf_1
*CAP
1 b[21] 0.000381701
2 *1074:A 0.000381701
3 *1074:A sum[21] 0
4 *1074:A sum[22] 0
5 *1074:A *1110:A 4.82919e-05
6 *1074:A *279:16 4.82919e-05
*RES
1 b[21] *1074:A 10.35 
*END

*D_NET *49 0.000586629
*CONN
*P b[22] I
*I *1075:A I *D sky130_fd_sc_hd__clkbuf_1
*CAP
1 b[22] 0.000228174
2 *1075:A 0.000228174
3 *1075:A *316:12 0
4 *1038:A *1075:A 0.000107791
5 *1040:A *1075:A 2.24901e-05
*RES
1 b[22] *1075:A 5.2639 
*END

*D_NET *50 0.00101385
*CONN
*P b[23] I
*I *1076:A I *D sky130_fd_sc_hd__clkbuf_1
*CAP
1 b[23] 0.000432532
2 *1076:A 0.000432532
3 *1076:A sum[23] 9.25411e-05
4 *1076:A *946:B 0
5 *1076:A *947:A 9.58678e-06
6 *1076:A *986:A 0
7 *1076:A *1077:A 0
8 *1076:A *1117:A 0
9 *1042:A *1076:A 4.66616e-05
*RES
1 b[23] *1076:A 5.8229 
*END

*D_NET *51 0.000648316
*CONN
*P b[24] I
*I *1077:A I *D sky130_fd_sc_hd__clkbuf_1
*CAP
1 b[24] 0.00026066
2 *1077:A 0.00026066
3 *1077:A *1014:A_N 0
4 *1077:A *320:8 5.78448e-05
5 *1042:A *1077:A 4.66616e-05
6 *1057:A *1077:A 2.24901e-05
7 *1076:A *1077:A 0
*RES
1 b[24] *1077:A 6.63177 
*END

*D_NET *52 0.000424174
*CONN
*P b[25] I
*I *1079:A I *D sky130_fd_sc_hd__clkbuf_1
*CAP
1 b[25] 0.000127988
2 *1079:A 0.000127988
3 *1079:A *977:B 8.19565e-06
4 *1079:A *1092:A 7.71293e-05
5 *1043:A *1079:A 8.28724e-05
*RES
1 b[25] *1079:A 4.84677 
*END

*D_NET *53 0.00238414
*CONN
*P b[26] I
*I *1080:A I *D sky130_fd_sc_hd__buf_1
*CAP
1 b[26] 0.000697787
2 *1080:A 0.000697787
3 *1080:A sum[31] 0
4 *1080:A *1002:A 4.9968e-05
5 *1080:A *1032:B 4.70256e-05
6 *1080:A *1033:A2 0
7 *1080:A *1083:A 9.31598e-05
8 *1080:A *1085:A 0.000222691
9 *1080:A *1124:A 0.000355194
10 *1080:A *328:14 0.00015997
11 *1051:A *1080:A 6.05593e-05
12 *1055:A *1080:A 0
*RES
1 b[26] *1080:A 12.409 
*END

*D_NET *54 0.000872089
*CONN
*P b[27] I
*I *1081:A I *D sky130_fd_sc_hd__buf_1
*CAP
1 b[27] 0.00031291
2 *1081:A 0.00031291
3 *1081:A *1000:B 0
4 *1081:A *1091:A 0.000107791
5 *1081:A *324:12 0.000115988
6 *1044:A *1081:A 0
7 *1046:A *1081:A 2.24901e-05
*RES
1 b[27] *1081:A 8.41677 
*END

*D_NET *55 0.00100872
*CONN
*P b[28] I
*I *1082:A I *D sky130_fd_sc_hd__buf_1
*CAP
1 b[28] 0.000504361
2 *1082:A 0.000504361
3 *1082:A sum[30] 0
4 *1082:A *1123:A 0
5 *1047:A *1082:A 0
*RES
1 b[28] *1082:A 12.495 
*END

*D_NET *56 0.0012521
*CONN
*P b[29] I
*I *1083:A I *D sky130_fd_sc_hd__buf_1
*CAP
1 b[29] 0.000512384
2 *1083:A 0.000512384
3 *1083:A sum[31] 0
4 *1083:A *1030:B1 0
5 *1083:A *248:10 1.47256e-05
6 *1083:A *291:20 8.49205e-05
7 *1083:A *328:10 3.45252e-05
8 *1055:A *1083:A 0
9 *1080:A *1083:A 9.31598e-05
*RES
1 b[29] *1083:A 13.395 
*END

*D_NET *57 0.00196852
*CONN
*P b[2] I
*I *1084:A I *D sky130_fd_sc_hd__clkbuf_1
*CAP
1 b[2] 0.000709091
2 *1084:A 0.000709091
3 *1084:A *833:A 0
4 *1084:A *835:A 0
5 *1084:A *835:B 0
6 *1084:A *1131:A 0.00019762
7 *1084:A *303:10 0
8 *1049:A *1084:A 1.22505e-05
9 *1052:A *1084:A 0.000187452
10 *1059:A *1084:A 0.000153012
*RES
1 b[2] *1084:A 9.85903 
*END

*D_NET *58 0.0027498
*CONN
*P b[30] I
*I *1085:A I *D sky130_fd_sc_hd__buf_1
*CAP
1 b[30] 0.00098302
2 *1085:A 0.00098302
3 *1085:A sum[28] 0.000180789
4 *1085:A sum[30] 0
5 *1085:A *1086:A 9.92338e-05
6 *1085:A *1120:A 5.53249e-06
7 *1085:A *291:20 0.000160314
8 *1085:A *326:16 2.87611e-05
9 *1085:A *328:10 8.64421e-05
10 *1055:A *1085:A 0
11 *1080:A *1085:A 0.000222691
*RES
1 b[30] *1085:A 13.1798 
*END

*D_NET *59 0.00298066
*CONN
*P b[31] I
*I *1086:A I *D sky130_fd_sc_hd__buf_1
*CAP
1 b[31] 0.00100287
2 *1086:A 0.00100287
3 *1086:A cout 0
4 *1086:A *1000:B 7.45446e-05
5 *1086:A *1030:A1 0.000140905
6 *1086:A *1030:A2 7.90356e-06
7 *1086:A *1031:B1 9.5433e-05
8 *1086:A *294:21 2.42236e-05
9 *1086:A *298:14 0.000122331
10 *1046:A *1086:A 3.00381e-05
11 *1048:A *1086:A 0.000281073
12 *1051:A *1086:A 0
13 *1055:A *1086:A 9.92338e-05
14 *1085:A *1086:A 9.92338e-05
*RES
1 b[31] *1086:A 22.3033 
*END

*D_NET *60 0.00055397
*CONN
*P b[3] I
*I *1087:A I *D sky130_fd_sc_hd__clkbuf_1
*CAP
1 b[3] 0.000180643
2 *1087:A 0.000180643
3 *1087:A sum[3] 9.50048e-05
4 *1087:A *830:B 0
5 *1087:A *1122:A 0
6 *1087:A *330:10 1.17114e-05
7 *1059:A *1087:A 8.59685e-05
*RES
1 b[3] *1087:A 5.67003 
*END

*D_NET *61 0.00066694
*CONN
*P b[4] I
*I *1088:A I *D sky130_fd_sc_hd__clkbuf_1
*CAP
1 b[4] 0.000238465
2 *1088:A 0.000238465
3 *1088:A sum[3] 9.50048e-05
4 *1088:A sum[4] 9.50048e-05
5 *1088:A *1125:A 0
6 *1088:A *101:14 0
*RES
1 b[4] *1088:A 6.69003 
*END

*D_NET *62 0.000986593
*CONN
*P b[5] I
*I *1090:A I *D sky130_fd_sc_hd__clkbuf_1
*CAP
1 b[5] 0.000493296
2 *1090:A 0.000493296
3 *1090:A sum[6] 0
4 *1090:A *1128:A 0
5 *1054:A *1090:A 0
*RES
1 b[5] *1090:A 12.39 
*END

*D_NET *63 0.000728625
*CONN
*P b[6] I
*I *1091:A I *D sky130_fd_sc_hd__buf_1
*CAP
1 b[6] 0.000257067
2 *1091:A 0.000257067
3 *1091:A sum[26] 2.24901e-05
4 *1091:A *323:16 7.46228e-05
5 *1091:A *323:22 9.58678e-06
6 *1081:A *1091:A 0.000107791
*RES
1 b[6] *1091:A 6.5389 
*END

*D_NET *64 0.000832822
*CONN
*P b[7] I
*I *1092:A I *D sky130_fd_sc_hd__buf_1
*CAP
1 b[7] 0.00031564
2 *1092:A 0.00031564
3 *1092:A *1012:D 0
4 *1092:A *1014:B 2.35678e-05
5 *1092:A *227:29 0
6 *1057:A *1092:A 0.000100844
7 *1079:A *1092:A 7.71293e-05
*RES
1 b[7] *1092:A 5.96137 
*END

*D_NET *65 0.00272708
*CONN
*P b[8] I
*I *1093:A I *D sky130_fd_sc_hd__buf_1
*CAP
1 b[8] 0.000810836
2 *1093:A 0.000810836
3 *1093:A sum[14] 6.16226e-06
4 *1093:A *1105:A 0
5 *1093:A *1106:A 0
6 *1093:A *305:16 5.51589e-05
7 *1093:A *310:10 0
8 *1093:A *365:22 0
9 *1062:A *1093:A 1.00941e-05
10 *1067:A *1093:A 0.000801634
11 *1078:A *1093:A 0
12 *1098:A *1093:A 0.000232357
*RES
1 b[8] *1093:A 20.6285 
*END

*D_NET *66 0.0006518
*CONN
*P b[9] I
*I *1094:A I *D sky130_fd_sc_hd__clkbuf_1
*CAP
1 b[9] 0.000233352
2 *1094:A 0.000233352
3 *1094:A sum[10] 9.25475e-05
4 *1094:A *890:A 0
5 *1045:A *1094:A 9.25475e-05
*RES
1 b[9] *1094:A 6.43503 
*END

*D_NET *67 0.00174436
*CONN
*P cin I
*I *1095:A I *D sky130_fd_sc_hd__buf_1
*CAP
1 cin 0.00054877
2 *1095:A 0.00054877
3 *1095:A sum[0] 0.000292625
4 *1095:A sum[9] 0
5 *1034:A *1095:A 0.000272978
6 *1052:A *1095:A 8.12126e-05
*RES
1 cin *1095:A 14.91 
*END

*D_NET *68 0.00123717
*CONN
*P cout O
*I *1099:X O *D sky130_fd_sc_hd__buf_2
*CAP
1 cout 0.000378153
2 *1099:X 0.000378153
3 cout *291:20 8.49205e-05
4 *1048:A cout 0
5 *1055:A cout 0.00039594
6 *1086:A cout 0
*RES
1 *1099:X cout 12.225 
*END

*D_NET *69 0.00237082
*CONN
*P sum[0] O
*I *1100:X O *D sky130_fd_sc_hd__buf_2
*CAP
1 sum[0] 0.000588911
2 *1100:X 0.000588911
3 sum[0] sum[2] 0.000867415
4 sum[0] *1100:A 2.44292e-05
5 sum[0] *292:10 8.53113e-06
6 *1034:A sum[0] 0
7 *1052:A sum[0] 0
8 *1095:A sum[0] 0.000292625
*RES
1 *1100:X sum[0] 15.9064 
*END

*D_NET *70 0.000564725
*CONN
*P sum[10] O
*I *1101:X O *D sky130_fd_sc_hd__buf_2
*CAP
1 sum[10] 0.000188586
2 *1101:X 0.000188586
3 sum[10] sum[4] 0
4 sum[10] *1101:A 0
5 *1053:A sum[10] 9.50048e-05
6 *1094:A sum[10] 9.25475e-05
*RES
1 *1101:X sum[10] 5.4733 
*END

*D_NET *71 0.000494378
*CONN
*P sum[11] O
*I *1102:X O *D sky130_fd_sc_hd__buf_2
*CAP
1 sum[11] 0.000147979
2 *1102:X 0.000147979
3 sum[11] *907:A1 0
4 *1056:A sum[11] 0.000103415
5 *1061:A sum[11] 9.50048e-05
*RES
1 *1102:X sum[11] 4.9633 
*END

*D_NET *72 0.000552487
*CONN
*P sum[12] O
*I *1103:X O *D sky130_fd_sc_hd__buf_2
*CAP
1 sum[12] 0.000160129
2 *1103:X 0.000160129
3 sum[12] sum[13] 9.26548e-05
4 sum[12] *305:16 1.92979e-05
5 sum[12] *336:28 2.10433e-05
6 *1056:A sum[12] 9.92338e-05
*RES
1 *1103:X sum[12] 4.9633 
*END

*D_NET *73 0.000816451
*CONN
*P sum[13] O
*I *1104:X O *D sky130_fd_sc_hd__buf_2
*CAP
1 sum[13] 0.000312543
2 *1104:X 0.000312543
3 sum[13] *301:20 0
4 sum[13] *336:28 6.16226e-06
5 sum[12] sum[13] 9.26548e-05
6 *1056:A sum[13] 0
7 *1063:A sum[13] 9.25475e-05
8 *1064:A sum[13] 0
*RES
1 *1104:X sum[13] 5.19637 
*END

*D_NET *74 0.000606986
*CONN
*P sum[14] O
*I *1105:X O *D sky130_fd_sc_hd__buf_2
*CAP
1 sum[14] 0.000201035
2 *1105:X 0.000201035
3 sum[14] *365:22 2.05641e-05
4 *1058:A sum[14] 9.3282e-05
5 *1062:A sum[14] 8.4907e-05
6 *1093:A sum[14] 6.16226e-06
*RES
1 *1105:X sum[14] 4.9633 
*END

*D_NET *75 0.000953799
*CONN
*P sum[15] O
*I *1106:X O *D sky130_fd_sc_hd__buf_2
*CAP
1 sum[15] 0.000411104
2 *1106:X 0.000411104
3 *1058:A sum[15] 0.000116855
4 *1065:A sum[15] 0
5 *1078:A sum[15] 0
6 *1089:A sum[15] 1.47347e-05
7 *1098:A sum[15] 0
*RES
1 *1106:X sum[15] 10.53 
*END

*D_NET *76 0.000876668
*CONN
*P sum[16] O
*I *1107:X O *D sky130_fd_sc_hd__buf_2
*CAP
1 sum[16] 0.000438334
2 *1107:X 0.000438334
3 sum[16] sum[18] 0
4 sum[16] sum[7] 0
*RES
1 *1107:X sum[16] 10.53 
*END

*D_NET *77 0.000873426
*CONN
*P sum[17] O
*I *1108:X O *D sky130_fd_sc_hd__buf_2
*CAP
1 sum[17] 0.000436713
2 *1108:X 0.000436713
3 *1069:A sum[17] 0
4 *1096:A sum[17] 0
*RES
1 *1108:X sum[17] 10.53 
*END

*D_NET *78 0.000876668
*CONN
*P sum[18] O
*I *1109:X O *D sky130_fd_sc_hd__buf_2
*CAP
1 sum[18] 0.000438334
2 *1109:X 0.000438334
3 sum[16] sum[18] 0
4 *1069:A sum[18] 0
*RES
1 *1109:X sum[18] 10.53 
*END

*D_NET *79 0.000916865
*CONN
*P sum[19] O
*I *1110:X O *D sky130_fd_sc_hd__buf_2
*CAP
1 sum[19] 0.000405788
2 *1110:X 0.000405788
3 sum[19] *279:16 4.66108e-05
4 *1036:A sum[19] 0
5 *1039:A sum[19] 0
6 *1041:A sum[19] 0
7 *1073:A sum[19] 5.8678e-05
8 *1097:A sum[19] 0
*RES
1 *1110:X sum[19] 10.395 
*END

*D_NET *80 0.00100965
*CONN
*P sum[1] O
*I *1111:X O *D sky130_fd_sc_hd__buf_2
*CAP
1 sum[1] 0.000504825
2 *1111:X 0.000504825
3 sum[1] sum[8] 0
4 *1060:A sum[1] 0
*RES
1 *1111:X sum[1] 12.57 
*END

*D_NET *81 0.000877461
*CONN
*P sum[20] O
*I *1112:X O *D sky130_fd_sc_hd__buf_2
*CAP
1 sum[20] 0.000424866
2 *1112:X 0.000424866
3 sum[20] *278:12 2.77283e-05
4 *1070:A sum[20] 0
5 *1071:A sum[20] 0
*RES
1 *1112:X sum[20] 10.53 
*END

*D_NET *82 0.000963954
*CONN
*P sum[21] O
*I *1113:X O *D sky130_fd_sc_hd__buf_2
*CAP
1 sum[21] 0.00040538
2 *1113:X 0.00040538
3 sum[21] *279:16 8.40269e-05
4 sum[21] *358:26 6.9167e-05
5 *1071:A sum[21] 0
6 *1074:A sum[21] 0
*RES
1 *1113:X sum[21] 10.74 
*END

*D_NET *83 0.000955787
*CONN
*P sum[22] O
*I *1114:X O *D sky130_fd_sc_hd__buf_2
*CAP
1 sum[22] 0.000416097
2 *1114:X 0.000416097
3 sum[22] *279:16 0.000123592
4 *1039:A sum[22] 0
5 *1074:A sum[22] 0
*RES
1 *1114:X sum[22] 10.53 
*END

*D_NET *84 0.000549823
*CONN
*P sum[23] O
*I *1115:X O *D sky130_fd_sc_hd__buf_2
*CAP
1 sum[23] 0.000171573
2 *1115:X 0.000171573
3 sum[23] *1115:A 3.12639e-05
4 *1038:A sum[23] 8.28724e-05
5 *1076:A sum[23] 9.25411e-05
*RES
1 *1115:X sum[23] 5.41503 
*END

*D_NET *85 0.00200455
*CONN
*P sum[24] O
*I *1116:X O *D sky130_fd_sc_hd__buf_2
*CAP
1 sum[24] 0.000553594
2 *1116:X 0.000553594
3 sum[24] sum[25] 0.00059652
4 *1035:A sum[24] 0.000300846
5 *1041:A sum[24] 0
*RES
1 *1116:X sum[24] 14.928 
*END

*D_NET *86 0.0017951
*CONN
*P sum[25] O
*I *1117:X O *D sky130_fd_sc_hd__buf_2
*CAP
1 sum[25] 0.000495949
2 *1117:X 0.000495949
3 sum[25] *358:26 0
4 sum[24] sum[25] 0.00059652
5 *1035:A sum[25] 8.61534e-05
6 *1041:A sum[25] 3.6993e-05
7 *1097:A sum[25] 8.35365e-05
*RES
1 *1117:X sum[25] 14.7404 
*END

*D_NET *87 0.000490103
*CONN
*P sum[26] O
*I *1118:X O *D sky130_fd_sc_hd__buf_2
*CAP
1 sum[26] 0.000167923
2 *1118:X 0.000167923
3 sum[26] sum[27] 0.000112901
4 sum[26] *323:22 1.88656e-05
5 *1091:A sum[26] 2.24901e-05
*RES
1 *1118:X sum[26] 4.90503 
*END

*D_NET *88 0.000566952
*CONN
*P sum[27] O
*I *1119:X O *D sky130_fd_sc_hd__buf_2
*CAP
1 sum[27] 0.000210987
2 *1119:X 0.000210987
3 sum[27] *1119:A 9.58678e-06
4 sum[26] sum[27] 0.000112901
5 *1043:A sum[27] 2.24901e-05
*RES
1 *1119:X sum[27] 5.06717 
*END

*D_NET *89 0.00121252
*CONN
*P sum[28] O
*I *1120:X O *D sky130_fd_sc_hd__buf_2
*CAP
1 sum[28] 0.000453813
2 *1120:X 0.000453813
3 sum[28] sum[30] 0
4 sum[28] sum[31] 0
5 sum[28] *291:20 0.000124105
6 *1085:A sum[28] 0.000180789
*RES
1 *1120:X sum[28] 12.57 
*END

*D_NET *90 0.000968416
*CONN
*P sum[29] O
*I *1121:X O *D sky130_fd_sc_hd__buf_2
*CAP
1 sum[29] 0.000484208
2 *1121:X 0.000484208
3 sum[29] sum[6] 0
4 *1047:A sum[29] 0
*RES
1 *1121:X sum[29] 12.225 
*END

*D_NET *91 0.00228685
*CONN
*P sum[2] O
*I *1122:X O *D sky130_fd_sc_hd__buf_2
*CAP
1 sum[2] 0.000476099
2 *1122:X 0.000476099
3 sum[2] *828:B 1.7386e-05
4 sum[2] *292:10 4.49939e-05
5 sum[0] sum[2] 0.000867415
6 *1034:A sum[2] 0.000276609
7 *1049:A sum[2] 0.000128246
*RES
1 *1122:X sum[2] 14.7681 
*END

*D_NET *92 0.00118182
*CONN
*P sum[30] O
*I *1123:X O *D sky130_fd_sc_hd__buf_2
*CAP
1 sum[30] 0.000528139
2 *1123:X 0.000528139
3 sum[30] *291:20 0.000125539
4 sum[28] sum[30] 0
5 *1082:A sum[30] 0
6 *1085:A sum[30] 0
*RES
1 *1123:X sum[30] 12.57 
*END

*D_NET *93 0.00103275
*CONN
*P sum[31] O
*I *1124:X O *D sky130_fd_sc_hd__buf_2
*CAP
1 sum[31] 0.000516373
2 *1124:X 0.000516373
3 sum[28] sum[31] 0
4 *1080:A sum[31] 0
5 *1083:A sum[31] 0
*RES
1 *1124:X sum[31] 12.57 
*END

*D_NET *94 0.000891942
*CONN
*P sum[3] O
*I *1125:X O *D sky130_fd_sc_hd__buf_2
*CAP
1 sum[3] 0.000319722
2 *1125:X 0.000319722
3 sum[3] sum[4] 0
4 sum[3] *101:14 6.24871e-05
5 *1059:A sum[3] 0
6 *1087:A sum[3] 9.50048e-05
7 *1088:A sum[3] 9.50048e-05
*RES
1 *1125:X sum[3] 5.70637 
*END

*D_NET *95 0.000505451
*CONN
*P sum[4] O
*I *1126:X O *D sky130_fd_sc_hd__buf_2
*CAP
1 sum[4] 0.000161867
2 *1126:X 0.000161867
3 sum[10] sum[4] 0
4 sum[3] sum[4] 0
5 *1053:A sum[4] 8.67122e-05
6 *1088:A sum[4] 9.50048e-05
*RES
1 *1126:X sum[4] 4.9633 
*END

*D_NET *96 0.00100642
*CONN
*P sum[5] O
*I *1127:X O *D sky130_fd_sc_hd__buf_2
*CAP
1 sum[5] 0.000503211
2 *1127:X 0.000503211
3 *1054:A sum[5] 0
4 *1072:A sum[5] 0
*RES
1 *1127:X sum[5] 12.57 
*END

*D_NET *97 0.000968416
*CONN
*P sum[6] O
*I *1128:X O *D sky130_fd_sc_hd__buf_2
*CAP
1 sum[6] 0.000484208
2 *1128:X 0.000484208
3 sum[29] sum[6] 0
4 *1090:A sum[6] 0
*RES
1 *1128:X sum[6] 12.225 
*END

*D_NET *98 0.000873426
*CONN
*P sum[7] O
*I *1129:X O *D sky130_fd_sc_hd__buf_2
*CAP
1 sum[7] 0.000436713
2 *1129:X 0.000436713
3 sum[16] sum[7] 0
4 *1068:A sum[7] 0
*RES
1 *1129:X sum[7] 10.53 
*END

*D_NET *99 0.00110063
*CONN
*P sum[8] O
*I *1130:X O *D sky130_fd_sc_hd__buf_2
*CAP
1 sum[8] 0.000550317
2 *1130:X 0.000550317
3 sum[1] sum[8] 0
4 *1037:A sum[8] 0
*RES
1 *1130:X sum[8] 12.57 
*END

*D_NET *100 0.00120075
*CONN
*P sum[9] O
*I *1131:X O *D sky130_fd_sc_hd__buf_2
*CAP
1 sum[9] 0.000452605
2 *1131:X 0.000452605
3 sum[9] *1131:A 2.75145e-05
4 sum[9] *292:10 2.20832e-05
5 *1049:A sum[9] 0.000245943
6 *1052:A sum[9] 0
7 *1060:A sum[9] 0
8 *1095:A sum[9] 0
*RES
1 *1131:X sum[9] 12.57 
*END

*D_NET *101 0.00277125
*CONN
*I *827:B I *D sky130_fd_sc_hd__and2b_1
*I *854:B1 I *D sky130_fd_sc_hd__o21ai_1
*I *856:A1 I *D sky130_fd_sc_hd__a21o_1
*I *826:Y O *D sky130_fd_sc_hd__nand2_1
*CAP
1 *827:B 2.08101e-05
2 *854:B1 0
3 *856:A1 4.68086e-05
4 *826:Y 0.000437583
5 *101:26 0.000503089
6 *101:14 0.000914674
7 *856:A1 *856:A2 4.99619e-05
8 *856:A1 *856:B1 2.84447e-05
9 *856:A1 *276:25 0
10 *101:14 *826:B 0.000198945
11 *101:14 *841:A 4.11678e-06
12 *101:14 *1122:A 4.43871e-06
13 *101:14 *1125:A 0.000291365
14 *101:14 *103:12 1.23244e-05
15 *101:14 *330:10 0
16 *101:26 *854:A2 8.65905e-05
17 *101:26 *856:A2 4.60584e-05
18 *101:26 *856:B1 1.12578e-05
19 *101:26 *127:12 0
20 *101:26 *276:25 5.22918e-05
21 sum[3] *101:14 6.24871e-05
22 *1088:A *101:14 0
*RES
1 *826:Y *101:14 13.19 
2 *101:14 *101:26 10.18 
3 *101:26 *856:A1 2.755 
4 *101:26 *854:B1 1.6 
5 *101:14 *827:B 1.96 
*END

*D_NET *102 0.000348977
*CONN
*I *841:A I *D sky130_fd_sc_hd__xnor2_1
*I *827:X O *D sky130_fd_sc_hd__and2b_1
*CAP
1 *841:A 7.94698e-05
2 *827:X 7.94698e-05
3 *841:A *841:B 0.000118513
4 *841:A *302:10 6.74079e-05
5 *101:14 *841:A 4.11678e-06
*RES
1 *827:X *841:A 9.03 
*END

*D_NET *103 0.00323833
*CONN
*I *854:A2 I *D sky130_fd_sc_hd__o21ai_1
*I *829:A I *D sky130_fd_sc_hd__inv_2
*I *840:B1 I *D sky130_fd_sc_hd__o21a_1
*I *828:Y O *D sky130_fd_sc_hd__nand2_1
*CAP
1 *854:A2 0.000213815
2 *829:A 0.000101747
3 *840:B1 0
4 *828:Y 0.000388533
5 *103:21 0.000486926
6 *103:12 0.000559898
7 *829:A *840:A1 4.66108e-05
8 *829:A *856:B1 3.06704e-05
9 *829:A *276:25 7.83325e-05
10 *854:A2 *827:A_N 1.1561e-05
11 *854:A2 *840:A1 1.88904e-05
12 *854:A2 *105:12 1.88904e-05
13 *854:A2 *276:10 2.15594e-05
14 *854:A2 *276:25 8.82557e-05
15 *854:A2 *331:12 3.09233e-05
16 *103:12 *828:B 0.000161529
17 *103:12 *840:A2 7.36562e-05
18 *103:12 *1100:A 2.19562e-06
19 *103:12 *1122:A 0.000291609
20 *103:12 *1125:A 8.89751e-05
21 *103:12 *295:10 0.000138551
22 *103:12 *302:10 2.76194e-05
23 *103:12 *338:14 5.83121e-06
24 *103:21 *840:A1 0.000145515
25 *103:21 *331:12 4.7101e-05
26 *1052:A *103:12 6.02202e-05
27 *101:14 *103:12 1.23244e-05
28 *101:26 *854:A2 8.65905e-05
*RES
1 *828:Y *103:12 13.58 
2 *103:12 *840:B1 1.6 
3 *103:12 *103:21 2.88 
4 *103:21 *829:A 3.445 
5 *103:21 *854:A2 8.9 
*END

*D_NET *104 0.000200456
*CONN
*I *831:A I *D sky130_fd_sc_hd__nor2_1
*I *829:Y O *D sky130_fd_sc_hd__inv_2
*CAP
1 *831:A 6.78482e-05
2 *829:Y 6.78482e-05
3 *831:A *105:12 6.47594e-05
*RES
1 *829:Y *831:A 8.58 
*END

*D_NET *105 0.00220433
*CONN
*I *831:B I *D sky130_fd_sc_hd__nor2_1
*I *840:A1 I *D sky130_fd_sc_hd__o21a_1
*I *856:A2 I *D sky130_fd_sc_hd__a21o_1
*I *830:Y O *D sky130_fd_sc_hd__nor2_1
*CAP
1 *831:B 0
2 *840:A1 5.97264e-05
3 *856:A2 0.000175217
4 *830:Y 0.000385968
5 *105:12 0.000305099
6 *105:10 0.000456122
7 *840:A1 *276:25 0.000122331
8 *840:A1 *331:12 3.83194e-05
9 *856:A2 *856:B1 0.000124895
10 *105:10 *1131:A 0
11 *105:10 *327:8 8.45369e-05
12 *105:12 *1131:A 0
13 *105:12 *276:10 3.39069e-05
14 *829:A *840:A1 4.66108e-05
15 *831:A *105:12 6.47594e-05
16 *854:A2 *840:A1 1.88904e-05
17 *854:A2 *105:12 1.88904e-05
18 *856:A1 *856:A2 4.99619e-05
19 *1052:A *105:10 2.75229e-05
20 *101:26 *856:A2 4.60584e-05
21 *103:21 *840:A1 0.000145515
*RES
1 *830:Y *105:10 9.39 
2 *105:10 *105:12 1.7625 
3 *105:12 *856:A2 6.8025 
4 *105:12 *840:A1 5.6625 
5 *105:10 *831:B 3.6 
*END

*D_NET *106 0.000476984
*CONN
*I *842:A I *D sky130_fd_sc_hd__xnor2_1
*I *831:Y O *D sky130_fd_sc_hd__nor2_1
*CAP
1 *842:A 9.46419e-05
2 *831:Y 9.46419e-05
3 *842:A *840:A2 0.000199434
4 *842:A *1122:A 8.8266e-05
5 *842:A *114:8 0
*RES
1 *831:Y *842:A 5.84 
*END

*D_NET *107 0.00196391
*CONN
*I *838:A I *D sky130_fd_sc_hd__nor2_1
*I *839:B1 I *D sky130_fd_sc_hd__a21oi_1
*I *855:C1 I *D sky130_fd_sc_hd__a211oi_1
*I *832:X O *D sky130_fd_sc_hd__and2_1
*CAP
1 *838:A 9.03888e-05
2 *839:B1 0.00013751
3 *855:C1 1.89342e-05
4 *832:X 0.000118445
5 *107:10 0.000288944
6 *107:6 0.000341334
7 *838:A *843:B 7.40446e-05
8 *838:A *1111:A 0.00012657
9 *838:A *111:16 2.01885e-05
10 *838:A *113:6 8.65961e-05
11 *839:B1 *839:A1 1.62814e-05
12 *839:B1 *855:A2 0.000117609
13 *839:B1 *114:8 7.00889e-06
14 *855:C1 *855:B1 9.50342e-06
15 *855:C1 *111:29 2.42236e-05
16 *855:C1 *113:19 2.78732e-05
17 *107:6 *832:B 2.75145e-05
18 *107:6 *843:A 1.4578e-06
19 *107:6 *843:B 4.82863e-05
20 *107:6 *111:16 2.08246e-05
21 *107:10 *111:29 0.000172964
22 *107:10 *113:19 0.000187409
23 *107:10 *280:10 0
*RES
1 *832:X *107:6 3.43 
2 *107:6 *107:10 6.185 
3 *107:10 *855:C1 4.215 
4 *107:10 *839:B1 6.15 
5 *107:6 *838:A 4.045 
*END

*D_NET *108 0.000672518
*CONN
*I *835:A I *D sky130_fd_sc_hd__nand2_1
*I *836:B1_N I *D sky130_fd_sc_hd__a21bo_1
*I *833:Y O *D sky130_fd_sc_hd__nand2_1
*CAP
1 *835:A 0.000146369
2 *836:B1_N 3.38648e-05
3 *833:Y 4.86472e-05
4 *108:8 0.000228881
5 *835:A *833:A 0
6 *835:A *833:B 2.97004e-06
7 *835:A *835:B 1.34361e-05
8 *835:A *844:B 0.000117832
9 *835:A *1111:A 0
10 *835:A *303:10 0
11 *836:B1_N *836:A1 4.82919e-05
12 *108:8 *833:B 2.66935e-05
13 *1060:A *835:A 5.53249e-06
14 *1084:A *835:A 0
*RES
1 *833:Y *108:8 4.47 
2 *108:8 *836:B1_N 4.05 
3 *108:8 *835:A 6.51 
*END

*D_NET *109 0.000742586
*CONN
*I *835:B I *D sky130_fd_sc_hd__nand2_1
*I *836:A2 I *D sky130_fd_sc_hd__a21bo_1
*I *834:X O *D sky130_fd_sc_hd__or2_1
*CAP
1 *835:B 7.9881e-05
2 *836:A2 0.000167162
3 *834:X 0
4 *109:4 0.000247043
5 *835:B *844:B 7.4027e-05
6 *835:B *303:10 4.05358e-05
7 *836:A2 *836:A1 6.05513e-05
8 *836:A2 *844:B 4.82919e-05
9 *836:A2 *1111:A 1.16578e-05
10 *835:A *835:B 1.34361e-05
11 *1084:A *835:B 0
*RES
1 *834:X *109:4 1.6 
2 *109:4 *836:A2 4.495 
3 *109:4 *835:B 7.34 
*END

*D_NET *110 0.000824226
*CONN
*I *844:B I *D sky130_fd_sc_hd__xnor2_1
*I *835:Y O *D sky130_fd_sc_hd__nand2_1
*CAP
1 *844:B 0.000158659
2 *835:Y 0.000158659
3 *844:B *836:A1 0.000251454
4 *844:B *303:10 1.53032e-05
5 *835:A *844:B 0.000117832
6 *835:B *844:B 7.4027e-05
7 *836:A2 *844:B 4.82919e-05
*RES
1 *835:Y *844:B 11.445 
*END

*D_NET *111 0.00198602
*CONN
*I *855:A1 I *D sky130_fd_sc_hd__a211oi_1
*I *839:A1 I *D sky130_fd_sc_hd__a21oi_1
*I *843:A I *D sky130_fd_sc_hd__xor2_1
*I *836:X O *D sky130_fd_sc_hd__a21bo_1
*CAP
1 *855:A1 0
2 *839:A1 0.000180784
3 *843:A 6.19291e-06
4 *836:X 0.000299039
5 *111:29 0.000348545
6 *111:16 0.000472993
7 *839:A1 *855:A2 6.67109e-05
8 *111:16 *843:B 0.000122555
9 *111:16 *1111:A 8.87196e-05
10 *111:16 *113:6 4.08514e-05
11 *111:29 *837:B 8.97486e-05
12 *111:29 *855:B1 9.50342e-06
13 *111:29 *865:B 0
14 *111:29 *280:10 4.43871e-06
15 *838:A *111:16 2.01885e-05
16 *839:B1 *839:A1 1.62814e-05
17 *855:C1 *111:29 2.42236e-05
18 *107:6 *843:A 1.4578e-06
19 *107:6 *111:16 2.08246e-05
20 *107:10 *111:29 0.000172964
*RES
1 *836:X *111:16 7.33 
2 *111:16 *843:A 1.73125 
3 *111:16 *111:29 8.185 
4 *111:29 *839:A1 4.045 
5 *111:29 *855:A1 1.6 
*END

*D_NET *112 0.000803523
*CONN
*I *838:B I *D sky130_fd_sc_hd__nor2_1
*I *837:Y O *D sky130_fd_sc_hd__nor2_1
*CAP
1 *838:B 0.000344516
2 *837:Y 0.000344516
3 *838:B *1130:A 0
4 *838:B *113:19 0.000114492
*RES
1 *837:Y *838:B 11.445 
*END

*D_NET *113 0.00167956
*CONN
*I *855:A2 I *D sky130_fd_sc_hd__a211oi_1
*I *839:A2 I *D sky130_fd_sc_hd__a21oi_1
*I *843:B I *D sky130_fd_sc_hd__xor2_1
*I *838:Y O *D sky130_fd_sc_hd__nor2_1
*CAP
1 *855:A2 0.000133521
2 *839:A2 0
3 *843:B 2.46287e-05
4 *838:Y 1.91257e-05
5 *113:19 0.000352811
6 *113:6 0.000263044
7 *113:19 *1130:A 0
8 *838:A *843:B 7.40446e-05
9 *838:A *113:6 8.65961e-05
10 *838:B *113:19 0.000114492
11 *839:A1 *855:A2 6.67109e-05
12 *839:B1 *855:A2 0.000117609
13 *855:C1 *113:19 2.78732e-05
14 *107:6 *843:B 4.82863e-05
15 *107:10 *113:19 0.000187409
16 *111:16 *843:B 0.000122555
17 *111:16 *113:6 4.08514e-05
*RES
1 *838:Y *113:6 2.395 
2 *113:6 *843:B 2.74 
3 *113:6 *113:19 8.44 
4 *113:19 *839:A2 1.6 
5 *113:19 *855:A2 4.495 
*END

*D_NET *114 0.0019757
*CONN
*I *842:B I *D sky130_fd_sc_hd__xnor2_1
*I *840:A2 I *D sky130_fd_sc_hd__o21a_1
*I *839:Y O *D sky130_fd_sc_hd__a21oi_1
*CAP
1 *842:B 0
2 *840:A2 0.000345044
3 *839:Y 0.000327119
4 *114:8 0.000672162
5 *840:A2 *1122:A 9.79872e-05
6 *840:A2 *276:10 0.000118081
7 *840:A2 *302:10 0.00013521
8 *839:B1 *114:8 7.00889e-06
9 *842:A *840:A2 0.000199434
10 *842:A *114:8 0
11 *103:12 *840:A2 7.36562e-05
*RES
1 *839:Y *114:8 6.205 
2 *114:8 *840:A2 12.785 
3 *114:8 *842:B 1.6 
*END

*D_NET *115 0.00077694
*CONN
*I *841:B I *D sky130_fd_sc_hd__xnor2_1
*I *840:X O *D sky130_fd_sc_hd__o21a_1
*CAP
1 *841:B 0.000177669
2 *840:X 0.000177669
3 *841:B *1125:A 0.000135524
4 *841:B *302:10 8.2644e-05
5 *841:B *331:12 8.49205e-05
6 *841:A *841:B 0.000118513
*RES
1 *840:X *841:B 11.67 
*END

*D_NET *116 0.00123342
*CONN
*I *877:A I *D sky130_fd_sc_hd__nand2_1
*I *862:A I *D sky130_fd_sc_hd__xnor2_1
*I *845:X O *D sky130_fd_sc_hd__xor2_1
*CAP
1 *877:A 0.000350908
2 *862:A 0
3 *845:X 0.000259533
4 *116:8 0.000610441
5 *877:A *862:B 0
6 *877:A *877:B 5.53249e-06
7 *877:A *1129:A 7.00889e-06
8 *877:A *146:12 0
*RES
1 *845:X *116:8 5.515 
2 *116:8 *862:A 1.6 
3 *116:8 *877:A 11.27 
*END

*D_NET *117 0.00156306
*CONN
*I *877:B I *D sky130_fd_sc_hd__nand2_1
*I *863:A I *D sky130_fd_sc_hd__or3_1
*I *860:B1 I *D sky130_fd_sc_hd__o21a_1
*I *846:X O *D sky130_fd_sc_hd__xor2_1
*CAP
1 *877:B 0.000205665
2 *863:A 0.000186006
3 *860:B1 0
4 *846:X 0.00015215
5 *117:12 0.000280325
6 *117:6 0.000452132
7 *863:A *860:A1 8.8266e-05
8 *863:A *860:A2 2.30292e-05
9 *863:A *861:B1 0
10 *863:A *863:C 9.24127e-05
11 *863:A *864:A_N 0
12 *877:B *848:A 0
13 *877:B *861:B1 0
14 *877:B *880:A1 0
15 *877:B *146:12 0
16 *117:12 *861:B1 7.75412e-05
17 *117:12 *863:C 0
18 *877:A *877:B 5.53249e-06
*RES
1 *846:X *117:6 3.775 
2 *117:6 *117:12 6.145 
3 *117:12 *860:B1 1.6 
4 *117:12 *863:A 9.32 
5 *117:6 *877:B 8.885 
*END

*D_NET *118 0.00209314
*CONN
*I *850:A I *D sky130_fd_sc_hd__nor2_1
*I *860:A1 I *D sky130_fd_sc_hd__o21a_1
*I *848:A I *D sky130_fd_sc_hd__inv_2
*I *863:B I *D sky130_fd_sc_hd__or3_1
*I *847:X O *D sky130_fd_sc_hd__and2_1
*CAP
1 *850:A 0
2 *860:A1 0.000101189
3 *848:A 9.1656e-05
4 *863:B 4.43416e-05
5 *847:X 0.000179209
6 *118:25 0.000274527
7 *118:23 0.000218135
8 *118:10 0.000360004
9 *848:A *880:A1 0.000185398
10 *860:A1 *860:A2 0.000163199
11 *860:A1 *130:6 0.000161529
12 *118:10 *1128:A 0
13 *118:10 *120:12 0
14 *118:23 *880:A1 9.50342e-06
15 *118:23 *120:12 2.84137e-05
16 *118:25 *863:C 0
17 *118:25 *880:A1 0.000187766
18 *863:A *860:A1 8.8266e-05
19 *877:B *848:A 0
*RES
1 *847:X *118:10 8.51 
2 *118:10 *863:B 2.05 
3 *118:10 *118:23 4.01 
4 *118:23 *118:25 2.145 
5 *118:25 *848:A 5.745 
6 *118:25 *860:A1 6.465 
7 *118:23 *850:A 3.6 
*END

*D_NET *119 0.000388208
*CONN
*I *881:A1 I *D sky130_fd_sc_hd__o21a_1
*I *848:Y O *D sky130_fd_sc_hd__inv_2
*CAP
1 *881:A1 0.000126499
2 *848:Y 0.000126499
3 *881:A1 *880:A1 0.00013521
4 *881:A1 *885:A1 0
5 *881:A1 *885:A2 0
6 *881:A1 *129:10 0
*RES
1 *848:Y *881:A1 9.285 
*END

*D_NET *120 0.00204196
*CONN
*I *850:B I *D sky130_fd_sc_hd__nor2_1
*I *880:A1 I *D sky130_fd_sc_hd__o21a_1
*I *849:Y O *D sky130_fd_sc_hd__nor2_1
*CAP
1 *850:B 0
2 *880:A1 0.000352219
3 *849:Y 0.000221282
4 *120:12 0.000573501
5 *880:A1 *859:B 0
6 *880:A1 *881:A2 0.000162311
7 *880:A1 *881:B1 8.49205e-05
8 *880:A1 *121:6 7.00889e-06
9 *880:A1 *144:6 2.30292e-05
10 *880:A1 *146:12 1.52184e-05
11 *120:12 *859:B 2.86623e-05
12 *120:12 *1127:A 0
13 *120:12 *121:6 2.75145e-05
14 *848:A *880:A1 0.000185398
15 *877:B *880:A1 0
16 *881:A1 *880:A1 0.00013521
17 *118:10 *120:12 0
18 *118:23 *880:A1 9.50342e-06
19 *118:23 *120:12 2.84137e-05
20 *118:25 *880:A1 0.000187766
*RES
1 *849:Y *120:12 9.725 
2 *120:12 *880:A1 14.105 
3 *120:12 *850:B 1.6 
*END

*D_NET *121 0.000912526
*CONN
*I *865:A I *D sky130_fd_sc_hd__xnor2_1
*I *859:B I *D sky130_fd_sc_hd__and2b_1
*I *850:Y O *D sky130_fd_sc_hd__nor2_1
*CAP
1 *865:A 0.00015077
2 *859:B 0.000166137
3 *850:Y 8.27828e-05
4 *121:6 0.000399689
5 *859:B *865:B 0
6 *859:B *129:32 0
7 *865:A *1127:A 4.99619e-05
8 *880:A1 *859:B 0
9 *880:A1 *121:6 7.00889e-06
10 *120:12 *859:B 2.86623e-05
11 *120:12 *121:6 2.75145e-05
*RES
1 *850:Y *121:6 2.74 
2 *121:6 *859:B 8.51 
3 *121:6 *865:A 4.045 
*END

*D_NET *122 0.00237008
*CONN
*I *853:A I *D sky130_fd_sc_hd__nand2_1
*I *858:B1 I *D sky130_fd_sc_hd__o31a_2
*I *851:Y O *D sky130_fd_sc_hd__nand2_1
*CAP
1 *853:A 0
2 *858:B1 0.000383786
3 *851:Y 0.000186387
4 *122:14 0.000570173
5 *858:B1 *853:B 0
6 *858:B1 *857:A 6.38983e-05
7 *858:B1 *858:A3 2.59835e-05
8 *858:B1 *866:B 4.82919e-05
9 *858:B1 *1130:A 0
10 *858:B1 *127:12 0.000201508
11 *122:14 *853:B 0.000163199
12 *122:14 *1126:A 0.000464499
13 *122:14 *1131:A 0.000116158
14 *122:14 *124:6 3.00381e-05
15 *122:14 *331:12 0.000116158
*RES
1 *851:Y *122:14 11.585 
2 *122:14 *858:B1 12.185 
3 *122:14 *853:A 1.6 
*END

*D_NET *123 0.000513796
*CONN
*I *853:B I *D sky130_fd_sc_hd__nand2_1
*I *852:X O *D sky130_fd_sc_hd__or2_1
*CAP
1 *853:B 0.000175299
2 *852:X 0.000175299
3 *853:B *331:12 0
4 *858:B1 *853:B 0
5 *122:14 *853:B 0.000163199
*RES
1 *852:X *853:B 10.32 
*END

*D_NET *124 0.00125599
*CONN
*I *866:A I *D sky130_fd_sc_hd__xnor2_1
*I *858:A1 I *D sky130_fd_sc_hd__o31a_2
*I *853:Y O *D sky130_fd_sc_hd__nand2_1
*CAP
1 *866:A 2.08101e-05
2 *858:A1 0.000257109
3 *853:Y 0.00023846
4 *124:6 0.000516379
5 *858:A1 *866:B 0
6 *858:A1 *885:C1 8.65905e-05
7 *858:A1 *1130:A 0
8 *858:A1 *126:10 9.50342e-06
9 *858:A1 *129:10 0
10 *124:6 *1126:A 9.70988e-05
11 *122:14 *124:6 3.00381e-05
*RES
1 *853:Y *124:6 5.5 
2 *124:6 *858:A1 9.41 
3 *124:6 *866:A 1.96 
*END

*D_NET *125 0.00157643
*CONN
*I *855:B1 I *D sky130_fd_sc_hd__a211oi_1
*I *854:Y O *D sky130_fd_sc_hd__o21ai_1
*CAP
1 *855:B1 0.000671556
2 *854:Y 0.000671556
3 *855:B1 *856:B1 0.000164874
4 *855:B1 *865:B 0
5 *855:B1 *1130:A 0
6 *855:B1 *126:10 4.94404e-05
7 *855:C1 *855:B1 9.50342e-06
8 *111:29 *855:B1 9.50342e-06
*RES
1 *854:Y *855:B1 15.24 
*END

*D_NET *126 0.000902486
*CONN
*I *857:A I *D sky130_fd_sc_hd__nor2_1
*I *858:A2 I *D sky130_fd_sc_hd__o31a_2
*I *855:Y O *D sky130_fd_sc_hd__a211oi_1
*CAP
1 *857:A 7.41248e-05
2 *858:A2 0
3 *855:Y 0.000243128
4 *126:10 0.000317253
5 *857:A *858:A3 0.000145138
6 *126:10 *1130:A 0
7 *855:B1 *126:10 4.94404e-05
8 *858:A1 *126:10 9.50342e-06
9 *858:B1 *857:A 6.38983e-05
*RES
1 *855:Y *126:10 9.53 
2 *126:10 *858:A2 1.6 
3 *126:10 *857:A 3.805 
*END

*D_NET *127 0.000977592
*CONN
*I *858:A3 I *D sky130_fd_sc_hd__o31a_2
*I *857:B I *D sky130_fd_sc_hd__nor2_1
*I *856:X O *D sky130_fd_sc_hd__a21o_1
*CAP
1 *858:A3 0.000124895
2 *857:B 0
3 *856:X 0.000177586
4 *127:12 0.000302481
5 *127:12 *1130:A 0
6 *857:A *858:A3 0.000145138
7 *858:B1 *858:A3 2.59835e-05
8 *858:B1 *127:12 0.000201508
9 *101:26 *127:12 0
*RES
1 *856:X *127:12 9.065 
2 *127:12 *857:B 1.6 
3 *127:12 *858:A3 4.045 
*END

*D_NET *128 0.000352631
*CONN
*I *866:B I *D sky130_fd_sc_hd__xnor2_1
*I *857:Y O *D sky130_fd_sc_hd__nor2_1
*CAP
1 *866:B 0.000107879
2 *857:Y 0.000107879
3 *866:B *885:C1 1.22676e-05
4 *866:B *1130:A 7.63125e-05
5 *858:A1 *866:B 0
6 *858:B1 *866:B 4.82919e-05
*RES
1 *857:Y *866:B 9.285 
*END

*D_NET *129 0.00226266
*CONN
*I *865:B I *D sky130_fd_sc_hd__xnor2_1
*I *859:A_N I *D sky130_fd_sc_hd__and2b_1
*I *882:A1 I *D sky130_fd_sc_hd__a21o_1
*I *885:A1 I *D sky130_fd_sc_hd__a211oi_4
*I *858:X O *D sky130_fd_sc_hd__o31a_2
*CAP
1 *865:B 0.000175416
2 *859:A_N 0.00010242
3 *882:A1 5.74818e-05
4 *885:A1 0.000260785
5 *858:X 0.000171069
6 *129:32 0.000409946
7 *129:10 0.000406982
8 *129:8 0.000391895
9 *882:A1 *147:8 8.65905e-05
10 *885:A1 *885:A2 0.000123749
11 *885:A1 *892:A 7.63204e-05
12 *855:B1 *865:B 0
13 *858:A1 *129:10 0
14 *859:B *865:B 0
15 *859:B *129:32 0
16 *881:A1 *885:A1 0
17 *881:A1 *129:10 0
18 *111:29 *865:B 0
*RES
1 *858:X *129:8 6.12 
2 *129:8 *129:10 1.38 
3 *129:10 *885:A1 8.34 
4 *129:10 *882:A1 4.395 
5 *129:8 *129:32 2.145 
6 *129:32 *859:A_N 5.085 
7 *129:32 *865:B 6.45 
*END

*D_NET *130 0.00116578
*CONN
*I *863:C I *D sky130_fd_sc_hd__or3_1
*I *860:A2 I *D sky130_fd_sc_hd__o21a_1
*I *859:X O *D sky130_fd_sc_hd__and2b_1
*CAP
1 *863:C 0.000114355
2 *860:A2 9.24326e-05
3 *859:X 0.000156015
4 *130:6 0.000362803
5 *860:A1 *860:A2 0.000163199
6 *860:A1 *130:6 0.000161529
7 *863:A *860:A2 2.30292e-05
8 *863:A *863:C 9.24127e-05
9 *117:12 *863:C 0
10 *118:25 *863:C 0
*RES
1 *859:X *130:6 4.12 
2 *130:6 *860:A2 3.43 
3 *130:6 *863:C 8 
*END

*D_NET *131 0.000965601
*CONN
*I *864:A_N I *D sky130_fd_sc_hd__and2b_1
*I *861:B1 I *D sky130_fd_sc_hd__a21oi_1
*I *860:X O *D sky130_fd_sc_hd__o21a_1
*CAP
1 *864:A_N 7.04937e-05
2 *861:B1 0.000315339
3 *860:X 4.43379e-05
4 *131:8 0.000430171
5 *861:B1 *862:B 2.77183e-05
6 *864:A_N *257:10 0
7 *863:A *861:B1 0
8 *863:A *864:A_N 0
9 *877:B *861:B1 0
10 *117:12 *861:B1 7.75412e-05
*RES
1 *860:X *131:8 4.05 
2 *131:8 *861:B1 9.18 
3 *131:8 *864:A_N 4.725 
*END

*D_NET *132 0.000621558
*CONN
*I *862:B I *D sky130_fd_sc_hd__xnor2_1
*I *861:Y O *D sky130_fd_sc_hd__a21oi_1
*CAP
1 *862:B 0.00029692
2 *861:Y 0.00029692
3 *861:B1 *862:B 2.77183e-05
4 *877:A *862:B 0
*RES
1 *861:Y *862:B 11.67 
*END

*D_NET *133 0.000181766
*CONN
*I *864:B I *D sky130_fd_sc_hd__and2b_1
*I *863:X O *D sky130_fd_sc_hd__or3_1
*CAP
1 *864:B 6.59023e-05
2 *863:X 6.59023e-05
3 *864:B *1128:A 4.99619e-05
*RES
1 *863:X *864:B 4.34 
*END

*D_NET *134 0.00140657
*CONN
*I *907:A1 I *D sky130_fd_sc_hd__o221ai_4
*I *869:A_N I *D sky130_fd_sc_hd__nand2b_1
*I *867:Y O *D sky130_fd_sc_hd__nor2_1
*CAP
1 *907:A1 0.000174099
2 *869:A_N 3.75198e-05
3 *867:Y 0.000139887
4 *134:10 0.000351506
5 *869:A_N *1102:A 8.65905e-05
6 *907:A1 *870:A 7.26629e-05
7 *907:A1 *871:A 4.39734e-05
8 *907:A1 *871:B 0
9 *907:A1 *906:B 0.000208491
10 *907:A1 *907:C1 0
11 *134:10 *867:B 9.27255e-06
12 *134:10 *868:A 5.30673e-05
13 *134:10 *135:10 7.00889e-06
14 *134:10 *299:10 7.4027e-05
15 sum[11] *907:A1 0
16 *1056:A *907:A1 8.53113e-06
17 *1056:A *134:10 0.000139933
*RES
1 *867:Y *134:10 6.375 
2 *134:10 *869:A_N 4.395 
3 *134:10 *907:A1 7.785 
*END

*D_NET *135 0.0017942
*CONN
*I *907:C1 I *D sky130_fd_sc_hd__o221ai_4
*I *869:B I *D sky130_fd_sc_hd__nand2b_1
*I *868:Y O *D sky130_fd_sc_hd__nand2_1
*CAP
1 *907:C1 0.000525419
2 *869:B 2.55058e-05
3 *868:Y 0.000219261
4 *135:10 0.000770186
5 *869:B *1102:A 6.07824e-05
6 *907:C1 *889:B 0
7 *907:C1 *906:A 0
8 *907:C1 *906:B 0
9 *907:C1 *138:10 6.55328e-05
10 *907:C1 *169:10 0
11 *135:10 *867:B 3.00381e-05
12 *135:10 *889:B 0
13 *135:10 *299:10 0
14 *135:10 *301:20 4.82863e-05
15 *135:10 *336:28 4.21757e-05
16 *907:A1 *907:C1 0
17 *134:10 *135:10 7.00889e-06
*RES
1 *868:Y *135:10 7.575 
2 *135:10 *869:B 4.1625 
3 *135:10 *907:C1 11.79 
*END

*D_NET *136 0.000506889
*CONN
*I *906:A I *D sky130_fd_sc_hd__or2_1
*I *889:A I *D sky130_fd_sc_hd__xnor2_1
*I *869:Y O *D sky130_fd_sc_hd__nand2b_1
*CAP
1 *906:A 7.18759e-05
2 *889:A 3.17377e-05
3 *869:Y 8.4428e-05
4 *136:6 0.000188042
5 *906:A *889:B 8.08439e-05
6 *136:6 *1102:A 4.99619e-05
7 *907:C1 *906:A 0
*RES
1 *869:Y *136:6 3.085 
2 *136:6 *889:A 2.05 
3 *136:6 *906:A 7.235 
*END

*D_NET *137 0.000866373
*CONN
*I *872:A I *D sky130_fd_sc_hd__nand2_1
*I *888:B1_N I *D sky130_fd_sc_hd__a21bo_1
*I *907:A2 I *D sky130_fd_sc_hd__o221ai_4
*I *870:Y O *D sky130_fd_sc_hd__nand2_1
*CAP
1 *872:A 5.35168e-05
2 *888:B1_N 0
3 *907:A2 0
4 *870:Y 0.000173751
5 *137:21 0.000107081
6 *137:8 0.000227315
7 *872:A *872:B 6.1826e-05
8 *872:A *139:8 5.83121e-06
9 *137:21 *906:B 0.000118527
10 *137:21 *138:10 0.000118527
*RES
1 *870:Y *137:8 4.135 
2 *137:8 *907:A2 1.6 
3 *137:8 *137:21 5.83 
4 *137:21 *888:B1_N 1.6 
5 *137:21 *872:A 2.665 
*END

*D_NET *138 0.00107372
*CONN
*I *872:B I *D sky130_fd_sc_hd__nand2_1
*I *888:A1 I *D sky130_fd_sc_hd__a21bo_1
*I *871:X O *D sky130_fd_sc_hd__or2_1
*CAP
1 *872:B 0.000116401
2 *888:A1 6.46244e-05
3 *871:X 0.00015211
4 *138:10 0.000333135
5 *872:B *139:8 1.47347e-05
6 *888:A1 *888:A2 4.99619e-05
7 *138:10 *890:A 2.4997e-05
8 *138:10 *906:B 7.18738e-05
9 *138:10 *908:A2 0
10 *138:10 *169:10 0
11 *872:A *872:B 6.1826e-05
12 *907:C1 *138:10 6.55328e-05
13 *137:21 *138:10 0.000118527
*RES
1 *871:X *138:10 9.02 
2 *138:10 *888:A1 2.74 
3 *138:10 *872:B 3.805 
*END

*D_NET *139 0.00195856
*CONN
*I *890:A I *D sky130_fd_sc_hd__xnor2_1
*I *906:B I *D sky130_fd_sc_hd__or2_1
*I *872:Y O *D sky130_fd_sc_hd__nand2_1
*CAP
1 *890:A 0.000353574
2 *906:B 0.000304233
3 *872:Y 3.67997e-05
4 *139:8 0.000694607
5 *890:A *888:A2 0
6 *890:A *908:A2 0
7 *890:A *337:8 0.000124895
8 *906:B *288:10 0
9 *872:A *139:8 5.83121e-06
10 *872:B *139:8 1.47347e-05
11 *907:A1 *906:B 0.000208491
12 *907:C1 *906:B 0
13 *1045:A *890:A 0
14 *1094:A *890:A 0
15 *137:21 *906:B 0.000118527
16 *138:10 *890:A 2.4997e-05
17 *138:10 *906:B 7.18738e-05
*RES
1 *872:Y *139:8 4.05 
2 *139:8 *906:B 9.9 
3 *139:8 *890:A 9.435 
*END

*D_NET *140 0.00162287
*CONN
*I *875:A I *D sky130_fd_sc_hd__nand2_1
*I *887:B1_N I *D sky130_fd_sc_hd__a21bo_1
*I *907:B1 I *D sky130_fd_sc_hd__o221ai_4
*I *873:Y O *D sky130_fd_sc_hd__nand2_1
*CAP
1 *875:A 3.81319e-05
2 *887:B1_N 3.27521e-05
3 *907:B1 0.000150312
4 *873:Y 0.000105165
5 *140:23 0.00030965
6 *140:8 0.000494244
7 *875:A *873:B 0
8 *875:A *908:A1 0
9 *887:B1_N *142:6 4.82863e-05
10 *907:B1 *888:A2 0
11 *907:B1 *889:B 6.5525e-05
12 *907:B1 *908:A2 0.000175894
13 *907:B1 *169:10 9.50342e-06
14 *140:8 *873:B 4.9253e-06
15 *140:23 *873:A 6.5525e-05
16 *140:23 *887:A1 1.12578e-05
17 *140:23 *888:A2 0
18 *140:23 *141:6 5.30673e-05
19 *140:23 *142:6 4.82919e-05
20 *140:23 *154:8 1.03323e-05
*RES
1 *873:Y *140:8 4.74 
2 *140:8 *907:B1 7.02 
3 *140:8 *140:23 5.975 
4 *140:23 *887:B1_N 2.05 
5 *140:23 *875:A 6.215 
*END

*D_NET *141 0.00068751
*CONN
*I *887:A1 I *D sky130_fd_sc_hd__a21bo_1
*I *875:B I *D sky130_fd_sc_hd__nand2_1
*I *874:X O *D sky130_fd_sc_hd__or2_1
*CAP
1 *887:A1 6.38069e-05
2 *875:B 0
3 *874:X 1.42014e-05
4 *141:6 7.80083e-05
5 *887:A1 *142:6 0.000141323
6 *887:A1 *154:8 0.000279787
7 *141:6 *154:8 4.60584e-05
8 *140:23 *887:A1 1.12578e-05
9 *140:23 *141:6 5.30673e-05
*RES
1 *874:X *141:6 2.395 
2 *141:6 *875:B 1.6 
3 *141:6 *887:A1 4.48 
*END

*D_NET *142 0.0014338
*CONN
*I *908:A1 I *D sky130_fd_sc_hd__o21bai_2
*I *891:A I *D sky130_fd_sc_hd__xnor2_1
*I *875:Y O *D sky130_fd_sc_hd__nand2_1
*CAP
1 *908:A1 0.000232604
2 *891:A 0.000155132
3 *875:Y 0.000110065
4 *142:6 0.000497801
5 *891:A *887:A2 0.000135652
6 *891:A *153:12 3.00381e-05
7 *908:A1 *153:12 0
8 *908:A1 *171:8 1.89685e-05
9 *142:6 *887:A2 5.83121e-06
10 *142:6 *154:8 9.80943e-06
11 *875:A *908:A1 0
12 *887:A1 *142:6 0.000141323
13 *887:B1_N *142:6 4.82863e-05
14 *140:23 *142:6 4.82919e-05
*RES
1 *875:Y *142:6 4.12 
2 *142:6 *891:A 4.48 
3 *142:6 *908:A1 9.53 
*END

*D_NET *143 0.00178509
*CONN
*I *886:A I *D sky130_fd_sc_hd__or2_1
*I *909:A1 I *D sky130_fd_sc_hd__o31a_1
*I *910:A1 I *D sky130_fd_sc_hd__o311ai_4
*I *884:A I *D sky130_fd_sc_hd__or2_1
*I *876:X O *D sky130_fd_sc_hd__and2_1
*CAP
1 *886:A 0.000176347
2 *909:A1 2.41569e-05
3 *910:A1 0
4 *884:A 3.73572e-05
5 *876:X 0.000135526
6 *143:32 0.000322366
7 *143:21 0.000236859
8 *143:10 0.000287879
9 *884:A *151:10 5.05437e-05
10 *886:A *908:B1_N 0
11 *886:A *152:10 5.53249e-06
12 *886:A *152:16 0.000204367
13 *886:A *171:8 0
14 *909:A1 *919:B 4.82919e-05
15 *143:10 *883:A 3.00381e-05
16 *143:10 *884:B 0
17 *143:10 *919:B 0
18 *143:21 *910:A2 9.50342e-06
19 *143:21 *919:B 0
20 *143:21 *151:10 0
21 *143:32 *910:A2 0.000164679
22 *143:32 *151:10 0
23 *143:32 *152:16 5.16418e-05
*RES
1 *876:X *143:10 5.685 
2 *143:10 *884:A 4.395 
3 *143:10 *143:21 1.89 
4 *143:21 *910:A1 3.6 
5 *143:21 *143:32 2.85 
6 *143:32 *909:A1 4.05 
7 *143:32 *886:A 7.785 
*END

*D_NET *144 0.000868232
*CONN
*I *881:A2 I *D sky130_fd_sc_hd__o21a_1
*I *880:A2 I *D sky130_fd_sc_hd__o21a_1
*I *877:Y O *D sky130_fd_sc_hd__nand2_1
*CAP
1 *881:A2 0.000129957
2 *880:A2 0
3 *877:Y 0.00018846
4 *144:6 0.000318417
5 *881:A2 *881:B1 4.60584e-05
6 *880:A1 *881:A2 0.000162311
7 *880:A1 *144:6 2.30292e-05
*RES
1 *877:Y *144:6 3.775 
2 *144:6 *880:A2 1.6 
3 *144:6 *881:A2 4.135 
*END

*D_NET *145 0.000341764
*CONN
*I *879:B1 I *D sky130_fd_sc_hd__o21ai_1
*I *878:X O *D sky130_fd_sc_hd__a22o_1
*CAP
1 *879:B1 9.82079e-05
2 *878:X 9.82079e-05
3 *879:B1 *861:A2 2.75229e-05
4 *879:B1 *878:A2 0.000117825
*RES
1 *878:X *879:B1 9.03 
*END

*D_NET *146 0.00237015
*CONN
*I *881:B1 I *D sky130_fd_sc_hd__o21a_1
*I *880:B1 I *D sky130_fd_sc_hd__o21a_1
*I *879:Y O *D sky130_fd_sc_hd__o21ai_1
*CAP
1 *881:B1 7.85372e-05
2 *880:B1 0
3 *879:Y 0.000951296
4 *146:12 0.00102983
5 *881:B1 *147:8 0.000160635
6 *146:12 *878:A2 3.64998e-06
7 *146:12 *885:A2 0
8 *877:A *146:12 0
9 *877:B *146:12 0
10 *880:A1 *881:B1 8.49205e-05
11 *880:A1 *146:12 1.52184e-05
12 *881:A2 *881:B1 4.60584e-05
*RES
1 *879:Y *146:12 16.31 
2 *146:12 *880:B1 1.6 
3 *146:12 *881:B1 3.775 
*END

*D_NET *147 0.00171412
*CONN
*I *885:C1 I *D sky130_fd_sc_hd__a211oi_4
*I *882:B1 I *D sky130_fd_sc_hd__a21o_1
*I *880:X O *D sky130_fd_sc_hd__o21a_1
*CAP
1 *885:C1 0.000407444
2 *882:B1 0
3 *880:X 0.000233278
4 *147:8 0.000640722
5 *885:C1 *885:B1 0
6 *885:C1 *892:A 0
7 *885:C1 *893:B 0
8 *885:C1 *1130:A 0
9 *147:8 *148:6 8.65905e-05
10 *858:A1 *885:C1 8.65905e-05
11 *866:B *885:C1 1.22676e-05
12 *881:B1 *147:8 0.000160635
13 *882:A1 *147:8 8.65905e-05
*RES
1 *880:X *147:8 5.86 
2 *147:8 *882:B1 1.6 
3 *147:8 *885:C1 12.245 
*END

*D_NET *148 0.00067842
*CONN
*I *882:A2 I *D sky130_fd_sc_hd__a21o_1
*I *885:A2 I *D sky130_fd_sc_hd__a211oi_4
*I *881:X O *D sky130_fd_sc_hd__o21a_1
*CAP
1 *882:A2 0
2 *885:A2 0.000199619
3 *881:X 3.44213e-05
4 *148:6 0.00023404
5 *881:A1 *885:A2 0
6 *885:A1 *885:A2 0.000123749
7 *146:12 *885:A2 0
8 *147:8 *148:6 8.65905e-05
*RES
1 *881:X *148:6 2.395 
2 *148:6 *885:A2 9.23 
3 *148:6 *882:A2 1.6 
*END

*D_NET *149 0.000563616
*CONN
*I *892:A I *D sky130_fd_sc_hd__and2_1
*I *882:X O *D sky130_fd_sc_hd__a21o_1
*CAP
1 *892:A 0.000243648
2 *882:X 0.000243648
3 *892:A *885:B1 0
4 *885:A1 *892:A 7.63204e-05
5 *885:C1 *892:A 0
*RES
1 *882:X *892:A 11.415 
*END

*D_NET *150 0.000198381
*CONN
*I *884:B I *D sky130_fd_sc_hd__or2_1
*I *883:Y O *D sky130_fd_sc_hd__nor2_1
*CAP
1 *884:B 9.91904e-05
2 *883:Y 9.91904e-05
3 *143:10 *884:B 0
*RES
1 *883:Y *884:B 8.835 
*END

*D_NET *151 0.00238865
*CONN
*I *885:B1 I *D sky130_fd_sc_hd__a211oi_4
*I *892:B I *D sky130_fd_sc_hd__and2_1
*I *884:X O *D sky130_fd_sc_hd__or2_1
*CAP
1 *885:B1 0.000204987
2 *892:B 0
3 *884:X 0.000964065
4 *151:10 0.00116905
5 *885:B1 *152:10 0
6 *151:10 *152:10 0
7 *151:10 *152:16 0
8 *884:A *151:10 5.05437e-05
9 *885:C1 *885:B1 0
10 *892:A *885:B1 0
11 *143:21 *151:10 0
12 *143:32 *151:10 0
*RES
1 *884:X *151:10 18.3 
2 *151:10 *892:B 3.6 
3 *151:10 *885:B1 5.2325 
*END

*D_NET *152 0.00228077
*CONN
*I *893:A I *D sky130_fd_sc_hd__nor2_1
*I *886:B I *D sky130_fd_sc_hd__or2_1
*I *909:A2 I *D sky130_fd_sc_hd__o31a_1
*I *910:A2 I *D sky130_fd_sc_hd__o311ai_4
*I *885:Y O *D sky130_fd_sc_hd__a211oi_4
*CAP
1 *893:A 0.000213986
2 *886:B 0
3 *909:A2 0
4 *910:A2 7.75089e-05
5 *885:Y 0
6 *152:16 0.000322129
7 *152:10 0.000589856
8 *152:4 0.000559221
9 *910:A2 *919:B 0
10 *152:10 *153:12 0
11 *152:16 *919:B 8.23457e-05
12 *885:B1 *152:10 0
13 *886:A *152:10 5.53249e-06
14 *886:A *152:16 0.000204367
15 *143:21 *910:A2 9.50342e-06
16 *143:32 *910:A2 0.000164679
17 *143:32 *152:16 5.16418e-05
18 *151:10 *152:10 0
19 *151:10 *152:16 0
*RES
1 *885:Y *152:4 1.6 
2 *152:4 *152:10 7.6025 
3 *152:10 *152:16 7.49 
4 *152:16 *910:A2 7.49 
5 *152:16 *909:A2 1.6 
6 *152:10 *886:B 3.6 
7 *152:4 *893:A 4.5625 
*END

*D_NET *153 0.000764289
*CONN
*I *887:A2 I *D sky130_fd_sc_hd__a21bo_1
*I *891:B I *D sky130_fd_sc_hd__xnor2_1
*I *886:X O *D sky130_fd_sc_hd__or2_1
*CAP
1 *887:A2 5.91243e-05
2 *891:B 0
3 *886:X 0.000170098
4 *153:12 0.000229222
5 *887:A2 *1131:A 4.60584e-05
6 *887:A2 *154:8 8.8266e-05
7 *891:A *887:A2 0.000135652
8 *891:A *153:12 3.00381e-05
9 *908:A1 *153:12 0
10 *142:6 *887:A2 5.83121e-06
11 *152:10 *153:12 0
*RES
1 *886:X *153:12 8.375 
2 *153:12 *891:B 1.6 
3 *153:12 *887:A2 3.775 
*END

*D_NET *154 0.0021561
*CONN
*I *890:B I *D sky130_fd_sc_hd__xnor2_1
*I *888:A2 I *D sky130_fd_sc_hd__a21bo_1
*I *887:X O *D sky130_fd_sc_hd__a21bo_1
*CAP
1 *890:B 0
2 *888:A2 0.00027567
3 *887:X 0.000181692
4 *154:8 0.000457362
5 *888:A2 *873:B 8.97642e-05
6 *888:A2 *302:10 1.89685e-05
7 *154:8 *874:A 1.83756e-05
8 *154:8 *1131:A 0.00058622
9 *154:8 *337:8 4.38278e-05
10 *887:A1 *154:8 0.000279787
11 *887:A2 *154:8 8.8266e-05
12 *888:A1 *888:A2 4.99619e-05
13 *890:A *888:A2 0
14 *907:B1 *888:A2 0
15 *140:23 *888:A2 0
16 *140:23 *154:8 1.03323e-05
17 *141:6 *154:8 4.60584e-05
18 *142:6 *154:8 9.80943e-06
*RES
1 *887:X *154:8 8.275 
2 *154:8 *888:A2 10.58 
3 *154:8 *890:B 1.6 
*END

*D_NET *155 0.000998176
*CONN
*I *889:B I *D sky130_fd_sc_hd__xnor2_1
*I *888:X O *D sky130_fd_sc_hd__a21bo_1
*CAP
1 *889:B 0.000378955
2 *888:X 0.000378955
3 *889:B *908:A2 4.38278e-05
4 *889:B *910:C1 0
5 *889:B *169:10 5.00699e-05
6 *889:B *173:12 0
7 *906:A *889:B 8.08439e-05
8 *907:B1 *889:B 6.5525e-05
9 *907:C1 *889:B 0
10 *135:10 *889:B 0
*RES
1 *888:X *889:B 14.055 
*END

*D_NET *156 0.000810671
*CONN
*I *893:B I *D sky130_fd_sc_hd__nor2_1
*I *892:X O *D sky130_fd_sc_hd__and2_1
*CAP
1 *893:B 0.000405336
2 *892:X 0.000405336
3 *885:C1 *893:B 0
*RES
1 *892:X *893:B 11.79 
*END

*D_NET *157 0.000805214
*CONN
*I *932:A1 I *D sky130_fd_sc_hd__o221ai_1
*I *896:A_N I *D sky130_fd_sc_hd__nand2b_1
*I *894:Y O *D sky130_fd_sc_hd__nor2_1
*CAP
1 *932:A1 0.000157898
2 *896:A_N 0
3 *894:Y 8.47333e-05
4 *157:8 0.000242631
5 *932:A1 *896:B 9.50342e-06
6 *932:A1 *932:A2 2.11084e-05
7 *932:A1 *932:B1 8.65961e-05
8 *932:A1 *932:C1 0
9 *932:A1 *933:A2 9.50342e-06
10 *932:A1 *190:10 0.000141599
11 *932:A1 *321:10 0
12 *157:8 *896:B 5.16418e-05
13 *157:8 *914:A 0
14 *157:8 *932:C1 0
15 *157:8 *158:8 0
*RES
1 *894:Y *157:8 4.98 
2 *157:8 *896:A_N 3.6 
3 *157:8 *932:A1 6.795 
*END

*D_NET *158 0.00107377
*CONN
*I *932:C1 I *D sky130_fd_sc_hd__o221ai_1
*I *896:B I *D sky130_fd_sc_hd__nand2b_1
*I *895:Y O *D sky130_fd_sc_hd__nand2_1
*CAP
1 *932:C1 0.00014968
2 *896:B 0.000171294
3 *895:Y 5.8674e-05
4 *158:8 0.000379648
5 *896:B *914:A 1.0183e-05
6 *896:B *931:A 0.000171894
7 *896:B *931:B 1.02334e-05
8 *896:B *190:10 3.82323e-06
9 *932:C1 *1108:A 0
10 *932:C1 *190:10 5.72004e-05
11 *158:8 *1108:A 0
12 *932:A1 *896:B 9.50342e-06
13 *932:A1 *932:C1 0
14 *157:8 *896:B 5.16418e-05
15 *157:8 *932:C1 0
16 *157:8 *158:8 0
*RES
1 *895:Y *158:8 4.47 
2 *158:8 *896:B 10.1538 
3 *158:8 *932:C1 6.51 
*END

*D_NET *159 0.000993367
*CONN
*I *914:A I *D sky130_fd_sc_hd__xnor2_1
*I *931:A I *D sky130_fd_sc_hd__or2_1
*I *896:Y O *D sky130_fd_sc_hd__nand2b_1
*CAP
1 *914:A 0.000159046
2 *931:A 9.81435e-05
3 *896:Y 0
4 *159:4 0.000257189
5 *914:A *914:B 0.000113833
6 *914:A *309:12 4.18603e-06
7 *914:A *321:10 0
8 *914:A *365:22 5.81693e-05
9 *931:A *931:B 9.68176e-05
10 *931:A *190:10 2.39058e-05
11 *896:B *914:A 1.0183e-05
12 *896:B *931:A 0.000171894
13 *157:8 *914:A 0
*RES
1 *896:Y *159:4 1.6 
2 *159:4 *931:A 4.12 
3 *159:4 *914:A 8.72 
*END

*D_NET *160 0.000748242
*CONN
*I *915:A_N I *D sky130_fd_sc_hd__nand2b_1
*I *913:A1 I *D sky130_fd_sc_hd__o21ai_1
*I *897:Y O *D sky130_fd_sc_hd__nor2_1
*CAP
1 *915:A_N 8.78482e-06
2 *913:A1 0.000125016
3 *897:Y 0.0001091
4 *160:10 0.0002429
5 *913:A1 *916:B 8.65905e-05
6 *913:A1 *931:B 2.0514e-05
7 *913:A1 *161:22 7.35813e-05
8 *913:A1 *321:10 7.18452e-06
9 *915:A_N *301:20 0
10 *160:10 *161:12 2.46089e-05
11 *160:10 *301:20 0
12 *160:10 *321:10 0
13 *160:10 *365:22 4.99619e-05
*RES
1 *897:Y *160:10 5.3025 
2 *160:10 *913:A1 5.7675 
3 *160:10 *915:A_N 3.8325 
*END

*D_NET *161 0.00159186
*CONN
*I *915:B I *D sky130_fd_sc_hd__nand2b_1
*I *913:B1 I *D sky130_fd_sc_hd__o21ai_1
*I *932:A2 I *D sky130_fd_sc_hd__o221ai_1
*I *898:Y O *D sky130_fd_sc_hd__nand2_1
*CAP
1 *915:B 2.0648e-05
2 *913:B1 0
3 *932:A2 0.000200716
4 *898:Y 0.00014553
5 *161:22 0.000415257
6 *161:12 0.000380719
7 *915:B *916:B 1.20741e-05
8 *932:A2 *932:B1 1.33293e-05
9 *932:A2 *321:10 4.19967e-05
10 *161:12 *916:B 5.78185e-05
11 *161:12 *301:20 7.23533e-05
12 *161:22 *914:B 3.72258e-05
13 *161:22 *916:B 1.10819e-05
14 *161:22 *931:B 6.38105e-05
15 *913:A1 *161:22 7.35813e-05
16 *932:A1 *932:A2 2.11084e-05
17 *160:10 *161:12 2.46089e-05
*RES
1 *898:Y *161:12 7.955 
2 *161:12 *161:22 3.705 
3 *161:22 *932:A2 8.465 
4 *161:22 *913:B1 1.6 
5 *161:12 *915:B 2.32375 
*END

*D_NET *162 0.00136599
*CONN
*I *901:A I *D sky130_fd_sc_hd__nand2_1
*I *932:B1 I *D sky130_fd_sc_hd__o221ai_1
*I *899:Y O *D sky130_fd_sc_hd__nand2_1
*CAP
1 *901:A 0.000209794
2 *932:B1 0.000211026
3 *899:Y 0.000206382
4 *162:8 0.000627201
5 *901:A *933:A2 0
6 *901:A *321:10 0
7 *901:A *321:27 0
8 *932:B1 *933:A2 0
9 *932:B1 *191:12 1.16578e-05
10 *932:B1 *321:10 0
11 *932:A1 *932:B1 8.65961e-05
12 *932:A2 *932:B1 1.33293e-05
*RES
1 *899:Y *162:8 5.775 
2 *162:8 *932:B1 6.915 
3 *162:8 *901:A 6.96 
*END

*D_NET *163 0.000113292
*CONN
*I *901:B I *D sky130_fd_sc_hd__nand2_1
*I *900:X O *D sky130_fd_sc_hd__or2_1
*CAP
1 *901:B 5.66458e-05
2 *900:X 5.66458e-05
*RES
1 *900:X *901:B 3.995 
*END

*D_NET *164 0.00118679
*CONN
*I *911:B1 I *D sky130_fd_sc_hd__a21oi_1
*I *933:A1 I *D sky130_fd_sc_hd__o21ba_1
*I *917:A I *D sky130_fd_sc_hd__and3_1
*I *901:Y O *D sky130_fd_sc_hd__nand2_1
*CAP
1 *911:B1 8.00695e-05
2 *933:A1 2.22882e-05
3 *917:A 0.000260832
4 *901:Y 0
5 *164:8 0.000331403
6 *164:4 0.000128352
7 *911:B1 *912:B1 0
8 *911:B1 *917:B 0
9 *911:B1 *934:B 0
10 *917:A *917:B 1.61696e-05
11 *917:A *933:A2 8.65961e-05
12 *917:A *934:A_N 0.000122325
13 *917:A *934:B 4.21677e-05
14 *917:A *173:18 4.82919e-05
15 *917:A *192:8 4.82919e-05
*RES
1 *901:Y *164:4 1.6 
2 *164:4 *164:8 0.81 
3 *164:8 *917:A 10.295 
4 *164:8 *933:A1 1.96 
5 *164:4 *911:B1 6.725 
*END

*D_NET *165 0.0030331
*CONN
*I *904:A I *D sky130_fd_sc_hd__nand2_1
*I *911:A1 I *D sky130_fd_sc_hd__a21oi_1
*I *917:B I *D sky130_fd_sc_hd__and3_1
*I *934:B I *D sky130_fd_sc_hd__and2b_1
*I *902:Y O *D sky130_fd_sc_hd__nand2_1
*CAP
1 *904:A 2.01481e-05
2 *911:A1 0
3 *917:B 0.000148488
4 *934:B 0.000244752
5 *902:Y 0.000109044
6 *165:22 0.000576021
7 *165:14 0.000538561
8 *165:10 0.000484972
9 *904:A *912:B1 1.44259e-05
10 *904:A *301:20 5.16418e-05
11 *917:B *167:10 4.43871e-06
12 *917:B *173:12 0
13 *917:B *173:16 1.83847e-05
14 *934:B *934:A_N 0.000119631
15 *934:B *191:12 5.23362e-05
16 *934:B *192:8 3.99879e-05
17 *165:10 *902:A 4.9253e-06
18 *165:10 *912:A2 1.16578e-05
19 *165:10 *912:B1 2.46089e-05
20 *165:10 *175:10 6.0147e-06
21 *165:10 *301:20 7.06865e-05
22 *165:14 *918:B 6.47326e-05
23 *165:14 *1104:A 0.000237243
24 *165:14 *173:12 7.22354e-05
25 *165:14 *174:8 9.27255e-06
26 *165:22 *173:12 2.30292e-05
27 *165:22 *173:16 2.75229e-05
28 *911:B1 *917:B 0
29 *911:B1 *934:B 0
30 *917:A *917:B 1.61696e-05
31 *917:A *934:B 4.21677e-05
*RES
1 *902:Y *165:10 5.265 
2 *165:10 *165:14 6.935 
3 *165:14 *165:22 4.1675 
4 *165:22 *934:B 8.2275 
5 *165:22 *917:B 5.5575 
6 *165:14 *911:A1 1.6 
7 *165:10 *904:A 4.215 
*END

*D_NET *166 0.000766839
*CONN
*I *904:B I *D sky130_fd_sc_hd__nand2_1
*I *903:X O *D sky130_fd_sc_hd__or2_1
*CAP
1 *904:B 0.000225376
2 *903:X 0.000225376
3 *904:B *1104:A 3.95724e-05
4 *904:B *174:8 0
5 *904:B *305:16 0.000138257
6 *904:B *336:28 0.000138257
*RES
1 *903:X *904:B 11.715 
*END

*D_NET *167 0.00261722
*CONN
*I *905:A I *D sky130_fd_sc_hd__inv_2
*I *919:A I *D sky130_fd_sc_hd__xnor2_1
*I *904:Y O *D sky130_fd_sc_hd__nand2_1
*CAP
1 *905:A 0.000191866
2 *919:A 1.86412e-05
3 *904:Y 0.000648715
4 *167:10 0.000859222
5 *905:A *910:C1 2.75145e-05
6 *905:A *919:B 0
7 *905:A *173:12 0
8 *905:A *336:28 1.52184e-05
9 *919:A *301:20 0.000124895
10 *919:A *336:28 0.000124895
11 *167:10 *912:B1 2.96334e-05
12 *167:10 *918:B 9.21168e-05
13 *167:10 *1103:A 0.000120186
14 *167:10 *1104:A 4.41363e-05
15 *167:10 *173:12 0
16 *167:10 *173:16 1.61831e-05
17 *167:10 *174:8 0.000277223
18 *167:10 *336:28 2.23407e-05
19 *917:B *167:10 4.43871e-06
*RES
1 *904:Y *167:10 13.335 
2 *167:10 *919:A 4.74 
3 *167:10 *905:A 6.795 
*END

*D_NET *168 0.00046831
*CONN
*I *910:C1 I *D sky130_fd_sc_hd__o311ai_4
*I *905:Y O *D sky130_fd_sc_hd__inv_2
*CAP
1 *910:C1 0.000201964
2 *905:Y 0.000201964
3 *910:C1 *910:B1 0
4 *910:C1 *919:B 0
5 *910:C1 *173:12 3.68682e-05
6 *889:B *910:C1 0
7 *905:A *910:C1 2.75145e-05
*RES
1 *905:Y *910:C1 10.065 
*END

*D_NET *169 0.00149127
*CONN
*I *908:A2 I *D sky130_fd_sc_hd__o21bai_2
*I *907:B2 I *D sky130_fd_sc_hd__o221ai_4
*I *906:X O *D sky130_fd_sc_hd__or2_1
*CAP
1 *908:A2 0.000411178
2 *907:B2 0
3 *906:X 0.000194811
4 *169:10 0.000605989
5 *889:B *908:A2 4.38278e-05
6 *889:B *169:10 5.00699e-05
7 *890:A *908:A2 0
8 *907:B1 *908:A2 0.000175894
9 *907:B1 *169:10 9.50342e-06
10 *907:C1 *169:10 0
11 *138:10 *908:A2 0
12 *138:10 *169:10 0
*RES
1 *906:X *169:10 6.375 
2 *169:10 *907:B2 3.6 
3 *169:10 *908:A2 10.695 
*END

*D_NET *170 0.00158777
*CONN
*I *908:B1_N I *D sky130_fd_sc_hd__o21bai_2
*I *909:A3 I *D sky130_fd_sc_hd__o31a_1
*I *910:A3 I *D sky130_fd_sc_hd__o311ai_4
*I *907:Y O *D sky130_fd_sc_hd__o221ai_4
*CAP
1 *908:B1_N 0.000148032
2 *909:A3 5.77506e-05
3 *910:A3 4.19619e-05
4 *907:Y 0.000198314
5 *170:21 0.000301515
6 *170:6 0.000336008
7 *908:B1_N *919:B 1.52184e-05
8 *908:B1_N *171:8 0
9 *909:A3 *919:B 0.000124895
10 *910:A3 *910:B1 0.000141592
11 *910:A3 *919:B 8.08439e-05
12 *170:6 *909:B1 1.19928e-05
13 *170:21 *909:B1 4.47209e-05
14 *170:21 *919:B 8.49205e-05
15 *886:A *908:B1_N 0
*RES
1 *907:Y *170:6 3.775 
2 *170:6 *910:A3 7.235 
3 *170:6 *170:21 1.845 
4 *170:21 *909:A3 2.74 
5 *170:21 *908:B1_N 8 
*END

*D_NET *171 0.00112081
*CONN
*I *909:B1 I *D sky130_fd_sc_hd__o31a_1
*I *910:B1 I *D sky130_fd_sc_hd__o311ai_4
*I *908:Y O *D sky130_fd_sc_hd__o21bai_2
*CAP
1 *909:B1 0.000122834
2 *910:B1 0.000120996
3 *908:Y 0.000119973
4 *171:8 0.000363804
5 *909:B1 *919:B 0.000160635
6 *910:B1 *919:B 1.52945e-05
7 *886:A *171:8 0
8 *908:A1 *171:8 1.89685e-05
9 *908:B1_N *171:8 0
10 *910:A3 *910:B1 0.000141592
11 *910:C1 *910:B1 0
12 *170:6 *909:B1 1.19928e-05
13 *170:21 *909:B1 4.47209e-05
*RES
1 *908:Y *171:8 5.745 
2 *171:8 *910:B1 6 
3 *171:8 *909:B1 6.12 
*END

*D_NET *172 0.00155671
*CONN
*I *919:B I *D sky130_fd_sc_hd__xnor2_1
*I *909:X O *D sky130_fd_sc_hd__o31a_1
*CAP
1 *919:B 0.00047213
2 *909:X 0.00047213
3 *919:B *173:12 0
4 *905:A *919:B 0
5 *908:B1_N *919:B 1.52184e-05
6 *909:A1 *919:B 4.82919e-05
7 *909:A3 *919:B 0.000124895
8 *909:B1 *919:B 0.000160635
9 *910:A2 *919:B 0
10 *910:A3 *919:B 8.08439e-05
11 *910:B1 *919:B 1.52945e-05
12 *910:C1 *919:B 0
13 *143:10 *919:B 0
14 *143:21 *919:B 0
15 *152:16 *919:B 8.23457e-05
16 *170:21 *919:B 8.49205e-05
*RES
1 *909:X *919:B 16.38 
*END

*D_NET *173 0.00322173
*CONN
*I *911:A2 I *D sky130_fd_sc_hd__a21oi_1
*I *917:C I *D sky130_fd_sc_hd__and3_1
*I *935:A1 I *D sky130_fd_sc_hd__a21o_1
*I *959:A1 I *D sky130_fd_sc_hd__a2111o_1
*I *910:Y O *D sky130_fd_sc_hd__o311ai_4
*CAP
1 *911:A2 0
2 *917:C 3.07061e-05
3 *935:A1 0
4 *959:A1 0.000148048
5 *910:Y 0.00053554
6 *173:18 0.000621914
7 *173:16 0.000592458
8 *173:12 0.000623426
9 *959:A1 *935:B1 6.28498e-05
10 *959:A1 *959:D1 5.56629e-05
11 *959:A1 *194:12 9.54469e-05
12 *173:12 *918:B 0.000163199
13 *173:12 *1103:A 0
14 *173:12 *336:28 0
15 *173:16 *918:B 4.99619e-05
16 *889:B *173:12 0
17 *905:A *173:12 0
18 *910:C1 *173:12 3.68682e-05
19 *917:A *173:18 4.82919e-05
20 *917:B *173:12 0
21 *917:B *173:16 1.83847e-05
22 *919:B *173:12 0
23 *165:14 *173:12 7.22354e-05
24 *165:22 *173:12 2.30292e-05
25 *165:22 *173:16 2.75229e-05
26 *167:10 *173:12 0
27 *167:10 *173:16 1.61831e-05
*RES
1 *910:Y *173:12 15.095 
2 *173:12 *173:16 2.1 
3 *173:16 *173:18 5.28 
4 *173:18 *959:A1 8.12 
5 *173:18 *935:A1 1.6 
6 *173:16 *917:C 2.11 
7 *173:12 *911:A2 1.6 
*END

*D_NET *174 0.00107611
*CONN
*I *912:B1 I *D sky130_fd_sc_hd__a21oi_1
*I *918:A I *D sky130_fd_sc_hd__nor2_1
*I *911:Y O *D sky130_fd_sc_hd__a21oi_1
*CAP
1 *912:B1 0.000129659
2 *918:A 0
3 *911:Y 6.98367e-05
4 *174:8 0.000199495
5 *912:B1 *1104:A 8.65905e-05
6 *912:B1 *301:20 0
7 *174:8 *918:B 0.000219182
8 *174:8 *1104:A 1.61831e-05
9 *904:A *912:B1 1.44259e-05
10 *904:B *174:8 0
11 *911:B1 *912:B1 0
12 *165:10 *912:B1 2.46089e-05
13 *165:14 *174:8 9.27255e-06
14 *167:10 *912:B1 2.96334e-05
15 *167:10 *174:8 0.000277223
*RES
1 *911:Y *174:8 4.735 
2 *174:8 *918:A 1.6 
3 *174:8 *912:B1 8.03 
*END

*D_NET *175 0.00229455
*CONN
*I *913:A2 I *D sky130_fd_sc_hd__o21ai_1
*I *916:A I *D sky130_fd_sc_hd__xor2_1
*I *912:Y O *D sky130_fd_sc_hd__a21oi_1
*CAP
1 *913:A2 0.000293508
2 *916:A 1.94973e-05
3 *912:Y 0.000275091
4 *175:10 0.000588097
5 *913:A2 *916:B 0.00018171
6 *913:A2 *931:B 8.57024e-05
7 *916:A *301:20 7.47215e-05
8 *916:A *310:10 4.39656e-05
9 *175:10 *900:A 5.05437e-05
10 *175:10 *902:A 5.83121e-06
11 *175:10 *912:A2 1.17409e-05
12 *175:10 *301:20 0.000419639
13 *175:10 *310:10 0.000238489
14 *165:10 *175:10 6.0147e-06
*RES
1 *912:Y *175:10 10.38 
2 *175:10 *916:A 4.47 
3 *175:10 *913:A2 7.5 
*END

*D_NET *176 0.000453762
*CONN
*I *914:B I *D sky130_fd_sc_hd__xnor2_1
*I *913:Y O *D sky130_fd_sc_hd__o21ai_1
*CAP
1 *914:B 9.91142e-05
2 *913:Y 9.91142e-05
3 *914:B *309:12 0
4 *914:B *321:10 7.44375e-05
5 *914:B *365:22 3.00381e-05
6 *914:A *914:B 0.000113833
7 *161:22 *914:B 3.72258e-05
*RES
1 *913:Y *914:B 9.735 
*END

*D_NET *177 0.00127058
*CONN
*I *916:B I *D sky130_fd_sc_hd__xor2_1
*I *931:B I *D sky130_fd_sc_hd__or2_1
*I *915:Y O *D sky130_fd_sc_hd__nand2b_1
*CAP
1 *916:B 7.65682e-05
2 *931:B 0.000240372
3 *915:Y 0
4 *177:4 0.00031694
5 *931:B *190:10 1.03511e-05
6 *896:B *931:B 1.02334e-05
7 *913:A1 *916:B 8.65905e-05
8 *913:A1 *931:B 2.0514e-05
9 *913:A2 *916:B 0.00018171
10 *913:A2 *931:B 8.57024e-05
11 *915:B *916:B 1.20741e-05
12 *931:A *931:B 9.68176e-05
13 *161:12 *916:B 5.78185e-05
14 *161:22 *916:B 1.10819e-05
15 *161:22 *931:B 6.38105e-05
*RES
1 *915:Y *177:4 1.6 
2 *177:4 *931:B 6.72625 
3 *177:4 *916:B 4.465 
*END

*D_NET *178 0.000773381
*CONN
*I *918:B I *D sky130_fd_sc_hd__nor2_1
*I *917:X O *D sky130_fd_sc_hd__and3_1
*CAP
1 *918:B 9.20941e-05
2 *917:X 9.20941e-05
3 *165:14 *918:B 6.47326e-05
4 *167:10 *918:B 9.21168e-05
5 *173:12 *918:B 0.000163199
6 *173:16 *918:B 4.99619e-05
7 *174:8 *918:B 0.000219182
*RES
1 *917:X *918:B 7.13 
*END

*D_NET *179 0.0015971
*CONN
*I *960:A1 I *D sky130_fd_sc_hd__o221a_1
*I *922:A_N I *D sky130_fd_sc_hd__nand2b_1
*I *920:Y O *D sky130_fd_sc_hd__nor2_1
*CAP
1 *960:A1 0.000377476
2 *922:A_N 3.95468e-05
3 *920:Y 0.000141092
4 *179:8 0.000558115
5 *922:A_N *920:A 0
6 *922:A_N *1112:A 5.16348e-05
7 *960:A1 *960:B2 7.49236e-05
8 *960:A1 *960:C1 9.4087e-05
9 *960:A1 *1112:A 0.00011686
10 *179:8 *921:B 8.78164e-05
11 *179:8 *922:B 4.85367e-05
12 *179:8 *279:16 7.00889e-06
*RES
1 *920:Y *179:8 6.12 
2 *179:8 *922:A_N 4.215 
3 *179:8 *960:A1 9.84 
*END

*D_NET *180 0.000854877
*CONN
*I *960:C1 I *D sky130_fd_sc_hd__o221a_1
*I *922:B I *D sky130_fd_sc_hd__nand2b_1
*I *921:Y O *D sky130_fd_sc_hd__nand2_1
*CAP
1 *960:C1 0.000149518
2 *922:B 9.82731e-05
3 *921:Y 0
4 *180:4 0.000247791
5 *922:B *921:B 6.10245e-05
6 *922:B *957:A 1.47347e-05
7 *960:C1 *1112:A 0.000140912
8 *960:C1 *354:18 0
9 *960:A1 *960:C1 9.4087e-05
10 *179:8 *922:B 4.85367e-05
*RES
1 *921:Y *180:4 1.6 
2 *180:4 *922:B 3.82375 
3 *180:4 *960:C1 8.72 
*END

*D_NET *181 0.002566
*CONN
*I *957:A I *D sky130_fd_sc_hd__or2_1
*I *940:A I *D sky130_fd_sc_hd__xnor2_1
*I *922:Y O *D sky130_fd_sc_hd__nand2b_1
*CAP
1 *957:A 0.000770458
2 *940:A 0.000127359
3 *922:Y 0
4 *181:4 0.000897818
5 *940:A *920:A 7.23602e-05
6 *940:A *940:B 0.000160491
7 *940:A *314:10 4.9968e-05
8 *940:A *354:18 0.000272978
9 *957:A *921:B 0.000199833
10 *922:B *957:A 1.47347e-05
*RES
1 *922:Y *181:4 1.6 
2 *181:4 *940:A 9.5 
3 *181:4 *957:A 10.345 
*END

*D_NET *182 0.00105786
*CONN
*I *941:A I *D sky130_fd_sc_hd__nand2_1
*I *939:A1 I *D sky130_fd_sc_hd__a21bo_1
*I *923:X O *D sky130_fd_sc_hd__or2_1
*CAP
1 *941:A 6.72681e-05
2 *939:A1 0.00010477
3 *923:X 8.64669e-05
4 *182:6 0.000258505
5 *939:A1 *923:B 0.0001947
6 *939:A1 *924:A 1.7396e-05
7 *939:A1 *183:8 8.65905e-05
8 *939:A1 *183:21 2.7881e-05
9 *941:A *923:A 5.02217e-05
10 *941:A *941:B 2.75538e-05
11 *941:A *1129:A 0
12 *941:A *311:12 6.28765e-05
13 *182:6 *923:A 2.8185e-05
14 *182:6 *923:B 1.08758e-05
15 *182:6 *939:A2 2.50702e-05
16 *1068:A *941:A 9.50342e-06
*RES
1 *923:X *182:6 3.085 
2 *182:6 *939:A1 8.045 
3 *182:6 *941:A 7.49 
*END

*D_NET *183 0.00179649
*CONN
*I *960:A2 I *D sky130_fd_sc_hd__o221a_1
*I *939:B1_N I *D sky130_fd_sc_hd__a21bo_1
*I *941:B I *D sky130_fd_sc_hd__nand2_1
*I *924:Y O *D sky130_fd_sc_hd__nand2_1
*CAP
1 *960:A2 0.000242611
2 *939:B1_N 2.23714e-05
3 *941:B 0.000103375
4 *924:Y 0.000183138
5 *183:21 0.000294488
6 *183:8 0.000316018
7 *939:B1_N *923:A 4.82919e-05
8 *939:B1_N *923:B 8.40269e-05
9 *939:B1_N *939:A2 1.91597e-05
10 *941:B *923:A 8.54212e-05
11 *941:B *924:A 3.64998e-06
12 *941:B *1112:A 0
13 *941:B *278:12 0
14 *960:A2 *923:A 3.09233e-05
15 *960:A2 *1112:A 0
16 *960:A2 *311:12 0
17 *960:A2 *354:18 0
18 *183:8 *923:B 6.07412e-05
19 *183:8 *940:B 8.65905e-05
20 *183:21 *923:A 7.06865e-05
21 *939:A1 *183:8 8.65905e-05
22 *939:A1 *183:21 2.7881e-05
23 *941:A *941:B 2.75538e-05
24 *1070:A *941:B 2.97004e-06
*RES
1 *924:Y *183:8 6.12 
2 *183:8 *941:B 5.685 
3 *183:8 *183:21 0.87 
4 *183:21 *939:B1_N 4.395 
5 *183:21 *960:A2 7.53 
*END

*D_NET *184 0.00252057
*CONN
*I *961:A1 I *D sky130_fd_sc_hd__o21a_1
*I *927:A I *D sky130_fd_sc_hd__nand2_1
*I *925:Y O *D sky130_fd_sc_hd__nand2_1
*CAP
1 *961:A1 0.00026203
2 *927:A 0
3 *925:Y 0.000148437
4 *184:14 0.000410467
5 *961:A1 *927:B 5.53249e-06
6 *961:A1 *937:A1 4.82863e-05
7 *961:A1 *944:B 8.65905e-05
8 *961:A1 *958:A 4.85494e-05
9 *961:A1 *958:B 4.47209e-05
10 *961:A1 *959:B1 2.16917e-05
11 *961:A1 *960:B2 8.48308e-05
12 *961:A1 *961:A2 2.75145e-05
13 *961:A1 *186:12 0.000115946
14 *961:A1 *186:20 0.000243675
15 *961:A1 *187:25 0.000504484
16 *961:A1 *196:8 0.000133763
17 *184:14 *927:B 6.28843e-05
18 *184:14 *938:A1 2.11921e-05
19 *184:14 *938:B1 0.000116165
20 *184:14 *196:8 9.50342e-06
21 *184:14 *312:12 0.000102611
22 *184:14 *365:26 2.16917e-05
*RES
1 *925:Y *184:14 6.93 
2 *184:14 *927:A 3.6 
3 *184:14 *961:A1 12.855 
*END

*D_NET *185 0.000210758
*CONN
*I *927:B I *D sky130_fd_sc_hd__nand2_1
*I *926:X O *D sky130_fd_sc_hd__or2_1
*CAP
1 *927:B 7.11708e-05
2 *926:X 7.11708e-05
3 *927:B *1108:A 0
4 *961:A1 *927:B 5.53249e-06
5 *184:14 *927:B 6.28843e-05
*RES
1 *926:X *927:B 8.58 
*END

*D_NET *186 0.00145288
*CONN
*I *937:B1 I *D sky130_fd_sc_hd__a21oi_1
*I *943:A I *D sky130_fd_sc_hd__and3_1
*I *958:A I *D sky130_fd_sc_hd__or2_1
*I *927:Y O *D sky130_fd_sc_hd__nand2_1
*CAP
1 *937:B1 0
2 *943:A 0
3 *958:A 0.000122439
4 *927:Y 0.00013578
5 *186:20 0.000269796
6 *186:12 0.000283137
7 *958:A *959:B1 4.66108e-05
8 *958:A *960:B2 8.65905e-05
9 *186:12 *937:A1 0
10 *186:20 *937:A2 4.99619e-05
11 *186:20 *943:C 5.03947e-05
12 *961:A1 *958:A 4.85494e-05
13 *961:A1 *186:12 0.000115946
14 *961:A1 *186:20 0.000243675
*RES
1 *927:Y *186:12 8.03 
2 *186:12 *186:20 3.945 
3 *186:20 *958:A 3.775 
4 *186:20 *943:A 1.6 
5 *186:12 *937:B1 1.6 
*END

*D_NET *187 0.00334242
*CONN
*I *930:A I *D sky130_fd_sc_hd__nand2_1
*I *937:A1 I *D sky130_fd_sc_hd__a21oi_1
*I *943:B I *D sky130_fd_sc_hd__and3_1
*I *960:B1 I *D sky130_fd_sc_hd__o221a_1
*I *928:Y O *D sky130_fd_sc_hd__nand2_1
*CAP
1 *930:A 3.55506e-05
2 *937:A1 0.000208227
3 *943:B 0
4 *960:B1 6.72773e-05
5 *928:Y 0
6 *187:25 0.000721234
7 *187:17 0.000824829
8 *187:4 0.000343549
9 *930:A *928:A 0
10 *937:A1 *937:A2 4.43871e-06
11 *937:A1 *944:B 2.97004e-06
12 *937:A1 *1107:A 0
13 *960:B1 *311:12 0
14 *960:B1 *354:18 6.55406e-05
15 *187:17 *928:A 3.90495e-05
16 *187:17 *929:B 8.65961e-05
17 *187:17 *930:B 2.16917e-05
18 *187:17 *189:12 4.11678e-06
19 *187:17 *311:12 0.000124895
20 *187:25 *960:B2 2.10034e-05
21 *187:25 *961:A2 1.34594e-05
22 *187:25 *961:B1 1.83847e-05
23 *187:25 *1129:A 6.95505e-05
24 *187:25 *216:12 7.23533e-05
25 *187:25 *311:12 4.49328e-05
26 *961:A1 *937:A1 4.82863e-05
27 *961:A1 *187:25 0.000504484
28 *186:12 *937:A1 0
*RES
1 *928:Y *187:4 1.6 
2 *187:4 *960:B1 6.98 
3 *187:4 *187:17 3.555 
4 *187:17 *187:25 12.115 
5 *187:25 *943:B 1.6 
6 *187:25 *937:A1 8.165 
7 *187:17 *930:A 2.215 
*END

*D_NET *188 0.000139565
*CONN
*I *930:B I *D sky130_fd_sc_hd__nand2_1
*I *929:X O *D sky130_fd_sc_hd__or2_1
*CAP
1 *930:B 3.47933e-05
2 *929:X 3.47933e-05
3 *930:B *311:12 4.82863e-05
4 *187:17 *930:B 2.16917e-05
*RES
1 *929:X *930:B 3.995 
*END

*D_NET *189 0.00171595
*CONN
*I *959:C1 I *D sky130_fd_sc_hd__a2111o_1
*I *936:A I *D sky130_fd_sc_hd__or2_1
*I *945:A I *D sky130_fd_sc_hd__xor2_1
*I *930:Y O *D sky130_fd_sc_hd__nand2_1
*CAP
1 *959:C1 4.49327e-05
2 *936:A 0
3 *945:A 0
4 *930:Y 0.000247521
5 *189:19 0.000124951
6 *189:12 0.00032754
7 *959:C1 *959:B1 1.34594e-05
8 *959:C1 *194:12 0.000279787
9 *959:C1 *195:10 0.000203178
10 *189:12 *1107:A 0
11 *189:12 *1129:A 0.000141599
12 *189:19 *945:B 0.000201508
13 *189:19 *1107:A 5.07419e-05
14 *189:19 *194:12 7.66083e-05
15 *187:17 *189:12 4.11678e-06
*RES
1 *930:Y *189:12 9.065 
2 *189:12 *945:A 1.6 
3 *189:12 *189:19 2.52 
4 *189:19 *936:A 1.6 
5 *189:19 *959:C1 4.12 
*END

*D_NET *190 0.00143807
*CONN
*I *933:A2 I *D sky130_fd_sc_hd__o21ba_1
*I *932:B2 I *D sky130_fd_sc_hd__o221ai_1
*I *931:X O *D sky130_fd_sc_hd__or2_1
*CAP
1 *933:A2 0.000219367
2 *932:B2 0
3 *931:X 0.000173249
4 *190:10 0.000392616
5 *933:A2 *191:12 0.000319855
6 *933:A2 *321:10 0
7 *896:B *190:10 3.82323e-06
8 *901:A *933:A2 0
9 *917:A *933:A2 8.65961e-05
10 *931:A *190:10 2.39058e-05
11 *931:B *190:10 1.03511e-05
12 *932:A1 *933:A2 9.50342e-06
13 *932:A1 *190:10 0.000141599
14 *932:B1 *933:A2 0
15 *932:C1 *190:10 5.72004e-05
*RES
1 *931:X *190:10 6.72 
2 *190:10 *932:B2 3.6 
3 *190:10 *933:A2 8.58 
*END

*D_NET *191 0.0012274
*CONN
*I *933:B1_N I *D sky130_fd_sc_hd__o21ba_1
*I *934:A_N I *D sky130_fd_sc_hd__and2b_1
*I *932:Y O *D sky130_fd_sc_hd__o221ai_1
*CAP
1 *933:B1_N 0
2 *934:A_N 5.42104e-05
3 *932:Y 0.000212041
4 *191:12 0.000266252
5 *934:A_N *192:8 6.90876e-05
6 *917:A *934:A_N 0.000122325
7 *932:B1 *191:12 1.16578e-05
8 *933:A2 *191:12 0.000319855
9 *934:B *934:A_N 0.000119631
10 *934:B *191:12 5.23362e-05
*RES
1 *932:Y *191:12 10.07 
2 *191:12 *934:A_N 3.775 
3 *191:12 *933:B1_N 1.6 
*END

*D_NET *192 0.00185978
*CONN
*I *935:B1 I *D sky130_fd_sc_hd__a21o_1
*I *959:D1 I *D sky130_fd_sc_hd__a2111o_1
*I *933:X O *D sky130_fd_sc_hd__o21ba_1
*CAP
1 *935:B1 5.31377e-05
2 *959:D1 0.000105754
3 *933:X 0.000432027
4 *192:8 0.000590918
5 *935:B1 *935:A2 4.40812e-05
6 *959:D1 *935:A2 2.24336e-05
7 *959:D1 *959:B1 8.65905e-05
8 *959:D1 *195:10 0.000101809
9 *192:8 *959:A2 5.05437e-05
10 *192:8 *193:8 9.66106e-05
11 *917:A *192:8 4.82919e-05
12 *934:A_N *192:8 6.90876e-05
13 *934:B *192:8 3.99879e-05
14 *959:A1 *935:B1 6.28498e-05
15 *959:A1 *959:D1 5.56629e-05
*RES
1 *933:X *192:8 9.225 
2 *192:8 *959:D1 6.21 
3 *192:8 *935:B1 4.98 
*END

*D_NET *193 0.000644506
*CONN
*I *935:A2 I *D sky130_fd_sc_hd__a21o_1
*I *959:A2 I *D sky130_fd_sc_hd__a2111o_1
*I *934:X O *D sky130_fd_sc_hd__and2b_1
*CAP
1 *935:A2 9.90387e-05
2 *959:A2 3.53364e-05
3 *934:X 8.10432e-05
4 *193:8 0.000215418
5 *935:B1 *935:A2 4.40812e-05
6 *959:D1 *935:A2 2.24336e-05
7 *192:8 *959:A2 5.05437e-05
8 *192:8 *193:8 9.66106e-05
*RES
1 *934:X *193:8 3.445 
2 *193:8 *959:A2 2.395 
3 *193:8 *935:A2 7.49 
*END

*D_NET *194 0.00160264
*CONN
*I *936:B I *D sky130_fd_sc_hd__or2_1
*I *945:B I *D sky130_fd_sc_hd__xor2_1
*I *935:X O *D sky130_fd_sc_hd__a21o_1
*CAP
1 *936:B 0
2 *945:B 7.89699e-05
3 *935:X 0.000163925
4 *194:12 0.000242895
5 *945:B *214:6 0.000239813
6 *194:12 *195:10 2.05056e-05
7 *194:12 *214:6 0.000203178
8 *959:A1 *194:12 9.54469e-05
9 *959:C1 *194:12 0.000279787
10 *189:19 *945:B 0.000201508
11 *189:19 *194:12 7.66083e-05
*RES
1 *935:X *194:12 10.28 
2 *194:12 *945:B 4.39 
3 *194:12 *936:B 1.6 
*END

*D_NET *195 0.00126012
*CONN
*I *943:C I *D sky130_fd_sc_hd__and3_1
*I *937:A2 I *D sky130_fd_sc_hd__a21oi_1
*I *936:X O *D sky130_fd_sc_hd__or2_1
*CAP
1 *943:C 5.0404e-05
2 *937:A2 6.89491e-05
3 *936:X 0.000249503
4 *195:10 0.000368856
5 *937:A2 *959:B1 0
6 *195:10 *959:B1 9.21168e-05
7 *937:A1 *937:A2 4.43871e-06
8 *959:C1 *195:10 0.000203178
9 *959:D1 *195:10 0.000101809
10 *186:20 *937:A2 4.99619e-05
11 *186:20 *943:C 5.03947e-05
12 *194:12 *195:10 2.05056e-05
*RES
1 *936:X *195:10 9.195 
2 *195:10 *937:A2 4.665 
3 *195:10 *943:C 4.2975 
*END

*D_NET *196 0.00102292
*CONN
*I *944:A I *D sky130_fd_sc_hd__nor2_1
*I *938:B1 I *D sky130_fd_sc_hd__a21o_1
*I *937:Y O *D sky130_fd_sc_hd__a21oi_1
*CAP
1 *944:A 0
2 *938:B1 0.000240464
3 *937:Y 3.71853e-05
4 *196:8 0.000277649
5 *938:B1 *938:A1 0.00012657
6 *938:B1 *944:B 5.53249e-06
7 *938:B1 *1109:A 2.65814e-06
8 *938:B1 *365:26 0
9 *196:8 *944:B 7.34286e-05
10 *961:A1 *196:8 0.000133763
11 *184:14 *938:B1 0.000116165
12 *184:14 *196:8 9.50342e-06
*RES
1 *937:Y *196:8 5.235 
2 *196:8 *938:B1 7.425 
3 *196:8 *944:A 3.6 
*END

*D_NET *197 0.00189384
*CONN
*I *939:A2 I *D sky130_fd_sc_hd__a21bo_1
*I *942:A I *D sky130_fd_sc_hd__xnor2_1
*I *938:X O *D sky130_fd_sc_hd__a21o_1
*CAP
1 *939:A2 0.000459797
2 *942:A 0
3 *938:X 0.000240297
4 *197:6 0.000700094
5 *939:A2 *923:A 0.000161529
6 *939:A2 *923:B 4.29107e-05
7 *939:A2 *942:B 3.45679e-05
8 *197:6 *1109:A 0.000210411
9 *939:B1_N *939:A2 1.91597e-05
10 *182:6 *939:A2 2.50702e-05
*RES
1 *938:X *197:6 6.19 
2 *197:6 *942:A 1.6 
3 *197:6 *939:A2 7.765 
*END

*D_NET *198 0.00113349
*CONN
*I *940:B I *D sky130_fd_sc_hd__xnor2_1
*I *939:X O *D sky130_fd_sc_hd__a21bo_1
*CAP
1 *940:B 0.000333656
2 *939:X 0.000333656
3 *940:B *923:B 0.000107105
4 *940:B *354:18 0.00011199
5 *940:A *940:B 0.000160491
6 *183:8 *940:B 8.65905e-05
*RES
1 *939:X *940:B 9.53 
*END

*D_NET *199 0.00114425
*CONN
*I *957:B I *D sky130_fd_sc_hd__or2_1
*I *942:B I *D sky130_fd_sc_hd__xnor2_1
*I *941:Y O *D sky130_fd_sc_hd__nand2_1
*CAP
1 *957:B 7.21812e-05
2 *942:B 4.23443e-05
3 *941:Y 0.00031828
4 *199:14 0.000432805
5 *957:B *1129:A 6.14689e-05
6 *957:B *311:12 5.64057e-05
7 *199:14 *1129:A 4.64184e-05
8 *199:14 *311:12 2.90275e-05
9 *939:A2 *942:B 3.45679e-05
10 *1068:A *199:14 5.0751e-05
*RES
1 *941:Y *199:14 8.055 
2 *199:14 *942:B 4.395 
3 *199:14 *957:B 5.49 
*END

*D_NET *200 0.000428929
*CONN
*I *944:B I *D sky130_fd_sc_hd__nor2_1
*I *943:X O *D sky130_fd_sc_hd__and3_1
*CAP
1 *944:B 0.000130204
2 *943:X 0.000130204
3 *944:B *1107:A 0
4 *937:A1 *944:B 2.97004e-06
5 *938:B1 *944:B 5.53249e-06
6 *961:A1 *944:B 8.65905e-05
7 *196:8 *944:B 7.34286e-05
*RES
1 *943:X *944:B 9.63 
*END

*D_NET *201 0.000938545
*CONN
*I *948:A I *D sky130_fd_sc_hd__nand2_1
*I *985:B I *D sky130_fd_sc_hd__nand2b_1
*I *946:X O *D sky130_fd_sc_hd__or2_1
*CAP
1 *948:A 5.02292e-05
2 *985:B 0
3 *946:X 0.000197714
4 *201:16 0.000247943
5 *948:A *986:D 4.99619e-05
6 *948:A *202:8 0.00015194
7 *201:16 *946:B 0
8 *201:16 *947:A 9.26619e-05
9 *201:16 *947:B 0
10 *201:16 *202:8 0.000148094
*RES
1 *946:X *201:16 9.36875 
2 *201:16 *985:B 1.6 
3 *201:16 *948:A 3.08125 
*END

*D_NET *202 0.00177088
*CONN
*I *948:B I *D sky130_fd_sc_hd__nand2_1
*I *986:A I *D sky130_fd_sc_hd__and4_1
*I *947:Y O *D sky130_fd_sc_hd__nand2_1
*CAP
1 *948:B 0
2 *986:A 0.000316808
3 *947:Y 9.24295e-05
4 *202:8 0.000409237
5 *986:A *1117:A 0.000139245
6 *202:8 *986:D 4.60584e-05
7 *202:8 *284:16 0.000467068
8 *948:A *202:8 0.00015194
9 *1076:A *986:A 0
10 *201:16 *202:8 0.000148094
*RES
1 *947:Y *202:8 6.205 
2 *202:8 *986:A 10.445 
3 *202:8 *948:B 1.6 
*END

*D_NET *203 0.00202917
*CONN
*I *984:A I *D sky130_fd_sc_hd__or3_1
*I *980:A I *D sky130_fd_sc_hd__nor3_1
*I *966:A I *D sky130_fd_sc_hd__xnor2_1
*I *948:Y O *D sky130_fd_sc_hd__nand2_1
*CAP
1 *984:A 0
2 *980:A 0.00013818
3 *966:A 0.000106511
4 *948:Y 0.000112152
5 *203:21 0.000374081
6 *203:12 0.000454564
7 *980:A *980:B 8.64421e-05
8 *980:A *980:C 4.89295e-05
9 *980:A *221:27 4.17422e-05
10 *203:12 *985:A_N 5.72091e-05
11 *203:12 *221:27 1.71013e-05
12 *203:12 *284:16 0.000129436
13 *203:21 *221:27 0.000462823
*RES
1 *948:Y *203:12 8.03 
2 *203:12 *966:A 3.085 
3 *203:12 *203:21 4.935 
4 *203:21 *980:A 4.135 
5 *203:21 *984:A 1.6 
*END

*D_NET *204 0.00141038
*CONN
*I *967:A I *D sky130_fd_sc_hd__nand2_1
*I *965:A1 I *D sky130_fd_sc_hd__a21bo_1
*I *949:X O *D sky130_fd_sc_hd__or2_1
*CAP
1 *967:A 0.000156668
2 *965:A1 2.08101e-05
3 *949:X 0.000332722
4 *204:14 0.0005102
5 *965:A1 *967:B 0
6 *967:A *967:B 5.22918e-05
7 *967:A *205:16 6.20088e-05
8 *967:A *221:8 4.66108e-05
9 *204:14 *950:A 4.85494e-05
10 *204:14 *950:B 3.00381e-05
11 *204:14 *966:B 1.4399e-05
12 *204:14 *205:16 3.64998e-06
13 *204:14 *283:10 3.86607e-05
14 *204:14 *316:12 9.37731e-05
*RES
1 *949:X *204:14 10.385 
2 *204:14 *965:A1 1.96 
3 *204:14 *967:A 4.48 
*END

*D_NET *205 0.0020698
*CONN
*I *985:A_N I *D sky130_fd_sc_hd__nand2b_1
*I *965:B1_N I *D sky130_fd_sc_hd__a21bo_1
*I *967:B I *D sky130_fd_sc_hd__nand2_1
*I *950:Y O *D sky130_fd_sc_hd__nand2_1
*CAP
1 *985:A_N 0.000328054
2 *965:B1_N 0
3 *967:B 3.79237e-05
4 *950:Y 0.000244084
5 *205:16 0.000144514
6 *205:10 0.000678728
7 *985:A_N *947:A 0
8 *985:A_N *966:B 0.00017584
9 *985:A_N *1115:A 0
10 *985:A_N *221:27 0
11 *985:A_N *284:16 0
12 *985:A_N *316:12 5.11148e-06
13 *205:10 *950:A 4.99619e-05
14 *205:10 *965:A2 0.000187485
15 *205:10 *968:B 0
16 *205:10 *221:27 0
17 *205:10 *316:12 4.2934e-05
18 *965:A1 *967:B 0
19 *967:A *967:B 5.22918e-05
20 *967:A *205:16 6.20088e-05
21 *1073:A *205:10 0
22 *203:12 *985:A_N 5.72091e-05
23 *204:14 *205:16 3.64998e-06
*RES
1 *950:Y *205:10 7.995 
2 *205:10 *205:16 3.845 
3 *205:16 *967:B 2.41 
4 *205:16 *965:B1_N 1.6 
5 *205:10 *985:A_N 10.02 
*END

*D_NET *206 0.00181315
*CONN
*I *984:B I *D sky130_fd_sc_hd__or3_1
*I *953:A I *D sky130_fd_sc_hd__nand2_1
*I *951:Y O *D sky130_fd_sc_hd__nand2_1
*CAP
1 *984:B 0.000324536
2 *953:A 0
3 *951:Y 0.000155919
4 *206:10 0.000480455
5 *984:B *953:B 5.53249e-06
6 *984:B *970:B 0
7 *984:B *980:B 0
8 *984:B *986:C 3.09233e-05
9 *984:B *1117:A 0
10 *984:B *208:10 0
11 *206:10 *953:B 6.47594e-05
12 *206:10 *964:A1 0.000158536
13 *206:10 *964:B1 7.89689e-05
14 *206:10 *1117:A 0
15 *206:10 *282:12 5.16418e-05
16 *206:10 *317:14 0.00015136
17 *206:10 *354:18 0.000310516
*RES
1 *951:Y *206:10 8.865 
2 *206:10 *953:A 3.6 
3 *206:10 *984:B 8.55 
*END

*D_NET *207 0.00020745
*CONN
*I *953:B I *D sky130_fd_sc_hd__nand2_1
*I *952:X O *D sky130_fd_sc_hd__or2_1
*CAP
1 *953:B 6.85793e-05
2 *952:X 6.85793e-05
3 *984:B *953:B 5.53249e-06
4 *206:10 *953:B 6.47594e-05
*RES
1 *952:X *953:B 8.58 
*END

*D_NET *208 0.00175475
*CONN
*I *980:B I *D sky130_fd_sc_hd__nor3_1
*I *963:B1 I *D sky130_fd_sc_hd__a21oi_1
*I *969:A I *D sky130_fd_sc_hd__and3_1
*I *953:Y O *D sky130_fd_sc_hd__nand2_1
*CAP
1 *980:B 0.000113286
2 *963:B1 6.12722e-06
3 *969:A 0
4 *953:Y 0.00029497
5 *208:14 8.41974e-05
6 *208:10 0.000486327
7 *963:B1 *963:A1 3.75126e-05
8 *963:B1 *969:C 4.89295e-05
9 *980:B *956:B 0.00013994
10 *980:B *981:A 3.29947e-05
11 *208:10 *956:B 5.23362e-05
12 *208:10 *964:B1 7.18065e-05
13 *208:10 *970:B 3.67779e-05
14 *208:14 *956:B 2.49909e-05
15 *208:14 *963:A1 8.64421e-05
16 *208:14 *969:C 9.2966e-05
17 *208:14 *209:10 1.09281e-05
18 *208:14 *209:25 4.77757e-05
19 *980:A *980:B 8.64421e-05
20 *984:B *980:B 0
21 *984:B *208:10 0
*RES
1 *953:Y *208:10 7.665 
2 *208:10 *208:14 3.83 
3 *208:14 *969:A 1.6 
4 *208:14 *963:B1 2.05 
5 *208:10 *980:B 6.375 
*END

*D_NET *209 0.0044032
*CONN
*I *963:A1 I *D sky130_fd_sc_hd__a21oi_1
*I *956:A I *D sky130_fd_sc_hd__nand2_1
*I *983:A I *D sky130_fd_sc_hd__or2_1
*I *969:B I *D sky130_fd_sc_hd__and3_1
*I *954:Y O *D sky130_fd_sc_hd__nand2_1
*CAP
1 *963:A1 6.45915e-05
2 *956:A 3.37406e-05
3 *983:A 0.000292161
4 *969:B 1.04904e-05
5 *954:Y 0.000799157
6 *209:25 0.000483096
7 *209:19 0.000254568
8 *209:10 0.00084243
9 *956:A *956:B 6.68849e-05
10 *963:A1 *969:C 4.21518e-05
11 *963:A1 *218:12 3.30017e-05
12 *983:A *956:B 1.19928e-05
13 *983:A *981:A 0.000142708
14 *983:A *983:B 3.90873e-06
15 *983:A *986:D 1.33305e-05
16 *983:A *211:8 2.65814e-06
17 *209:10 *956:B 0.000779307
18 *209:10 *970:B 4.82863e-05
19 *209:25 *956:B 0.000296081
20 *963:B1 *963:A1 3.75126e-05
21 *208:14 *963:A1 8.64421e-05
22 *208:14 *209:10 1.09281e-05
23 *208:14 *209:25 4.77757e-05
*RES
1 *954:Y *209:10 12.865 
2 *209:10 *969:B 1.96 
3 *209:10 *209:19 0.615 
4 *209:19 *209:25 5.87 
5 *209:25 *983:A 7.335 
6 *209:25 *956:A 4.47 
7 *209:19 *963:A1 3.43 
*END

*D_NET *210 0.00292025
*CONN
*I *956:B I *D sky130_fd_sc_hd__nand2_1
*I *955:X O *D sky130_fd_sc_hd__or2_1
*CAP
1 *956:B 0.000663295
2 *955:X 0.000663295
3 *956:B *955:A 0.000124895
4 *956:B *981:A 9.72361e-05
5 *956:B *358:26 0
6 *956:A *956:B 6.68849e-05
7 *980:B *956:B 0.00013994
8 *983:A *956:B 1.19928e-05
9 *208:10 *956:B 5.23362e-05
10 *208:14 *956:B 2.49909e-05
11 *209:10 *956:B 0.000779307
12 *209:25 *956:B 0.000296081
*RES
1 *955:X *956:B 23.355 
*END

*D_NET *211 0.000998666
*CONN
*I *982:C1 I *D sky130_fd_sc_hd__a211o_1
*I *971:A I *D sky130_fd_sc_hd__nand3_1
*I *962:B1 I *D sky130_fd_sc_hd__a21o_1
*I *956:Y O *D sky130_fd_sc_hd__nand2_1
*CAP
1 *982:C1 0.000121172
2 *971:A 7.8988e-05
3 *962:B1 1.75935e-05
4 *956:Y 0
5 *211:8 0.000281534
6 *211:4 0.000306125
7 *962:B1 *216:18 4.00541e-06
8 *971:A *971:B 9.53428e-06
9 *971:A *214:8 8.57024e-05
10 *971:A *216:18 4.35778e-05
11 *982:C1 *982:B1 4.77757e-05
12 *983:A *211:8 2.65814e-06
*RES
1 *956:Y *211:4 1.6 
2 *211:4 *211:8 2.535 
3 *211:8 *962:B1 1.96 
4 *211:8 *971:A 3.445 
5 *211:4 *982:C1 7.43 
*END

*D_NET *212 0.00068501
*CONN
*I *958:B I *D sky130_fd_sc_hd__or2_1
*I *961:A2 I *D sky130_fd_sc_hd__o21a_1
*I *957:X O *D sky130_fd_sc_hd__or2_1
*CAP
1 *958:B 1.48487e-05
2 *961:A2 2.29885e-05
3 *957:X 0.000137906
4 *212:12 0.000175743
5 *958:B *960:B2 8.65961e-05
6 *961:A2 *960:B2 8.49205e-05
7 *212:12 *1107:A 0
8 *212:12 *1129:A 7.63125e-05
9 *961:A1 *958:B 4.47209e-05
10 *961:A1 *961:A2 2.75145e-05
11 *187:25 *961:A2 1.34594e-05
*RES
1 *957:X *212:12 7.685 
2 *212:12 *961:A2 2.395 
3 *212:12 *958:B 2.395 
*END

*D_NET *213 0.00268222
*CONN
*I *959:B1 I *D sky130_fd_sc_hd__a2111o_1
*I *960:B2 I *D sky130_fd_sc_hd__o221a_1
*I *958:X O *D sky130_fd_sc_hd__or2_1
*CAP
1 *959:B1 0.000342395
2 *960:B2 0.000402816
3 *958:X 0
4 *213:4 0.00074521
5 *959:B1 *1107:A 0.000294414
6 *960:B2 *961:B1 0.000198051
7 *937:A2 *959:B1 0
8 *958:A *959:B1 4.66108e-05
9 *958:A *960:B2 8.65905e-05
10 *958:B *960:B2 8.65961e-05
11 *959:C1 *959:B1 1.34594e-05
12 *959:D1 *959:B1 8.65905e-05
13 *960:A1 *960:B2 7.49236e-05
14 *961:A1 *959:B1 2.16917e-05
15 *961:A1 *960:B2 8.48308e-05
16 *961:A2 *960:B2 8.49205e-05
17 *187:25 *960:B2 2.10034e-05
18 *195:10 *959:B1 9.21168e-05
*RES
1 *958:X *213:4 1.6 
2 *213:4 *960:B2 9.535 
3 *213:4 *959:B1 11.99 
*END

*D_NET *214 0.00384258
*CONN
*I *971:B I *D sky130_fd_sc_hd__nand3_1
*I *962:A1 I *D sky130_fd_sc_hd__a21o_1
*I *982:A1 I *D sky130_fd_sc_hd__a211o_1
*I *959:X O *D sky130_fd_sc_hd__a2111o_1
*CAP
1 *971:B 1.85694e-05
2 *962:A1 0
3 *982:A1 0.000139666
4 *959:X 0.000988497
5 *214:8 0.000225098
6 *214:6 0.0010925
7 *982:A1 *982:A2 0.00021559
8 *982:A1 *982:B1 1.75875e-05
9 *982:A1 *358:26 5.20968e-05
10 *214:6 *216:12 0.000511128
11 *214:6 *216:18 2.7441e-05
12 *214:8 *216:18 1.61831e-05
13 *945:B *214:6 0.000239813
14 *971:A *971:B 9.53428e-06
15 *971:A *214:8 8.57024e-05
16 *194:12 *214:6 0.000203178
*RES
1 *959:X *214:6 15.16 
2 *214:6 *214:8 1.14 
3 *214:8 *982:A1 8.57 
4 *214:8 *962:A1 1.6 
5 *214:6 *971:B 1.96 
*END

*D_NET *215 0.000362536
*CONN
*I *961:B1 I *D sky130_fd_sc_hd__o21a_1
*I *960:X O *D sky130_fd_sc_hd__o221a_1
*CAP
1 *961:B1 7.30499e-05
2 *960:X 7.30499e-05
3 *960:B2 *961:B1 0.000198051
4 *187:25 *961:B1 1.83847e-05
*RES
1 *960:X *961:B1 5.03 
*END

*D_NET *216 0.0025784
*CONN
*I *971:C I *D sky130_fd_sc_hd__nand3_1
*I *962:A2 I *D sky130_fd_sc_hd__a21o_1
*I *982:A2 I *D sky130_fd_sc_hd__a211o_1
*I *961:X O *D sky130_fd_sc_hd__o21a_1
*CAP
1 *971:C 0
2 *962:A2 0
3 *982:A2 0.000175074
4 *961:X 0.000515721
5 *216:18 0.000261317
6 *216:12 0.000601964
7 *982:A2 *233:10 3.24942e-05
8 *982:A2 *358:26 2.46007e-05
9 *216:12 *1129:A 0
10 *216:12 *311:12 4.94326e-05
11 *216:18 *972:B 2.75145e-05
12 *962:B1 *216:18 4.00541e-06
13 *971:A *216:18 4.35778e-05
14 *982:A1 *982:A2 0.00021559
15 *187:25 *216:12 7.23533e-05
16 *214:6 *216:12 0.000511128
17 *214:6 *216:18 2.7441e-05
18 *214:8 *216:18 1.61831e-05
*RES
1 *961:X *216:12 16.97 
2 *216:12 *216:18 2.205 
3 *216:18 *982:A2 8.975 
4 *216:18 *962:A2 1.6 
5 *216:12 *971:C 1.6 
*END

*D_NET *217 0.0014858
*CONN
*I *972:A I *D sky130_fd_sc_hd__and2_1
*I *969:C I *D sky130_fd_sc_hd__and3_1
*I *963:A2 I *D sky130_fd_sc_hd__a21oi_1
*I *962:X O *D sky130_fd_sc_hd__a21o_1
*CAP
1 *972:A 9.81219e-05
2 *969:C 0.000173289
3 *963:A2 2.57757e-05
4 *962:X 0.000161486
5 *217:16 0.00026873
6 *217:12 0.000329273
7 *963:A2 *358:26 5.23362e-05
8 *217:12 *358:26 6.13356e-05
9 *217:16 *972:B 0
10 *217:16 *358:26 0.000131401
11 *963:A1 *969:C 4.21518e-05
12 *963:B1 *969:C 4.89295e-05
13 *208:14 *969:C 9.2966e-05
*RES
1 *962:X *217:12 8.12 
2 *217:12 *217:16 3.635 
3 *217:16 *963:A2 4.215 
4 *217:16 *969:C 5.835 
5 *217:12 *972:A 3.085 
*END

*D_NET *218 0.00140907
*CONN
*I *970:A I *D sky130_fd_sc_hd__nor2_1
*I *964:B1 I *D sky130_fd_sc_hd__a21o_1
*I *963:Y O *D sky130_fd_sc_hd__a21oi_1
*CAP
1 *970:A 0
2 *964:B1 0.000401493
3 *963:Y 0.000149871
4 *218:12 0.000551364
5 *964:B1 *1113:A 4.85763e-05
6 *964:B1 *1117:A 0
7 *218:12 *970:B 7.39828e-05
8 *963:A1 *218:12 3.30017e-05
9 *206:10 *964:B1 7.89689e-05
10 *208:10 *964:B1 7.18065e-05
*RES
1 *963:Y *218:12 8.03 
2 *218:12 *964:B1 12.185 
3 *218:12 *970:A 1.6 
*END

*D_NET *219 0.00137529
*CONN
*I *968:A I *D sky130_fd_sc_hd__xnor2_1
*I *965:A2 I *D sky130_fd_sc_hd__a21bo_1
*I *964:X O *D sky130_fd_sc_hd__a21o_1
*CAP
1 *968:A 0
2 *965:A2 0.000110273
3 *964:X 0.000187981
4 *219:8 0.000298254
5 *965:A2 *283:10 0
6 *965:A2 *316:12 0.000125587
7 *219:8 *950:A 0
8 *219:8 *968:B 2.16833e-05
9 *219:8 *1114:A 1.34503e-05
10 *219:8 *316:12 0.000196364
11 *219:8 *354:18 1.7386e-05
12 *1073:A *219:8 0.000193801
13 *1097:A *219:8 2.30292e-05
14 *205:10 *965:A2 0.000187485
*RES
1 *964:X *219:8 5.86 
2 *219:8 *965:A2 8.63 
3 *219:8 *968:A 1.6 
*END

*D_NET *220 0.000693337
*CONN
*I *966:B I *D sky130_fd_sc_hd__xnor2_1
*I *965:X O *D sky130_fd_sc_hd__a21bo_1
*CAP
1 *966:B 0.000184291
2 *965:X 0.000184291
3 *966:B *281:10 0
4 *966:B *316:12 0.000134516
5 *985:A_N *966:B 0.00017584
6 *1038:A *966:B 0
7 *204:14 *966:B 1.4399e-05
*RES
1 *965:X *966:B 11.325 
*END

*D_NET *221 0.00263714
*CONN
*I *980:C I *D sky130_fd_sc_hd__nor3_1
*I *984:C I *D sky130_fd_sc_hd__or3_1
*I *968:B I *D sky130_fd_sc_hd__xnor2_1
*I *967:Y O *D sky130_fd_sc_hd__nand2_1
*CAP
1 *980:C 1.4896e-05
2 *984:C 0
3 *968:B 0.000115085
4 *967:Y 3.69588e-05
5 *221:27 0.000469254
6 *221:8 0.000606403
7 *968:B *284:16 0.000132842
8 *221:27 *986:C 0.00012349
9 *221:27 *284:16 0.000423461
10 *967:A *221:8 4.66108e-05
11 *980:A *980:C 4.89295e-05
12 *980:A *221:27 4.17422e-05
13 *985:A_N *221:27 0
14 *1073:A *968:B 7.58604e-05
15 *203:12 *221:27 1.71013e-05
16 *203:21 *221:27 0.000462823
17 *205:10 *968:B 0
18 *205:10 *221:27 0
19 *219:8 *968:B 2.16833e-05
*RES
1 *967:Y *221:8 4.05 
2 *221:8 *968:B 6.03 
3 *221:8 *221:27 12.245 
4 *221:27 *984:C 1.6 
5 *221:27 *980:C 2.05 
*END

*D_NET *222 0.000359464
*CONN
*I *970:B I *D sky130_fd_sc_hd__nor2_1
*I *969:X O *D sky130_fd_sc_hd__and3_1
*CAP
1 *970:B 0.000100208
2 *969:X 0.000100208
3 *984:B *970:B 0
4 *208:10 *970:B 3.67779e-05
5 *209:10 *970:B 4.82863e-05
6 *218:12 *970:B 7.39828e-05
*RES
1 *969:X *970:B 9.285 
*END

*D_NET *223 0.000305489
*CONN
*I *972:B I *D sky130_fd_sc_hd__and2_1
*I *971:Y O *D sky130_fd_sc_hd__nand3_1
*CAP
1 *972:B 0.000138987
2 *971:Y 0.000138987
3 *972:B *358:26 0
4 *216:18 *972:B 2.75145e-05
5 *217:16 *972:B 0
*RES
1 *971:Y *972:B 9.285 
*END

*D_NET *224 0.00290849
*CONN
*I *994:A I *D sky130_fd_sc_hd__xor2_1
*I *1012:A I *D sky130_fd_sc_hd__or4_1
*I *1015:C1 I *D sky130_fd_sc_hd__a211o_1
*I *973:Y O *D sky130_fd_sc_hd__xnor2_1
*CAP
1 *994:A 0
2 *1012:A 0.000209545
3 *1015:C1 0.000106177
4 *973:Y 0.000329548
5 *224:16 0.000533639
6 *224:10 0.000547464
7 *1012:A *239:33 4.82919e-05
8 *1012:A *241:12 0.000122877
9 *1012:A *260:10 0
10 *1012:A *262:10 4.82863e-05
11 *1012:A *300:20 3.00381e-05
12 *1012:A *335:18 3.47936e-05
13 *1015:C1 *1015:A1 7.52141e-05
14 *1015:C1 *1015:B1 1.63138e-05
15 *1015:C1 *335:18 1.03323e-05
16 *224:10 *973:A 0
17 *224:10 *994:B 2.30797e-05
18 *224:10 *1018:A3 0
19 *224:10 *1118:A 0.000226362
20 *224:10 *262:10 0
21 *224:10 *264:23 0
22 *224:16 *994:B 0.000180675
23 *224:16 *241:12 0.000252275
24 *224:16 *243:12 0.00011358
25 *224:16 *262:10 0
*RES
1 *973:Y *224:10 10.125 
2 *224:10 *224:16 7.82 
3 *224:16 *1015:C1 3.445 
4 *224:16 *1012:A 9.845 
5 *224:10 *994:A 3.6 
*END

*D_NET *225 0.00100797
*CONN
*I *992:A_N I *D sky130_fd_sc_hd__nand2b_1
*I *993:B1 I *D sky130_fd_sc_hd__a31o_1
*I *974:Y O *D sky130_fd_sc_hd__nor2_1
*CAP
1 *992:A_N 3.86414e-05
2 *993:B1 0
3 *974:Y 0.000167882
4 *225:10 0.000206523
5 *992:A_N *992:B 0.000239813
6 *992:A_N *993:A1 4.99619e-05
7 *992:A_N *994:B 4.99619e-05
8 *992:A_N *227:12 2.30292e-05
9 *992:A_N *227:21 6.52265e-05
10 *225:10 *1118:A 0
11 *225:10 *226:12 0.000166935
*RES
1 *974:Y *225:10 9.02 
2 *225:10 *993:B1 1.6 
3 *225:10 *992:A_N 3.775 
*END

*D_NET *226 0.00145742
*CONN
*I *993:A1 I *D sky130_fd_sc_hd__a31o_1
*I *992:B I *D sky130_fd_sc_hd__nand2b_1
*I *975:Y O *D sky130_fd_sc_hd__nand2_1
*CAP
1 *993:A1 1.05017e-05
2 *992:B 0.000192303
3 *975:Y 0.000151833
4 *226:12 0.000354638
5 *992:B *993:A2 4.00541e-06
6 *992:B *994:B 2.80945e-05
7 *992:B *1118:A 5.4155e-06
8 *992:B *243:12 9.72742e-06
9 *993:A1 *227:12 7.66083e-05
10 *226:12 *1119:A 3.86607e-05
11 *226:12 *227:12 4.99619e-05
12 *226:12 *243:12 0
13 *226:12 *286:10 7.89611e-05
14 *992:A_N *992:B 0.000239813
15 *992:A_N *993:A1 4.99619e-05
16 *1043:A *226:12 0
17 *225:10 *226:12 0.000166935
*RES
1 *975:Y *226:12 9.725 
2 *226:12 *992:B 5.54875 
3 *226:12 *993:A1 2.395 
*END

*D_NET *227 0.00285647
*CONN
*I *991:A I *D sky130_fd_sc_hd__nand2_1
*I *978:A I *D sky130_fd_sc_hd__nand2_1
*I *1015:A1 I *D sky130_fd_sc_hd__a211o_1
*I *993:A2 I *D sky130_fd_sc_hd__a31o_1
*I *976:Y O *D sky130_fd_sc_hd__nand2_1
*CAP
1 *991:A 0.000106094
2 *978:A 0
3 *1015:A1 6.79253e-05
4 *993:A2 1.90984e-05
5 *976:Y 0.000142001
6 *227:29 0.000272547
7 *227:21 0.000357278
8 *227:12 0.000207663
9 *991:A *991:B 0.000295656
10 *991:A *993:A3 0.000184712
11 *991:A *994:B 0.000124007
12 *991:A *995:A 5.74801e-05
13 *991:A *995:B 6.05513e-05
14 *1015:A1 *978:B 1.85674e-05
15 *1015:A1 *1015:B1 1.74867e-05
16 *1015:A1 *335:18 9.52646e-05
17 *227:12 *993:A3 0
18 *227:12 *286:10 9.71067e-05
19 *227:21 *993:A3 0.000160641
20 *227:21 *994:B 8.57024e-05
21 *227:29 *977:A 0
22 *227:29 *977:B 0
23 *227:29 *993:A3 1.0183e-05
24 *227:29 *1012:D 9.50342e-06
25 *227:29 *243:12 0.000172956
26 *227:29 *286:10 0
27 *992:A_N *227:12 2.30292e-05
28 *992:A_N *227:21 6.52265e-05
29 *992:B *993:A2 4.00541e-06
30 *993:A1 *227:12 7.66083e-05
31 *1015:C1 *1015:A1 7.52141e-05
32 *1092:A *227:29 0
33 *226:12 *227:12 4.99619e-05
*RES
1 *976:Y *227:12 8.555 
2 *227:12 *993:A2 1.96 
3 *227:12 *227:21 1.83 
4 *227:21 *227:29 8.125 
5 *227:29 *1015:A1 3.805 
6 *227:29 *978:A 1.6 
7 *227:21 *991:A 6.115 
*END

*D_NET *228 0.00075928
*CONN
*I *978:B I *D sky130_fd_sc_hd__nand2_1
*I *1014:B I *D sky130_fd_sc_hd__nand2b_1
*I *977:X O *D sky130_fd_sc_hd__or2_1
*CAP
1 *978:B 4.70107e-05
2 *1014:B 0.000103516
3 *977:X 9.29653e-05
4 *228:6 0.000243492
5 *978:B *335:18 7.57202e-05
6 *1014:B *1014:A_N 9.50342e-06
7 *1014:B *229:8 3.98952e-05
8 *1014:B *229:10 3.26084e-05
9 *1014:B *300:20 2.41483e-05
10 *228:6 *335:18 4.82863e-05
11 *1015:A1 *978:B 1.85674e-05
12 *1092:A *1014:B 2.35678e-05
*RES
1 *977:X *228:6 3.085 
2 *228:6 *1014:B 7.9625 
3 *228:6 *978:B 2.755 
*END

*D_NET *229 0.00187753
*CONN
*I *1012:B I *D sky130_fd_sc_hd__or4_1
*I *990:B1 I *D sky130_fd_sc_hd__a21o_1
*I *996:A I *D sky130_fd_sc_hd__nand3_1
*I *978:Y O *D sky130_fd_sc_hd__nand2_1
*CAP
1 *1012:B 0.000188733
2 *990:B1 0.000134271
3 *996:A 0
4 *978:Y 7.1539e-05
5 *229:10 0.00037012
6 *229:8 0.000496121
7 *990:B1 *239:18 1.80831e-05
8 *990:B1 *240:8 4.99619e-05
9 *1012:B *1015:A2 0.000235573
10 *1012:B *239:18 2.05056e-05
11 *229:8 *1012:D 6.02202e-05
12 *229:10 *997:B 0
13 *229:10 *1012:D 4.13092e-05
14 *229:10 *1014:A_N 0
15 *229:10 *1117:A 0
16 *229:10 *230:10 0
17 *229:10 *239:18 0.000118587
18 *1014:B *229:8 3.98952e-05
19 *1014:B *229:10 3.26084e-05
*RES
1 *978:Y *229:8 4.98 
2 *229:8 *229:10 4.95 
3 *229:10 *996:A 3.6 
4 *229:10 *990:B1 5.19 
5 *229:8 *1012:B 6.12 
*END

*D_NET *230 0.00179999
*CONN
*I *1014:A_N I *D sky130_fd_sc_hd__nand2b_1
*I *988:A I *D sky130_fd_sc_hd__nand2_1
*I *990:A1 I *D sky130_fd_sc_hd__a21o_1
*I *996:B I *D sky130_fd_sc_hd__nand3_1
*I *979:Y O *D sky130_fd_sc_hd__nand2_1
*CAP
1 *1014:A_N 0.000284585
2 *988:A 0
3 *990:A1 5.3188e-05
4 *996:B 0
5 *979:Y 0.000307215
6 *230:16 0.000136775
7 *230:12 8.35869e-05
8 *230:10 0.0005918
9 *990:A1 *990:A2 4.87129e-05
10 *990:A1 *996:C 4.68094e-05
11 *1014:A_N *320:8 0
12 *230:10 *979:A 0
13 *230:10 *1117:A 0
14 *230:16 *996:C 6.26016e-05
15 *230:16 *239:18 1.03423e-05
16 *1014:B *1014:A_N 9.50342e-06
17 *1042:A *230:10 0.000164874
18 *1057:A *1014:A_N 0
19 *1077:A *1014:A_N 0
20 *229:10 *1014:A_N 0
21 *229:10 *230:10 0
*RES
1 *979:Y *230:10 8.175 
2 *230:10 *230:12 2 
3 *230:12 *230:16 1.5 
4 *230:16 *996:B 1.6 
5 *230:16 *990:A1 2.74 
6 *230:12 *988:A 1.6 
7 *230:10 *1014:A_N 8.235 
*END

*D_NET *231 0.00066269
*CONN
*I *981:A I *D sky130_fd_sc_hd__inv_2
*I *980:Y O *D sky130_fd_sc_hd__nor3_1
*CAP
1 *981:A 0.000187255
2 *980:Y 0.000187255
3 *981:A *983:B 1.52418e-05
4 *956:B *981:A 9.72361e-05
5 *980:B *981:A 3.29947e-05
6 *983:A *981:A 0.000142708
*RES
1 *980:Y *981:A 10.875 
*END

*D_NET *232 0.000771387
*CONN
*I *982:B1 I *D sky130_fd_sc_hd__a211o_1
*I *983:B I *D sky130_fd_sc_hd__or2_1
*I *981:Y O *D sky130_fd_sc_hd__inv_2
*CAP
1 *982:B1 0.000231012
2 *983:B 8.69947e-05
3 *981:Y 0
4 *232:4 0.000318007
5 *982:B1 *986:D 2.47705e-05
6 *982:B1 *237:10 2.6088e-05
7 *981:A *983:B 1.52418e-05
8 *982:A1 *982:B1 1.75875e-05
9 *982:C1 *982:B1 4.77757e-05
10 *983:A *983:B 3.90873e-06
*RES
1 *981:Y *232:4 1.6 
2 *232:4 *983:B 2.755 
3 *232:4 *982:B1 9.26 
*END

*D_NET *233 0.0023304
*CONN
*I *1013:A1 I *D sky130_fd_sc_hd__a21o_1
*I *998:A I *D sky130_fd_sc_hd__nand3_1
*I *989:A1 I *D sky130_fd_sc_hd__a21o_1
*I *982:X O *D sky130_fd_sc_hd__a211o_1
*CAP
1 *1013:A1 0.000394771
2 *998:A 0
3 *989:A1 0.000379187
4 *982:X 0.000188825
5 *233:27 0.000487569
6 *233:10 0.00066081
7 *989:A1 *358:26 7.01289e-05
8 *1013:A1 *1013:A2 4.77719e-05
9 *233:10 *237:10 0
10 *233:10 *358:26 6.88421e-05
11 *233:27 *237:10 0
12 *982:A2 *233:10 3.24942e-05
*RES
1 *982:X *233:10 6.54 
2 *233:10 *989:A1 12.025 
3 *233:10 *233:27 1.38 
4 *233:27 *998:A 3.6 
5 *233:27 *1013:A1 9.465 
*END

*D_NET *234 0.000266805
*CONN
*I *986:B I *D sky130_fd_sc_hd__and4_1
*I *983:X O *D sky130_fd_sc_hd__or2_1
*CAP
1 *986:B 7.22417e-05
2 *983:X 7.22417e-05
3 *986:B *986:C 7.23602e-05
4 *986:B *986:D 4.99619e-05
5 *986:B *1117:A 0
*RES
1 *983:X *986:B 8.52 
*END

*D_NET *235 0.000853691
*CONN
*I *986:C I *D sky130_fd_sc_hd__and4_1
*I *984:X O *D sky130_fd_sc_hd__or3_1
*CAP
1 *986:C 0.000267405
2 *984:X 0.000267405
3 *986:C *986:D 9.21064e-05
4 *984:B *986:C 3.09233e-05
5 *986:B *986:C 7.23602e-05
6 *221:27 *986:C 0.00012349
*RES
1 *984:X *986:C 11.505 
*END

*D_NET *236 0.00113809
*CONN
*I *986:D I *D sky130_fd_sc_hd__and4_1
*I *985:Y O *D sky130_fd_sc_hd__nand2b_1
*CAP
1 *986:D 0.000430949
2 *985:Y 0.000430949
3 *948:A *986:D 4.99619e-05
4 *982:B1 *986:D 2.47705e-05
5 *983:A *986:D 1.33305e-05
6 *986:B *986:D 4.99619e-05
7 *986:C *986:D 9.21064e-05
8 *202:8 *986:D 4.60584e-05
*RES
1 *985:Y *986:D 13.95 
*END

*D_NET *237 0.00181131
*CONN
*I *998:B I *D sky130_fd_sc_hd__nand3_1
*I *1013:A2 I *D sky130_fd_sc_hd__a21o_1
*I *989:A2 I *D sky130_fd_sc_hd__a21o_1
*I *986:X O *D sky130_fd_sc_hd__and4_1
*CAP
1 *998:B 0.000183999
2 *1013:A2 0.000173373
3 *989:A2 4.01669e-05
4 *986:X 0.000270548
5 *237:12 0.000229628
6 *237:10 0.000470635
7 *989:A2 *999:A 8.52845e-05
8 *998:B *998:C 1.41165e-05
9 *998:B *999:A 5.83121e-06
10 *998:B *999:B 8.58181e-05
11 *237:10 *358:26 0.000178049
12 *982:B1 *237:10 2.6088e-05
13 *1013:A1 *1013:A2 4.77719e-05
14 *233:10 *237:10 0
15 *233:27 *237:10 0
*RES
1 *986:X *237:10 8.0325 
2 *237:10 *237:12 0.2325 
3 *237:12 *989:A2 4.395 
4 *237:12 *1013:A2 6.45 
5 *237:10 *998:B 6.1125 
*END

*D_NET *238 5.97061e-05
*CONN
*I *988:B I *D sky130_fd_sc_hd__nand2_1
*I *987:X O *D sky130_fd_sc_hd__or2_1
*CAP
1 *988:B 2.9853e-05
2 *987:X 2.9853e-05
*RES
1 *987:X *988:B 3.65 
*END

*D_NET *239 0.00362406
*CONN
*I *998:C I *D sky130_fd_sc_hd__nand3_1
*I *989:B1 I *D sky130_fd_sc_hd__a21o_1
*I *1012:C I *D sky130_fd_sc_hd__or4_1
*I *988:Y O *D sky130_fd_sc_hd__nand2_1
*CAP
1 *998:C 0.000223925
2 *989:B1 0
3 *1012:C 0
4 *988:Y 0.000459339
5 *239:33 0.000657691
6 *239:18 0.000893105
7 *998:C *999:A 0.00031496
8 *998:C *999:B 4.00541e-06
9 *998:C *240:8 1.37328e-05
10 *239:18 *996:C 6.77417e-05
11 *239:18 *997:B 8.65961e-05
12 *239:18 *1012:D 0.000192452
13 *239:18 *1015:A2 0.0001249
14 *239:18 *241:12 0
15 *239:18 *300:20 1.47347e-05
16 *239:33 *997:A 0
17 *239:33 *999:A 4.89295e-05
18 *239:33 *1013:B1 5.89229e-05
19 *239:33 *241:12 0
20 *239:33 *260:10 7.17811e-05
21 *239:33 *300:20 0.000161315
22 *990:B1 *239:18 1.80831e-05
23 *998:B *998:C 1.41165e-05
24 *1012:A *239:33 4.82919e-05
25 *1012:B *239:18 2.05056e-05
26 *229:10 *239:18 0.000118587
27 *230:16 *239:18 1.03423e-05
*RES
1 *988:Y *239:18 14.18 
2 *239:18 *1012:C 1.6 
3 *239:18 *239:33 12.1 
4 *239:33 *989:B1 1.6 
5 *239:33 *998:C 6.145 
*END

*D_NET *240 0.00219333
*CONN
*I *999:A I *D sky130_fd_sc_hd__and2_1
*I *990:A2 I *D sky130_fd_sc_hd__a21o_1
*I *996:C I *D sky130_fd_sc_hd__nand3_1
*I *989:X O *D sky130_fd_sc_hd__a21o_1
*CAP
1 *999:A 0.000158201
2 *990:A2 1.80852e-05
3 *996:C 5.01953e-05
4 *989:X 0
5 *240:8 0.000326643
6 *240:4 0.000416563
7 *996:C *997:B 8.65961e-05
8 *999:A *999:B 4.69156e-05
9 *240:8 *997:A 1.91597e-05
10 *240:8 *997:B 0.000278111
11 *240:8 *1117:A 4.82919e-05
12 *989:A2 *999:A 8.52845e-05
13 *990:A1 *990:A2 4.87129e-05
14 *990:A1 *996:C 4.68094e-05
15 *990:B1 *240:8 4.99619e-05
16 *998:B *999:A 5.83121e-06
17 *998:C *999:A 0.00031496
18 *998:C *240:8 1.37328e-05
19 *230:16 *996:C 6.26016e-05
20 *239:18 *996:C 6.77417e-05
21 *239:33 *999:A 4.89295e-05
*RES
1 *989:X *240:4 1.6 
2 *240:4 *240:8 5.55 
3 *240:8 *996:C 3.79 
4 *240:8 *990:A2 2.39875 
5 *240:4 *999:A 5.875 
*END

*D_NET *241 0.00365911
*CONN
*I *997:A I *D sky130_fd_sc_hd__and2_1
*I *991:B I *D sky130_fd_sc_hd__nand2_1
*I *993:A3 I *D sky130_fd_sc_hd__a31o_1
*I *990:X O *D sky130_fd_sc_hd__a21o_1
*CAP
1 *997:A 0.0001292
2 *991:B 0.000242564
3 *993:A3 0.000285513
4 *990:X 3.19143e-05
5 *241:12 0.000968171
6 *241:6 0.000601209
7 *991:B *995:A 1.855e-05
8 *993:A3 *243:12 0
9 *993:A3 *286:10 0
10 *997:A *997:B 0.000126568
11 *241:6 *997:B 4.99619e-05
12 *241:12 *1012:D 0
13 *241:12 *1015:A2 0.000159957
14 *241:12 *243:12 0
15 *241:12 *260:10 0
16 *241:12 *262:10 0
17 *991:A *991:B 0.000295656
18 *991:A *993:A3 0.000184712
19 *1012:A *241:12 0.000122877
20 *224:16 *241:12 0.000252275
21 *227:12 *993:A3 0
22 *227:21 *993:A3 0.000160641
23 *227:29 *993:A3 1.0183e-05
24 *239:18 *241:12 0
25 *239:33 *997:A 0
26 *239:33 *241:12 0
27 *240:8 *997:A 1.91597e-05
*RES
1 *990:X *241:6 2.05 
2 *241:6 *241:12 13.03 
3 *241:12 *993:A3 9.425 
4 *241:12 *991:B 5.44 
5 *241:6 *997:A 7.61 
*END

*D_NET *242 0.000298927
*CONN
*I *995:A I *D sky130_fd_sc_hd__xnor2_1
*I *991:Y O *D sky130_fd_sc_hd__nand2_1
*CAP
1 *995:A 9.51041e-05
2 *991:Y 9.51041e-05
3 *995:A *995:B 3.26889e-05
4 *991:A *995:A 5.74801e-05
5 *991:B *995:A 1.855e-05
*RES
1 *991:Y *995:A 5.045 
*END

*D_NET *243 0.00204871
*CONN
*I *995:B I *D sky130_fd_sc_hd__xnor2_1
*I *1015:B1 I *D sky130_fd_sc_hd__a211o_1
*I *1012:D I *D sky130_fd_sc_hd__or4_1
*I *992:Y O *D sky130_fd_sc_hd__nand2b_1
*CAP
1 *995:B 9.00928e-05
2 *1015:B1 3.40617e-06
3 *1012:D 0.000204035
4 *992:Y 0
5 *243:12 0.000406693
6 *243:4 0.000289345
7 *995:B *1118:A 4.66108e-05
8 *1012:D *1015:A2 1.91597e-05
9 *1012:D *300:20 0.000128254
10 *243:12 *994:B 0.000100139
11 *243:12 *1015:A2 2.97004e-06
12 *243:12 *1118:A 3.12176e-05
13 *991:A *995:B 6.05513e-05
14 *992:B *243:12 9.72742e-06
15 *993:A3 *243:12 0
16 *995:A *995:B 3.26889e-05
17 *1015:A1 *1015:B1 1.74867e-05
18 *1015:C1 *1015:B1 1.63138e-05
19 *1092:A *1012:D 0
20 *224:16 *243:12 0.00011358
21 *226:12 *243:12 0
22 *227:29 *1012:D 9.50342e-06
23 *227:29 *243:12 0.000172956
24 *229:8 *1012:D 6.02202e-05
25 *229:10 *1012:D 4.13092e-05
26 *239:18 *1012:D 0.000192452
27 *241:12 *1012:D 0
28 *241:12 *243:12 0
*RES
1 *992:Y *243:4 1.6 
2 *243:4 *243:12 7.34 
3 *243:12 *1012:D 8.28 
4 *243:12 *1015:B1 3.7575 
5 *243:4 *995:B 3.7 
*END

*D_NET *244 0.000976274
*CONN
*I *994:B I *D sky130_fd_sc_hd__xor2_1
*I *993:X O *D sky130_fd_sc_hd__a31o_1
*CAP
1 *994:B 0.000110315
2 *993:X 0.000110315
3 *994:B *1118:A 0.000163985
4 *991:A *994:B 0.000124007
5 *992:A_N *994:B 4.99619e-05
6 *992:B *994:B 2.80945e-05
7 *224:10 *994:B 2.30797e-05
8 *224:16 *994:B 0.000180675
9 *227:21 *994:B 8.57024e-05
10 *243:12 *994:B 0.000100139
*RES
1 *993:X *994:B 11.43 
*END

*D_NET *245 0.000879297
*CONN
*I *997:B I *D sky130_fd_sc_hd__and2_1
*I *996:Y O *D sky130_fd_sc_hd__nand3_1
*CAP
1 *997:B 0.000124247
2 *996:Y 0.000124247
3 *997:B *1117:A 2.97004e-06
4 *996:C *997:B 8.65961e-05
5 *997:A *997:B 0.000126568
6 *229:10 *997:B 0
7 *239:18 *997:B 8.65961e-05
8 *240:8 *997:B 0.000278111
9 *241:6 *997:B 4.99619e-05
*RES
1 *996:Y *997:B 11.025 
*END

*D_NET *246 0.000424266
*CONN
*I *999:B I *D sky130_fd_sc_hd__and2_1
*I *998:Y O *D sky130_fd_sc_hd__nand3_1
*CAP
1 *999:B 0.000143764
2 *998:Y 0.000143764
3 *998:B *999:B 8.58181e-05
4 *998:C *999:B 4.00541e-06
5 *999:A *999:B 4.69156e-05
*RES
1 *998:Y *999:B 5.51 
*END

*D_NET *247 0.00112664
*CONN
*I *1022:A I *D sky130_fd_sc_hd__xor2_1
*I *1032:A I *D sky130_fd_sc_hd__nand2_1
*I *1000:X O *D sky130_fd_sc_hd__xor2_1
*CAP
1 *1022:A 5.12763e-05
2 *1032:A 0.000174687
3 *1000:X 0.000118211
4 *247:8 0.000344174
5 *1032:A *1000:A 5.21046e-05
6 *1032:A *1032:B 5.53249e-06
7 *1032:A *1124:A 0
8 *1032:A *323:16 0.000116577
9 *1032:A *329:25 0.000140071
10 *247:8 *1000:A 0.000124007
*RES
1 *1000:X *247:8 3.79 
2 *247:8 *1032:A 9.785 
3 *247:8 *1022:A 2.395 
*END

*D_NET *248 0.00136698
*CONN
*I *1005:A_N I *D sky130_fd_sc_hd__and2b_1
*I *1004:B1 I *D sky130_fd_sc_hd__a21oi_1
*I *1001:Y O *D sky130_fd_sc_hd__nor2_1
*CAP
1 *1005:A_N 0
2 *1004:B1 0.000106489
3 *1001:Y 0.000247754
4 *248:10 0.000354243
5 *1004:B1 *1004:A1 9.23731e-05
6 *1004:B1 *1020:B1 4.05674e-06
7 *1004:B1 *1120:A 0
8 *1004:B1 *1124:A 0
9 *248:10 *1001:B 1.16578e-05
10 *248:10 *1004:A1 1.52945e-05
11 *248:10 *1120:A 0
12 *248:10 *1124:A 0
13 *248:10 *291:20 9.27255e-06
14 *248:10 *326:16 0.000201503
15 *248:10 *328:10 0.000309607
16 *1083:A *248:10 1.47256e-05
*RES
1 *1001:Y *248:10 9.045 
2 *248:10 *1004:B1 5.685 
3 *248:10 *1005:A_N 3.6 
*END

*D_NET *249 0.00111326
*CONN
*I *1005:B I *D sky130_fd_sc_hd__and2b_1
*I *1004:A1 I *D sky130_fd_sc_hd__a21oi_1
*I *1002:Y O *D sky130_fd_sc_hd__nand2_1
*CAP
1 *1005:B 0
2 *1004:A1 0.000262438
3 *1002:Y 0.00010722
4 *249:6 0.000369657
5 *1004:A1 *1020:B1 1.0124e-05
6 *1004:A1 *1124:A 6.14602e-05
7 *249:6 *1033:A1 0.000194694
8 *1004:B1 *1004:A1 9.23731e-05
9 *248:10 *1004:A1 1.52945e-05
*RES
1 *1002:Y *249:6 3.43 
2 *249:6 *1004:A1 9.665 
3 *249:6 *1005:B 1.6 
*END

*D_NET *250 0.00430714
*CONN
*I *1025:A I *D sky130_fd_sc_hd__nand4_1
*I *1023:A1 I *D sky130_fd_sc_hd__a31o_1
*I *1026:A1 I *D sky130_fd_sc_hd__a22o_1
*I *1004:A2 I *D sky130_fd_sc_hd__a21oi_1
*I *1008:A I *D sky130_fd_sc_hd__and3_1
*I *1003:Y O *D sky130_fd_sc_hd__nand2_1
*CAP
1 *1025:A 0.00028665
2 *1023:A1 0
3 *1026:A1 0.000364392
4 *1004:A2 0.000235434
5 *1008:A 0.000147909
6 *1003:Y 0
7 *250:18 0.000433999
8 *250:14 0.000587778
9 *250:8 0.000563685
10 *250:4 0.000677606
11 *1004:A2 *1020:B1 3.03684e-05
12 *1008:A *1008:B 0.000139933
13 *1008:A *1008:C 8.77516e-05
14 *1008:A *266:10 0
15 *1008:A *298:14 3.39426e-05
16 *1025:A *1003:A 2.30292e-05
17 *1025:A *1121:A 0.000105841
18 *1025:A *1128:A 0
19 *1025:A *257:10 2.45182e-05
20 *1025:A *257:23 5.44135e-05
21 *1025:A *290:10 0
22 *1026:A1 *1025:D 2.31387e-05
23 *1026:A1 *1026:B1 4.82919e-05
24 *1026:A1 *266:14 2.49909e-05
25 *250:8 *1003:A 9.13951e-05
26 *250:8 *1023:A2 8.12896e-06
27 *250:8 *1023:B1 4.15293e-05
28 *250:8 *326:16 8.49205e-05
29 *250:8 *326:23 5.83589e-05
30 *250:14 *1008:B 6.00003e-05
31 *250:14 *1023:A2 2.86975e-05
32 *250:14 *1023:A3 1.43396e-05
33 *250:18 *1008:B 2.60986e-05
*RES
1 *1003:Y *250:4 1.6 
2 *250:4 *250:8 5.205 
3 *250:8 *250:14 4.775 
4 *250:14 *250:18 1.065 
5 *250:18 *1008:A 7.05 
6 *250:18 *1004:A2 6.81 
7 *250:14 *1026:A1 7.86 
8 *250:8 *1023:A1 1.6 
9 *250:4 *1025:A 10.34 
*END

*D_NET *251 0.000987651
*CONN
*I *1020:B1 I *D sky130_fd_sc_hd__a21o_1
*I *1004:Y O *D sky130_fd_sc_hd__a21oi_1
*CAP
1 *1020:B1 0.000289623
2 *1004:Y 0.000289623
3 *1020:B1 *1120:A 0.000293719
4 *1020:B1 *255:10 7.01359e-05
5 *1004:A1 *1020:B1 1.0124e-05
6 *1004:A2 *1020:B1 3.03684e-05
7 *1004:B1 *1020:B1 4.05674e-06
*RES
1 *1004:Y *1020:B1 12.45 
*END

*D_NET *252 0.00268227
*CONN
*I *1008:B I *D sky130_fd_sc_hd__and3_1
*I *1024:A I *D sky130_fd_sc_hd__xnor2_1
*I *1032:B I *D sky130_fd_sc_hd__nand2_1
*I *1005:X O *D sky130_fd_sc_hd__and2b_1
*CAP
1 *1008:B 0.000348529
2 *1024:A 0
3 *1032:B 0.000204126
4 *1005:X 0
5 *252:21 0.000653377
6 *252:4 0.000508974
7 *1008:B *1120:A 0
8 *1008:B *269:6 0.000271694
9 *1008:B *298:14 0.000124473
10 *1032:B *1002:A 2.75145e-05
11 *1032:B *1002:B 4.82919e-05
12 *1032:B *1033:A1 3.79854e-05
13 *1032:B *1033:A2 2.67022e-05
14 *1032:B *329:25 0
15 *252:21 *1033:A1 0.000142211
16 *252:21 *269:6 9.80032e-06
17 *1008:A *1008:B 0.000139933
18 *1032:A *1032:B 5.53249e-06
19 *1080:A *1032:B 4.70256e-05
20 *250:14 *1008:B 6.00003e-05
21 *250:18 *1008:B 2.60986e-05
*RES
1 *1005:X *252:4 1.6 
2 *252:4 *1032:B 8.81 
3 *252:4 *252:21 4.17 
4 *252:21 *1024:A 1.6 
5 *252:21 *1008:B 12.68 
*END

*D_NET *253 0.000235873
*CONN
*I *1023:B1 I *D sky130_fd_sc_hd__a31o_1
*I *1006:Y O *D sky130_fd_sc_hd__nor2_1
*CAP
1 *1023:B1 2.55299e-05
2 *1006:Y 2.55299e-05
3 *1023:B1 *1006:B 4.82919e-05
4 *1023:B1 *1023:A2 4.50306e-05
5 *1023:B1 *326:16 4.99619e-05
6 *250:8 *1023:B1 4.15293e-05
*RES
1 *1006:Y *1023:B1 4.34 
*END

*D_NET *254 0.00258093
*CONN
*I *1025:B I *D sky130_fd_sc_hd__nand4_1
*I *1026:A2 I *D sky130_fd_sc_hd__a22o_1
*I *1008:C I *D sky130_fd_sc_hd__and3_1
*I *1007:X O *D sky130_fd_sc_hd__or2_1
*CAP
1 *1025:B 0.000210709
2 *1026:A2 0
3 *1008:C 0.000616111
4 *1007:X 9.15378e-05
5 *254:12 0.000649878
6 *254:10 0.000336014
7 *1008:C *290:10 0.000143508
8 *1008:C *298:14 0.000173603
9 *1008:C *325:12 0
10 *1025:B *1025:D 7.57828e-05
11 *1025:B *1027:B 8.22234e-06
12 *254:10 *1026:B1 2.37321e-05
13 *254:10 *257:23 8.65905e-05
14 *254:10 *290:10 3.67779e-05
15 *254:12 *1026:B1 1.0183e-05
16 *254:12 *290:10 3.05295e-05
17 *254:12 *325:12 0
18 *1008:A *1008:C 8.77516e-05
*RES
1 *1007:X *254:10 5.265 
2 *254:10 *254:12 0.615 
3 *254:12 *1008:C 12.54 
4 *254:12 *1026:A2 3.6 
5 *254:10 *1025:B 6.12 
*END

*D_NET *255 0.000612164
*CONN
*I *1020:A1 I *D sky130_fd_sc_hd__a21o_1
*I *1021:A1 I *D sky130_fd_sc_hd__a21o_1
*I *1008:X O *D sky130_fd_sc_hd__and3_1
*CAP
1 *1020:A1 4.25791e-05
2 *1021:A1 0.000167633
3 *1008:X 4.42469e-05
4 *255:10 0.000254459
5 *1021:A1 *1021:B1 3.31103e-05
6 *1020:B1 *255:10 7.01359e-05
*RES
1 *1008:X *255:10 6.47 
2 *255:10 *1021:A1 3.43 
3 *255:10 *1020:A1 2.05 
*END

*D_NET *256 0.00255374
*CONN
*I *1019:C1 I *D sky130_fd_sc_hd__a311o_1
*I *1028:A1 I *D sky130_fd_sc_hd__o2111a_1
*I *1018:C1 I *D sky130_fd_sc_hd__a311oi_1
*I *1020:A2 I *D sky130_fd_sc_hd__a21o_1
*I *1009:X O *D sky130_fd_sc_hd__and2_1
*CAP
1 *1019:C1 0.000102854
2 *1028:A1 6.2802e-05
3 *1018:C1 0.000183405
4 *1020:A2 8.83777e-05
5 *1009:X 0.000145187
6 *256:19 0.000381655
7 *256:17 0.000431292
8 *256:6 0.000426555
9 *1018:C1 *1018:B1 0.000264034
10 *1018:C1 *260:10 0
11 *1018:C1 *265:14 6.69608e-06
12 *1019:C1 *1019:A1 7.43508e-05
13 *256:17 *1019:B1 4.1152e-05
14 *256:17 *1021:A2 0
15 *256:17 *1120:A 0
16 *256:17 *258:29 9.30717e-05
17 *256:17 *266:10 0
18 *256:19 *1018:B1 5.4003e-05
19 *256:19 *1019:B1 2.78196e-05
20 *256:19 *258:29 0.000170484
21 *256:19 *265:14 0
*RES
1 *1009:X *256:6 3.775 
2 *256:6 *1020:A2 2.74 
3 *256:6 *256:17 5.675 
4 *256:17 *256:19 2.655 
5 *256:19 *1018:C1 7.575 
6 *256:19 *1028:A1 4.395 
7 *256:17 *1019:C1 5.46 
*END

*D_NET *257 0.00268106
*CONN
*I *1026:B1 I *D sky130_fd_sc_hd__a22o_1
*I *1023:A2 I *D sky130_fd_sc_hd__a31o_1
*I *1025:C I *D sky130_fd_sc_hd__nand4_1
*I *1010:Y O *D sky130_fd_sc_hd__nand2_1
*CAP
1 *1026:B1 6.03068e-05
2 *1023:A2 9.34975e-05
3 *1025:C 0
4 *1010:Y 0.000408828
5 *257:23 0.000369166
6 *257:10 0.00062419
7 *1023:A2 *1006:B 4.94474e-05
8 *1023:A2 *1023:A3 0.000229304
9 *1023:A2 *326:16 9.80032e-06
10 *1023:A2 *326:23 4.66108e-05
11 *1026:B1 *1025:D 2.3192e-05
12 *1026:B1 *290:10 0
13 *1026:B1 *325:12 0.000116158
14 *257:10 *290:10 0
15 *257:10 *290:19 4.82863e-05
16 *257:23 *1003:A 6.20787e-05
17 *257:23 *1003:B 3.74161e-05
18 *257:23 *290:10 0
19 *257:23 *291:43 4.82863e-05
20 *257:23 *326:23 0.0001249
21 *864:A_N *257:10 0
22 *1023:B1 *1023:A2 4.50306e-05
23 *1025:A *257:10 2.45182e-05
24 *1025:A *257:23 5.44135e-05
25 *1026:A1 *1026:B1 4.82919e-05
26 *250:8 *1023:A2 8.12896e-06
27 *250:14 *1023:A2 2.86975e-05
28 *254:10 *1026:B1 2.37321e-05
29 *254:10 *257:23 8.65905e-05
30 *254:12 *1026:B1 1.0183e-05
*RES
1 *1010:Y *257:10 9.36 
2 *257:10 *1025:C 3.6 
3 *257:10 *257:23 6.59 
4 *257:23 *1023:A2 4.48 
5 *257:23 *1026:B1 7.43 
*END

*D_NET *258 0.00318582
*CONN
*I *1028:A2 I *D sky130_fd_sc_hd__o2111a_1
*I *1018:B1 I *D sky130_fd_sc_hd__a311oi_1
*I *1019:B1 I *D sky130_fd_sc_hd__a311o_1
*I *1011:Y O *D sky130_fd_sc_hd__nor2_1
*CAP
1 *1028:A2 0
2 *1018:B1 0.000362962
3 *1019:B1 0.000149192
4 *1011:Y 0.000237492
5 *258:29 0.000535319
6 *258:12 0.000559041
7 *1018:B1 *260:10 0
8 *1018:B1 *265:14 4.31222e-06
9 *1019:B1 *334:6 0.000119866
10 *258:12 *846:B 2.49909e-05
11 *258:12 *298:14 0.000118527
12 *258:12 *298:18 5.23362e-05
13 *258:12 *334:6 0.000371218
14 *258:29 *266:10 0
15 *258:29 *298:18 0
16 *1018:C1 *1018:B1 0.000264034
17 *256:17 *1019:B1 4.1152e-05
18 *256:17 *258:29 9.30717e-05
19 *256:19 *1018:B1 5.4003e-05
20 *256:19 *1019:B1 2.78196e-05
21 *256:19 *258:29 0.000170484
*RES
1 *1011:Y *258:12 11.045 
2 *258:12 *1019:B1 8.375 
3 *258:12 *258:29 5.165 
4 *258:29 *1018:B1 9.54 
5 *258:29 *1028:A2 3.6 
*END

*D_NET *259 0.000847188
*CONN
*I *1013:B1 I *D sky130_fd_sc_hd__a21o_1
*I *1012:X O *D sky130_fd_sc_hd__or4_1
*CAP
1 *1013:B1 0.000258035
2 *1012:X 0.000258035
3 *1013:B1 *300:20 0.000272194
4 *239:33 *1013:B1 5.89229e-05
*RES
1 *1012:X *1013:B1 11.1 
*END

*D_NET *260 0.00402814
*CONN
*I *1019:A1 I *D sky130_fd_sc_hd__a311o_1
*I *1028:B1 I *D sky130_fd_sc_hd__o2111a_1
*I *1018:A1 I *D sky130_fd_sc_hd__a311oi_1
*I *1013:X O *D sky130_fd_sc_hd__a21o_1
*CAP
1 *1019:A1 0.000193157
2 *1028:B1 0.000199565
3 *1018:A1 0
4 *1013:X 0.000643184
5 *260:19 0.00041406
6 *260:10 0.000664522
7 *1019:A1 *1019:A2 0.000475911
8 *1019:A1 *262:19 6.52111e-05
9 *1019:A1 *265:14 0.000222813
10 *1028:B1 *1028:C1 1.52352e-05
11 *1028:B1 *1028:D1 0.000112017
12 *260:10 *262:10 0.000674289
13 *260:10 *262:19 5.56629e-05
14 *260:10 *265:14 9.50342e-06
15 *260:19 *262:19 6.45236e-05
16 *260:19 *265:14 7.23533e-05
17 *1012:A *260:10 0
18 *1018:B1 *260:10 0
19 *1018:C1 *260:10 0
20 *1019:C1 *1019:A1 7.43508e-05
21 *239:33 *260:10 7.17811e-05
22 *241:12 *260:10 0
*RES
1 *1013:X *260:10 16.74 
2 *260:10 *1018:A1 3.6 
3 *260:10 *260:19 0.87 
4 *260:19 *1028:B1 6.12 
5 *260:19 *1019:A1 9.48 
*END

*D_NET *261 0.000914253
*CONN
*I *1015:A2 I *D sky130_fd_sc_hd__a211o_1
*I *1014:Y O *D sky130_fd_sc_hd__nand2b_1
*CAP
1 *1015:A2 0.000163662
2 *1014:Y 0.000163662
3 *1015:A2 *300:20 4.43682e-05
4 *1012:B *1015:A2 0.000235573
5 *1012:D *1015:A2 1.91597e-05
6 *239:18 *1015:A2 0.0001249
7 *241:12 *1015:A2 0.000159957
8 *243:12 *1015:A2 2.97004e-06
*RES
1 *1014:Y *1015:A2 11.61 
*END

*D_NET *262 0.00416382
*CONN
*I *1019:A2 I *D sky130_fd_sc_hd__a311o_1
*I *1028:C1 I *D sky130_fd_sc_hd__o2111a_1
*I *1018:A2 I *D sky130_fd_sc_hd__a311oi_1
*I *1015:X O *D sky130_fd_sc_hd__a211o_1
*CAP
1 *1019:A2 0.000155877
2 *1028:C1 0.000144806
3 *1018:A2 0
4 *1015:X 0.000522351
5 *262:19 0.000345023
6 *262:10 0.000566691
7 *1019:A2 *1019:A3 0.000407785
8 *1019:A2 *264:23 0.000129728
9 *1028:C1 *1028:D1 0.000231783
10 *262:10 *1018:A3 9.50342e-06
11 *262:10 *335:18 6.5058e-05
12 *262:19 *1018:A3 0.000155176
13 *262:19 *264:23 3.09233e-05
14 *1012:A *262:10 4.82863e-05
15 *1019:A1 *1019:A2 0.000475911
16 *1019:A1 *262:19 6.52111e-05
17 *1028:B1 *1028:C1 1.52352e-05
18 *224:10 *262:10 0
19 *224:16 *262:10 0
20 *241:12 *262:10 0
21 *260:10 *262:10 0.000674289
22 *260:10 *262:19 5.56629e-05
23 *260:19 *262:19 6.45236e-05
*RES
1 *1015:X *262:10 13.53 
2 *262:10 *1018:A2 3.6 
3 *262:10 *262:19 2.145 
4 *262:19 *1028:C1 6.48 
5 *262:19 *1019:A2 9.405 
*END

*D_NET *263 0.000124199
*CONN
*I *1017:B1 I *D sky130_fd_sc_hd__o21ai_1
*I *1016:X O *D sky130_fd_sc_hd__a22o_1
*CAP
1 *1017:B1 4.8342e-05
2 *1016:X 4.8342e-05
3 *1017:B1 *1017:A2 2.75145e-05
*RES
1 *1016:X *1017:B1 4.01 
*END

*D_NET *264 0.00338575
*CONN
*I *1028:D1 I *D sky130_fd_sc_hd__o2111a_1
*I *1018:A3 I *D sky130_fd_sc_hd__a311oi_1
*I *1019:A3 I *D sky130_fd_sc_hd__a311o_1
*I *1017:Y O *D sky130_fd_sc_hd__o21ai_1
*CAP
1 *1028:D1 9.30373e-05
2 *1018:A3 7.51971e-05
3 *1019:A3 0.000447103
4 *1017:Y 0.000420632
5 *264:23 0.000264937
6 *264:6 0.000964437
7 *264:6 *1017:A2 3.00381e-05
8 *264:6 *324:21 1.34503e-05
9 *1019:A2 *1019:A3 0.000407785
10 *1019:A2 *264:23 0.000129728
11 *1028:B1 *1028:D1 0.000112017
12 *1028:C1 *1028:D1 0.000231783
13 *224:10 *1018:A3 0
14 *224:10 *264:23 0
15 *262:10 *1018:A3 9.50342e-06
16 *262:19 *1018:A3 0.000155176
17 *262:19 *264:23 3.09233e-05
*RES
1 *1017:Y *264:6 7.57 
2 *264:6 *1019:A3 7.87 
3 *264:6 *264:23 3.89 
4 *264:23 *1018:A3 5.49 
5 *264:23 *1028:D1 6.12 
*END

*D_NET *265 0.00163603
*CONN
*I *1029:A I *D sky130_fd_sc_hd__nor2_1
*I *1021:A2 I *D sky130_fd_sc_hd__a21o_1
*I *1018:Y O *D sky130_fd_sc_hd__a311oi_1
*CAP
1 *1029:A 0
2 *1021:A2 0.000138606
3 *1018:Y 0.000310877
4 *265:14 0.000449483
5 *1021:A2 *1120:A 7.81954e-05
6 *1021:A2 *1124:A 0
7 *1021:A2 *334:6 3.00381e-05
8 *265:14 *1029:B 0.000288997
9 *265:14 *1120:A 3.64998e-06
10 *265:14 *334:6 2.05056e-05
11 *1018:B1 *265:14 4.31222e-06
12 *1018:C1 *265:14 6.69608e-06
13 *1019:A1 *265:14 0.000222813
14 *256:17 *1021:A2 0
15 *256:19 *265:14 0
16 *260:10 *265:14 9.50342e-06
17 *260:19 *265:14 7.23533e-05
*RES
1 *1018:Y *265:14 12.305 
2 *265:14 *1021:A2 8.45 
3 *265:14 *1029:A 1.6 
*END

*D_NET *266 0.00329156
*CONN
*I *1023:A3 I *D sky130_fd_sc_hd__a31o_1
*I *1026:B2 I *D sky130_fd_sc_hd__a22o_1
*I *1025:D I *D sky130_fd_sc_hd__nand4_1
*I *1019:X O *D sky130_fd_sc_hd__a311o_1
*CAP
1 *1023:A3 0.000258993
2 *1026:B2 0
3 *1025:D 0.000217057
4 *1019:X 0.000512461
5 *266:14 0.000241611
6 *266:10 0.000796008
7 *1023:A3 *325:12 0.000114492
8 *1025:D *1027:A 0
9 *1025:D *1027:B 0.000102779
10 *266:10 *298:14 0.000159924
11 *266:10 *298:18 0.000136877
12 *266:10 *325:12 0.000360611
13 *1008:A *266:10 0
14 *1023:A2 *1023:A3 0.000229304
15 *1025:B *1025:D 7.57828e-05
16 *1026:A1 *1025:D 2.31387e-05
17 *1026:A1 *266:14 2.49909e-05
18 *1026:B1 *1025:D 2.3192e-05
19 *250:14 *1023:A3 1.43396e-05
20 *256:17 *266:10 0
21 *258:29 *266:10 0
*RES
1 *1019:X *266:10 13.185 
2 *266:10 *266:14 2.45 
3 *266:14 *1025:D 6.355 
4 *266:14 *1026:B2 1.6 
5 *266:10 *1023:A3 7.77 
*END

*D_NET *267 0.000254436
*CONN
*I *1021:B1 I *D sky130_fd_sc_hd__a21o_1
*I *1020:X O *D sky130_fd_sc_hd__a21o_1
*CAP
1 *1021:B1 0.000110663
2 *1020:X 0.000110663
3 *1021:A1 *1021:B1 3.31103e-05
*RES
1 *1020:X *1021:B1 5.045 
*END

*D_NET *268 0.000348322
*CONN
*I *1022:B I *D sky130_fd_sc_hd__xor2_1
*I *1021:X O *D sky130_fd_sc_hd__a21o_1
*CAP
1 *1022:B 0.000174161
2 *1021:X 0.000174161
*RES
1 *1021:X *1022:B 5.72 
*END

*D_NET *269 0.00168922
*CONN
*I *1024:B I *D sky130_fd_sc_hd__xnor2_1
*I *1033:A1 I *D sky130_fd_sc_hd__o21ai_1
*I *1023:X O *D sky130_fd_sc_hd__a31o_1
*CAP
1 *1024:B 0
2 *1033:A1 0.00022433
3 *1023:X 0.000117758
4 *269:6 0.000342088
5 *1033:A1 *1002:A 4.66108e-05
6 *1033:A1 *1002:B 8.01019e-05
7 *1033:A1 *1030:B1 0.00012657
8 *269:6 *1123:A 9.53743e-05
9 *1008:B *269:6 0.000271694
10 *1032:B *1033:A1 3.79854e-05
11 *249:6 *1033:A1 0.000194694
12 *252:21 *1033:A1 0.000142211
13 *252:21 *269:6 9.80032e-06
*RES
1 *1023:X *269:6 4.81 
2 *269:6 *1033:A1 7.585 
3 *269:6 *1024:B 1.6 
*END

*D_NET *270 0.00020838
*CONN
*I *1027:A I *D sky130_fd_sc_hd__nand2_1
*I *1025:Y O *D sky130_fd_sc_hd__nand4_1
*CAP
1 *1027:A 6.39073e-05
2 *1025:Y 6.39073e-05
3 *1027:A *1027:B 7.35563e-05
4 *1027:A *1121:A 7.00889e-06
5 *1025:D *1027:A 0
*RES
1 *1025:Y *1027:A 4.61 
*END

*D_NET *271 0.000808905
*CONN
*I *1027:B I *D sky130_fd_sc_hd__nand2_1
*I *1026:X O *D sky130_fd_sc_hd__a22o_1
*CAP
1 *1027:B 0.000304082
2 *1026:X 0.000304082
3 *1027:B *1121:A 1.61831e-05
4 *1025:B *1027:B 8.22234e-06
5 *1025:D *1027:B 0.000102779
6 *1027:A *1027:B 7.35563e-05
*RES
1 *1026:X *1027:B 8.045 
*END

*D_NET *272 0.000605301
*CONN
*I *1029:B I *D sky130_fd_sc_hd__nor2_1
*I *1028:X O *D sky130_fd_sc_hd__o2111a_1
*CAP
1 *1029:B 0.000158152
2 *1028:X 0.000158152
3 *265:14 *1029:B 0.000288997
*RES
1 *1028:X *1029:B 10.62 
*END

*D_NET *273 0.000287594
*CONN
*I *1031:B1 I *D sky130_fd_sc_hd__a21oi_1
*I *1030:X O *D sky130_fd_sc_hd__o211a_1
*CAP
1 *1031:B1 7.66041e-05
2 *1030:X 7.66041e-05
3 *1051:A *1031:B1 3.89528e-05
4 *1086:A *1031:B1 9.5433e-05
*RES
1 *1030:X *1031:B1 8.775 
*END

*D_NET *274 0.000813413
*CONN
*I *1033:B1 I *D sky130_fd_sc_hd__o21ai_1
*I *1031:Y O *D sky130_fd_sc_hd__a21oi_1
*CAP
1 *1033:B1 0.000224837
2 *1031:Y 0.000224837
3 *1033:B1 *1002:A 0
4 *1033:B1 *1033:A2 6.28843e-05
5 *1033:B1 *293:12 3.25831e-05
6 *1033:B1 *329:25 0.000196376
7 *1051:A *1033:B1 1.26773e-05
8 *1055:A *1033:B1 5.92191e-05
*RES
1 *1031:Y *1033:B1 10.9875 
*END

*D_NET *275 0.000296146
*CONN
*I *1033:A2 I *D sky130_fd_sc_hd__o21ai_1
*I *1032:Y O *D sky130_fd_sc_hd__nand2_1
*CAP
1 *1033:A2 0.000100817
2 *1032:Y 0.000100817
3 *1033:A2 *1002:A 0
4 *1032:B *1033:A2 2.67022e-05
5 *1033:B1 *1033:A2 6.28843e-05
6 *1051:A *1033:A2 4.9253e-06
7 *1080:A *1033:A2 0
*RES
1 *1032:Y *1033:A2 9.03 
*END

*D_NET *276 0.0022943
*CONN
*I *856:B1 I *D sky130_fd_sc_hd__a21o_1
*I *854:A1 I *D sky130_fd_sc_hd__o21ai_1
*I *827:A_N I *D sky130_fd_sc_hd__and2b_1
*I *825:Y O *D sky130_fd_sc_hd__nor2_1
*CAP
1 *856:B1 0.00011514
2 *854:A1 0
3 *827:A_N 4.65592e-05
4 *825:Y 0.000203362
5 *276:25 0.000200461
6 *276:10 0.000335242
7 *827:A_N *1131:A 0.000159957
8 *827:A_N *331:12 0.000139238
9 *276:10 *826:B 1.83756e-05
10 *276:10 *1122:A 7.68414e-06
11 *276:10 *1131:A 0.00013521
12 *276:25 *331:12 4.66108e-05
13 *829:A *856:B1 3.06704e-05
14 *829:A *276:25 7.83325e-05
15 *840:A1 *276:25 0.000122331
16 *840:A2 *276:10 0.000118081
17 *854:A2 *827:A_N 1.1561e-05
18 *854:A2 *276:10 2.15594e-05
19 *854:A2 *276:25 8.82557e-05
20 *855:B1 *856:B1 0.000164874
21 *856:A1 *856:B1 2.84447e-05
22 *856:A1 *276:25 0
23 *856:A2 *856:B1 0.000124895
24 *101:26 *856:B1 1.12578e-05
25 *101:26 *276:25 5.22918e-05
26 *105:12 *276:10 3.39069e-05
*RES
1 *825:Y *276:10 7.065 
2 *276:10 *827:A_N 5.49 
3 *276:10 *276:25 4.88 
4 *276:25 *854:A1 1.6 
5 *276:25 *856:B1 4.84 
*END

*D_NET *277 0.00193574
*CONN
*I *834:B I *D sky130_fd_sc_hd__or2_1
*I *833:B I *D sky130_fd_sc_hd__nand2_1
*I *1034:X O *D sky130_fd_sc_hd__clkbuf_1
*CAP
1 *834:B 0
2 *833:B 0.000277563
3 *1034:X 0.00020116
4 *277:12 0.000478724
5 *833:B *833:A 0.000220343
6 *833:B *836:A1 0.000109581
7 *277:12 *836:A1 0.000162311
8 *277:12 *1122:A 1.07797e-05
9 *277:12 *338:14 0.000285653
10 *835:A *833:B 2.97004e-06
11 *1052:A *277:12 0.000159964
12 *108:8 *833:B 2.66935e-05
*RES
1 *1034:X *277:12 10.355 
2 *277:12 *833:B 10.415 
3 *277:12 *834:B 1.6 
*END

*D_NET *278 0.0043611
*CONN
*I *923:B I *D sky130_fd_sc_hd__or2_1
*I *924:B I *D sky130_fd_sc_hd__nand2_1
*I *1035:X O *D sky130_fd_sc_hd__clkbuf_1
*CAP
1 *923:B 0.000144144
2 *924:B 0
3 *1035:X 0.000795871
4 *278:12 0.000940015
5 *923:B *923:A 2.30292e-05
6 *923:B *924:A 4.82863e-05
7 *923:B *354:18 8.6004e-05
8 *278:12 *924:A 5.4256e-05
9 *278:12 *1110:A 0.000914572
10 *278:12 *1112:A 0.000162332
11 *278:12 *1117:A 0.000198051
12 *278:12 *279:16 0.000148003
13 *278:12 *282:12 0.000240966
14 *278:12 *314:10 4.99619e-05
15 sum[20] *278:12 2.77283e-05
16 *939:A1 *923:B 0.0001947
17 *939:A2 *923:B 4.29107e-05
18 *939:B1_N *923:B 8.40269e-05
19 *940:B *923:B 0.000107105
20 *941:B *278:12 0
21 *1071:A *278:12 2.75229e-05
22 *182:6 *923:B 1.08758e-05
23 *183:8 *923:B 6.07412e-05
*RES
1 *1035:X *278:12 22.775 
2 *278:12 *924:B 1.6 
3 *278:12 *923:B 6.325 
*END

*D_NET *279 0.00385382
*CONN
*I *920:B I *D sky130_fd_sc_hd__nor2_1
*I *921:B I *D sky130_fd_sc_hd__nand2_1
*I *1036:X O *D sky130_fd_sc_hd__buf_1
*CAP
1 *920:B 0
2 *921:B 0.000139652
3 *1036:X 0.000916561
4 *279:16 0.00105621
5 *279:16 *920:A 4.28483e-05
6 *279:16 *1110:A 0.000314949
7 *279:16 *1112:A 0
8 *279:16 *1114:A 0.000241483
9 *279:16 *1117:A 2.26018e-05
10 *279:16 *284:16 4.66108e-05
11 *279:16 *314:10 7.07751e-05
12 *279:16 *358:26 0
13 sum[19] *279:16 4.66108e-05
14 sum[21] *279:16 8.40269e-05
15 sum[22] *279:16 0.000123592
16 *922:B *921:B 6.10245e-05
17 *957:A *921:B 0.000199833
18 *1035:A *279:16 8.26509e-05
19 *1041:A *279:16 8.23457e-05
20 *1071:A *279:16 3.09233e-05
21 *1074:A *279:16 4.82919e-05
22 *179:8 *921:B 8.78164e-05
23 *179:8 *279:16 7.00889e-06
24 *278:12 *279:16 0.000148003
*RES
1 *1036:X *279:16 23.72 
2 *279:16 *921:B 5.185 
3 *279:16 *920:B 1.6 
*END

*D_NET *280 0.000920636
*CONN
*I *832:B I *D sky130_fd_sc_hd__and2_1
*I *837:B I *D sky130_fd_sc_hd__nor2_1
*I *1037:X O *D sky130_fd_sc_hd__clkbuf_1
*CAP
1 *832:B 7.00748e-05
2 *837:B 8.63326e-05
3 *1037:X 0.00024306
4 *280:10 0.000399467
5 *837:B *837:A 0
6 *280:10 *837:A 0
7 *280:10 *315:10 0
8 *107:6 *832:B 2.75145e-05
9 *107:10 *280:10 0
10 *111:29 *837:B 8.97486e-05
11 *111:29 *280:10 4.43871e-06
*RES
1 *1037:X *280:10 6.72 
2 *280:10 *837:B 5.49 
3 *280:10 *832:B 4.74 
*END

*D_NET *281 0.000514043
*CONN
*I *954:B I *D sky130_fd_sc_hd__nand2_1
*I *955:B I *D sky130_fd_sc_hd__or2_1
*I *1038:X O *D sky130_fd_sc_hd__clkbuf_1
*CAP
1 *954:B 9.92511e-05
2 *955:B 3.3941e-05
3 *1038:X 5.49158e-05
4 *281:10 0.000188108
5 *954:B *955:A 8.55174e-05
6 *966:B *281:10 0
7 *1038:A *281:10 5.23093e-05
*RES
1 *1038:X *281:10 6.725 
2 *281:10 *955:B 2.05 
3 *281:10 *954:B 3.445 
*END

*D_NET *282 0.00127505
*CONN
*I *951:B I *D sky130_fd_sc_hd__nand2_1
*I *952:B I *D sky130_fd_sc_hd__or2_1
*I *964:A2 I *D sky130_fd_sc_hd__a21o_1
*I *1039:X O *D sky130_fd_sc_hd__buf_1
*CAP
1 *951:B 3.62651e-05
2 *952:B 0
3 *964:A2 0
4 *1039:X 0.000257132
5 *282:21 0.000150997
6 *282:12 0.000371863
7 *951:B *952:A 3.50152e-06
8 *951:B *317:14 2.80894e-05
9 *951:B *354:18 0
10 *282:12 *1114:A 0
11 *282:21 *952:A 3.50152e-06
12 *282:21 *964:A1 8.03897e-05
13 *282:21 *317:14 5.06989e-05
14 *206:10 *282:12 5.16418e-05
15 *278:12 *282:12 0.000240966
*RES
1 *1039:X *282:12 9.41 
2 *282:12 *964:A2 1.6 
3 *282:12 *282:21 2.19 
4 *282:21 *952:B 1.6 
5 *282:21 *951:B 2.41 
*END

*D_NET *283 0.000323862
*CONN
*I *949:B I *D sky130_fd_sc_hd__or2_1
*I *950:B I *D sky130_fd_sc_hd__nand2_1
*I *1040:X O *D sky130_fd_sc_hd__clkbuf_1
*CAP
1 *949:B 0
2 *950:B 1.94871e-05
3 *1040:X 4.71107e-05
4 *283:10 6.65978e-05
5 *950:B *950:A 7.25347e-05
6 *283:10 *318:12 4.94326e-05
7 *965:A2 *283:10 0
8 *204:14 *950:B 3.00381e-05
9 *204:14 *283:10 3.86607e-05
*RES
1 *1040:X *283:10 6.725 
2 *283:10 *950:B 2.41 
3 *283:10 *949:B 1.6 
*END

*D_NET *284 0.00378025
*CONN
*I *947:B I *D sky130_fd_sc_hd__nand2_1
*I *946:B I *D sky130_fd_sc_hd__or2_1
*I *1041:X O *D sky130_fd_sc_hd__clkbuf_1
*CAP
1 *947:B 2.08101e-05
2 *946:B 0.000198299
3 *1041:X 0.000568442
4 *284:16 0.00078755
5 *946:B *947:A 0
6 *946:B *1115:A 1.71013e-05
7 *284:16 *1117:A 0.00078987
8 *968:B *284:16 0.000132842
9 *985:A_N *284:16 0
10 *1041:A *284:16 5.16418e-05
11 *1073:A *284:16 0.000118438
12 *1076:A *946:B 0
13 *1097:A *284:16 2.86817e-05
14 *201:16 *946:B 0
15 *201:16 *947:B 0
16 *202:8 *284:16 0.000467068
17 *203:12 *284:16 0.000129436
18 *221:27 *284:16 0.000423461
19 *279:16 *284:16 4.66108e-05
*RES
1 *1041:X *284:16 21.56 
2 *284:16 *946:B 8.63 
3 *284:16 *947:B 1.96 
*END

*D_NET *285 0.000535045
*CONN
*I *987:B I *D sky130_fd_sc_hd__or2_1
*I *979:B I *D sky130_fd_sc_hd__nand2_1
*I *1042:X O *D sky130_fd_sc_hd__clkbuf_1
*CAP
1 *987:B 5.06588e-05
2 *979:B 2.42104e-05
3 *1042:X 8.79908e-05
4 *285:8 0.00016286
5 *979:B *979:A 5.39961e-05
6 *987:B *979:A 9.54399e-05
7 *285:8 *979:A 2.75229e-05
8 *1042:A *285:8 3.23663e-05
*RES
1 *1042:X *285:8 4.74 
2 *285:8 *979:B 4.215 
3 *285:8 *987:B 4.725 
*END

*D_NET *286 0.00106029
*CONN
*I *976:B I *D sky130_fd_sc_hd__nand2_1
*I *977:B I *D sky130_fd_sc_hd__or2_1
*I *1043:X O *D sky130_fd_sc_hd__clkbuf_1
*CAP
1 *976:B 0
2 *977:B 0.000174686
3 *1043:X 0.000195681
4 *286:10 0.000370367
5 *977:B *977:A 9.37731e-05
6 *286:10 *1119:A 9.60582e-07
7 *993:A3 *286:10 0
8 *1043:A *286:10 4.05569e-05
9 *1079:A *977:B 8.19565e-06
10 *226:12 *286:10 7.89611e-05
11 *227:12 *286:10 9.71067e-05
12 *227:29 *977:B 0
13 *227:29 *286:10 0
*RES
1 *1043:X *286:10 7.725 
2 *286:10 *977:B 6.24 
3 *286:10 *976:B 3.6 
*END

*D_NET *287 0.00270461
*CONN
*I *1016:B2 I *D sky130_fd_sc_hd__a22o_1
*I *974:B I *D sky130_fd_sc_hd__nor2_1
*I *975:B I *D sky130_fd_sc_hd__nand2_1
*I *1044:X O *D sky130_fd_sc_hd__buf_1
*CAP
1 *1016:B2 0.000240782
2 *974:B 0
3 *975:B 7.84818e-05
4 *1044:X 0.000273195
5 *287:12 0.000335055
6 *287:8 0.000770551
7 *975:B *974:A 2.84447e-05
8 *975:B *975:A 1.49498e-05
9 *975:B *323:22 5.30673e-05
10 *1016:B2 *324:21 0.000158965
11 *287:8 *1000:A 5.21046e-05
12 *287:8 *1000:B 1.61461e-05
13 *287:8 *289:8 0.000230636
14 *287:8 *323:16 0
15 *287:8 *329:25 9.9535e-05
16 *287:12 *973:A 8.18098e-05
17 *287:12 *973:B 0.000103974
18 *287:12 *1118:A 0
19 *287:12 *1119:A 0
20 *287:12 *289:8 2.59981e-05
21 *287:12 *323:22 0
22 *1055:A *287:8 0.000140912
*RES
1 *1044:X *287:8 10.59 
2 *287:8 *287:12 6.695 
3 *287:12 *975:B 3.46 
4 *287:12 *974:B 1.6 
5 *287:8 *1016:B2 6.84 
*END

*D_NET *288 0.000906514
*CONN
*I *870:B I *D sky130_fd_sc_hd__nand2_1
*I *871:B I *D sky130_fd_sc_hd__or2_1
*I *1045:X O *D sky130_fd_sc_hd__clkbuf_1
*CAP
1 *870:B 0
2 *871:B 0.000162862
3 *1045:X 0.000133677
4 *288:10 0.000296539
5 *871:B *870:A 7.63204e-05
6 *871:B *871:A 9.20603e-05
7 *871:B *304:8 1.33293e-05
8 *906:B *288:10 0
9 *907:A1 *871:B 0
10 *1061:A *871:B 0.000131726
*RES
1 *1045:X *288:10 5.43 
2 *288:10 *871:B 7.395 
3 *288:10 *870:B 3.6 
*END

*D_NET *289 0.00177687
*CONN
*I *1017:A2 I *D sky130_fd_sc_hd__o21ai_1
*I *1016:A2 I *D sky130_fd_sc_hd__a22o_1
*I *973:B I *D sky130_fd_sc_hd__xnor2_1
*I *1046:X O *D sky130_fd_sc_hd__buf_1
*CAP
1 *1017:A2 4.29486e-05
2 *1016:A2 2.12116e-05
3 *973:B 0.000117767
4 *1046:X 0.000160982
5 *289:21 6.41601e-05
6 *289:8 0.000278749
7 *973:B *1118:A 7.22354e-05
8 *973:B *323:22 7.96171e-05
9 *1016:A2 *324:21 4.82863e-05
10 *1017:A2 *324:21 0.000160641
11 *289:8 *1000:B 0.000139252
12 *289:8 *323:22 5.98004e-06
13 *289:8 *324:12 0.000166877
14 *1017:B1 *1017:A2 2.75145e-05
15 *264:6 *1017:A2 3.00381e-05
16 *287:8 *289:8 0.000230636
17 *287:12 *973:B 0.000103974
18 *287:12 *289:8 2.59981e-05
*RES
1 *1046:X *289:8 9.06 
2 *289:8 *973:B 6.885 
3 *289:8 *289:21 2 
4 *289:21 *1016:A2 2.05 
5 *289:21 *1017:A2 3.085 
*END

*D_NET *290 0.00176138
*CONN
*I *1011:B I *D sky130_fd_sc_hd__nor2_1
*I *1009:B I *D sky130_fd_sc_hd__and2_1
*I *1010:B I *D sky130_fd_sc_hd__nand2_1
*I *1047:X O *D sky130_fd_sc_hd__buf_1
*CAP
1 *1011:B 9.26991e-06
2 *1009:B 0.000104094
3 *1010:B 0
4 *1047:X 0.000393972
5 *290:19 0.000220206
6 *290:10 0.000500813
7 *1009:B *325:18 3.04064e-05
8 *1011:B *325:18 1.49498e-05
9 *290:10 *1121:A 0
10 *290:10 *291:43 0.000136884
11 *290:10 *298:14 0
12 *290:19 *1010:A 4.99619e-05
13 *290:19 *325:18 4.17174e-05
14 *1008:C *290:10 0.000143508
15 *1025:A *290:10 0
16 *1026:B1 *290:10 0
17 *254:10 *290:10 3.67779e-05
18 *254:12 *290:10 3.05295e-05
19 *257:10 *290:10 0
20 *257:10 *290:19 4.82863e-05
21 *257:23 *290:10 0
*RES
1 *1047:X *290:10 13.1 
2 *290:10 *1010:B 1.6 
3 *290:10 *290:19 2.19 
4 *290:19 *1009:B 3.1 
5 *290:19 *1011:B 1.96 
*END

*D_NET *291 0.00420558
*CONN
*I *1003:B I *D sky130_fd_sc_hd__nand2_1
*I *1007:B I *D sky130_fd_sc_hd__or2_1
*I *1006:B I *D sky130_fd_sc_hd__nor2_1
*I *1048:X O *D sky130_fd_sc_hd__buf_1
*CAP
1 *1003:B 8.12594e-06
2 *1007:B 0
3 *1006:B 0.000112495
4 *1048:X 0.000797022
5 *291:43 0.000288667
6 *291:20 0.00119006
7 *1003:B *1003:A 4.82919e-05
8 *1006:B *1123:A 0
9 *1006:B *325:12 1.31901e-05
10 *1006:B *326:16 9.03081e-05
11 *291:20 *1001:B 9.32619e-05
12 *291:20 *1099:A 4.82919e-05
13 *291:20 *1124:A 9.66106e-05
14 *291:20 *293:6 2.04648e-05
15 *291:20 *326:16 0.000124719
16 *291:20 *328:10 0.000198588
17 *291:43 *1003:A 4.66108e-05
18 *291:43 *1121:A 0
19 *291:43 *325:12 4.82863e-05
20 *291:43 *326:16 3.57349e-05
21 cout *291:20 8.49205e-05
22 sum[28] *291:20 0.000124105
23 sum[30] *291:20 0.000125539
24 *1023:A2 *1006:B 4.94474e-05
25 *1023:B1 *1006:B 4.82919e-05
26 *1047:A *291:43 3.00381e-05
27 *1048:A *291:20 5.4155e-06
28 *1083:A *291:20 8.49205e-05
29 *1085:A *291:20 0.000160314
30 *248:10 *291:20 9.27255e-06
31 *257:23 *1003:B 3.74161e-05
32 *257:23 *291:43 4.82863e-05
33 *290:10 *291:43 0.000136884
*RES
1 *1048:X *291:20 16.735 
2 *291:20 *1006:B 7.94 
3 *291:20 *291:43 9.205 
4 *291:43 *1007:B 1.6 
5 *291:43 *1003:B 2.05 
*END

*D_NET *292 0.00166938
*CONN
*I *828:B I *D sky130_fd_sc_hd__nand2_1
*I *830:B I *D sky130_fd_sc_hd__nor2_1
*I *1049:X O *D sky130_fd_sc_hd__clkbuf_1
*CAP
1 *828:B 0.000128029
2 *830:B 8.10934e-05
3 *1049:X 0.000274677
4 *292:10 0.000483799
5 *830:B *828:A 0
6 *292:10 *1100:A 9.14049e-05
7 *292:10 *1122:A 5.38986e-06
8 *292:10 *1131:A 2.75145e-05
9 *292:10 *338:14 0.000145239
10 sum[0] *292:10 8.53113e-06
11 sum[2] *828:B 1.7386e-05
12 sum[2] *292:10 4.49939e-05
13 sum[9] *292:10 2.20832e-05
14 *1034:A *292:10 3.03684e-05
15 *1059:A *830:B 0.000137199
16 *1059:A *292:10 1.0145e-05
17 *1087:A *830:B 0
18 *103:12 *828:B 0.000161529
*RES
1 *1049:X *292:10 8.955 
2 *292:10 *830:B 5.235 
3 *292:10 *828:B 6.135 
*END

*D_NET *293 0.00165688
*CONN
*I *1001:B I *D sky130_fd_sc_hd__nor2_1
*I *1030:C1 I *D sky130_fd_sc_hd__o211a_1
*I *1002:B I *D sky130_fd_sc_hd__nand2_1
*I *1050:X O *D sky130_fd_sc_hd__buf_1
*CAP
1 *1001:B 0.000144278
2 *1030:C1 0
3 *1002:B 0.000164168
4 *1050:X 0.000160453
5 *293:12 0.000218831
6 *293:6 0.000359394
7 *1001:B *1099:A 4.82919e-05
8 *1001:B *328:10 1.85674e-05
9 *1002:B *1030:B1 6.59044e-05
10 *293:12 *1002:A 0
11 *293:12 *1099:A 3.86529e-05
12 *293:12 *328:14 0
13 *1032:B *1002:B 4.82919e-05
14 *1033:A1 *1002:B 8.01019e-05
15 *1033:B1 *293:12 3.25831e-05
16 *1048:A *293:6 1.4399e-05
17 *1055:A *293:12 0.000137578
18 *248:10 *1001:B 1.16578e-05
19 *291:20 *1001:B 9.32619e-05
20 *291:20 *293:6 2.04648e-05
*RES
1 *1050:X *293:6 3.43 
2 *293:6 *293:12 5.635 
3 *293:12 *1002:B 4.84 
4 *293:12 *1030:C1 1.6 
5 *293:6 *1001:B 4.75 
*END

*D_NET *294 0.00159823
*CONN
*I *1030:A2 I *D sky130_fd_sc_hd__o211a_1
*I *1031:A2 I *D sky130_fd_sc_hd__a21oi_1
*I *1000:B I *D sky130_fd_sc_hd__xor2_1
*I *1051:X O *D sky130_fd_sc_hd__buf_1
*CAP
1 *1030:A2 4.92074e-05
2 *1031:A2 0
3 *1000:B 0.000162052
4 *1051:X 8.68424e-05
5 *294:21 6.46646e-05
6 *294:8 0.000264352
7 *1000:B *1000:A 2.49909e-05
8 *1000:B *324:12 0.000137578
9 *1030:A2 *1030:A1 0.000139238
10 *1044:A *1000:B 3.97211e-05
11 *1044:A *1030:A2 9.50342e-06
12 *1044:A *294:21 5.16418e-05
13 *1051:A *294:8 0.000158066
14 *1055:A *1000:B 6.48652e-05
15 *1055:A *1030:A2 8.34348e-05
16 *1081:A *1000:B 0
17 *1086:A *1000:B 7.45446e-05
18 *1086:A *1030:A2 7.90356e-06
19 *1086:A *294:21 2.42236e-05
20 *287:8 *1000:B 1.61461e-05
21 *289:8 *1000:B 0.000139252
*RES
1 *1051:X *294:8 5.085 
2 *294:8 *1000:B 7.98 
3 *294:8 *294:21 0.615 
4 *294:21 *1031:A2 3.6 
5 *294:21 *1030:A2 5.49 
*END

*D_NET *295 0.00111336
*CONN
*I *826:B I *D sky130_fd_sc_hd__nand2_1
*I *825:B I *D sky130_fd_sc_hd__nor2_1
*I *1052:X O *D sky130_fd_sc_hd__clkbuf_1
*CAP
1 *826:B 0.000164973
2 *825:B 0
3 *1052:X 5.85203e-05
4 *295:10 0.000223493
5 *826:B *825:A 0.000148285
6 *826:B *1122:A 8.40269e-05
7 *295:10 *302:10 7.81954e-05
8 *101:14 *826:B 0.000198945
9 *103:12 *295:10 0.000138551
10 *276:10 *826:B 1.83756e-05
*RES
1 *1052:X *295:10 7.235 
2 *295:10 *825:B 1.6 
3 *295:10 *826:B 5.875 
*END

*D_NET *296 0.000836781
*CONN
*I *851:B I *D sky130_fd_sc_hd__nand2_1
*I *852:B I *D sky130_fd_sc_hd__or2_1
*I *1053:X O *D sky130_fd_sc_hd__clkbuf_1
*CAP
1 *851:B 0
2 *852:B 9.29583e-05
3 *1053:X 0.000300451
4 *296:8 0.00039341
5 *852:B *852:A 4.99619e-05
*RES
1 *1053:X *296:8 6.115 
2 *296:8 *852:B 3.1 
3 *296:8 *851:B 1.6 
*END

*D_NET *297 0.000584781
*CONN
*I *847:B I *D sky130_fd_sc_hd__and2_1
*I *849:B I *D sky130_fd_sc_hd__nor2_1
*I *1054:X O *D sky130_fd_sc_hd__clkbuf_1
*CAP
1 *847:B 8.63224e-05
2 *849:B 0
3 *1054:X 0.000131195
4 *297:12 0.000217518
5 *847:B *849:A 7.34326e-05
6 *297:12 *1127:A 0
7 *297:12 *333:12 7.63125e-05
*RES
1 *1054:X *297:12 7.685 
2 *297:12 *849:B 1.6 
3 *297:12 *847:B 3.46 
*END

*D_NET *298 0.00476675
*CONN
*I *846:B I *D sky130_fd_sc_hd__xor2_1
*I *878:B2 I *D sky130_fd_sc_hd__a22o_1
*I *861:A2 I *D sky130_fd_sc_hd__a21oi_1
*I *1055:X O *D sky130_fd_sc_hd__buf_1
*CAP
1 *846:B 0.000145868
2 *878:B2 0
3 *861:A2 0.00023416
4 *1055:X 0.00105909
5 *298:18 0.000311885
6 *298:14 0.00128269
7 *846:B *846:A 0.000279787
8 *846:B *334:6 9.80032e-06
9 *861:A2 *861:A1 0.000206541
10 *298:14 *325:12 0.000206123
11 *298:18 *878:A1 4.18603e-06
12 *298:18 *334:12 5.2089e-05
13 *879:B1 *861:A2 2.75229e-05
14 *1008:A *298:14 3.39426e-05
15 *1008:B *298:14 0.000124473
16 *1008:C *298:14 0.000173603
17 *1086:A *298:14 0.000122331
18 *258:12 *846:B 2.49909e-05
19 *258:12 *298:14 0.000118527
20 *258:12 *298:18 5.23362e-05
21 *258:29 *298:18 0
22 *266:10 *298:14 0.000159924
23 *266:10 *298:18 0.000136877
24 *290:10 *298:14 0
*RES
1 *1055:X *298:14 21.81 
2 *298:14 *298:18 4.145 
3 *298:18 *861:A2 6.22 
4 *298:18 *878:B2 1.6 
5 *298:14 *846:B 6.81 
*END

*D_NET *299 0.000658409
*CONN
*I *868:B I *D sky130_fd_sc_hd__nand2_1
*I *867:B I *D sky130_fd_sc_hd__nor2_1
*I *1056:X O *D sky130_fd_sc_hd__clkbuf_1
*CAP
1 *868:B 0
2 *867:B 5.43518e-05
3 *1056:X 9.06353e-05
4 *299:10 0.000144987
5 *867:B *868:A 6.93138e-05
6 *867:B *336:28 0.000163199
7 *299:10 *301:20 2.97004e-06
8 *299:10 *305:16 0
9 *1056:A *299:10 1.9615e-05
10 *134:10 *867:B 9.27255e-06
11 *134:10 *299:10 7.4027e-05
12 *135:10 *867:B 3.00381e-05
13 *135:10 *299:10 0
*RES
1 *1056:X *299:10 7.235 
2 *299:10 *867:B 3.805 
3 *299:10 *868:B 1.6 
*END

*D_NET *300 0.00548063
*CONN
*I *878:A2 I *D sky130_fd_sc_hd__a22o_1
*I *879:A2 I *D sky130_fd_sc_hd__o21ai_1
*I *845:B I *D sky130_fd_sc_hd__xor2_1
*I *1057:X O *D sky130_fd_sc_hd__buf_1
*CAP
1 *878:A2 0.000104079
2 *879:A2 0
3 *845:B 0
4 *1057:X 0.00154128
5 *300:37 0.00024532
6 *300:20 0.00168252
7 *878:A2 *878:A1 0.000208491
8 *878:A2 *335:27 8.53113e-06
9 *300:20 *335:18 0.000750612
10 *300:37 *335:18 3.25831e-05
11 *300:37 *335:27 0.000110683
12 *879:B1 *878:A2 0.000117825
13 *1012:A *300:20 3.00381e-05
14 *1012:D *300:20 0.000128254
15 *1013:B1 *300:20 0.000272194
16 *1014:B *300:20 2.41483e-05
17 *1015:A2 *300:20 4.43682e-05
18 *146:12 *878:A2 3.64998e-06
19 *239:18 *300:20 1.47347e-05
20 *239:33 *300:20 0.000161315
*RES
1 *1057:X *300:20 31.08 
2 *300:20 *845:B 3.6 
3 *300:20 *300:37 4.805 
4 *300:37 *879:A2 1.6 
5 *300:37 *878:A2 8.45 
*END

*D_NET *301 0.00478599
*CONN
*I *876:B I *D sky130_fd_sc_hd__and2_1
*I *883:B I *D sky130_fd_sc_hd__nor2_1
*I *1058:X O *D sky130_fd_sc_hd__buf_1
*CAP
1 *876:B 1.17282e-05
2 *883:B 0.000127393
3 *1058:X 0.00131671
4 *301:20 0.00145583
5 *876:B *883:A 4.00541e-06
6 *883:B *883:A 8.1512e-05
7 *301:20 *883:A 5.30673e-05
8 *301:20 *1105:A 0
9 *301:20 *1106:A 4.4858e-05
10 *301:20 *305:16 0
11 *301:20 *307:21 7.3664e-05
12 *301:20 *308:12 9.6628e-05
13 *301:20 *310:10 7.45712e-05
14 *301:20 *321:10 0
15 *301:20 *321:27 0
16 *301:20 *336:28 0.000580831
17 *301:20 *365:22 0
18 sum[13] *301:20 0
19 *904:A *301:20 5.16418e-05
20 *912:B1 *301:20 0
21 *915:A_N *301:20 0
22 *916:A *301:20 7.47215e-05
23 *919:A *301:20 0.000124895
24 *135:10 *301:20 4.82863e-05
25 *160:10 *301:20 0
26 *161:12 *301:20 7.23533e-05
27 *165:10 *301:20 7.06865e-05
28 *175:10 *301:20 0.000419639
29 *299:10 *301:20 2.97004e-06
*RES
1 *1058:X *301:20 32.045 
2 *301:20 *883:B 3.79 
3 *301:20 *876:B 1.96 
*END

*D_NET *302 0.00344085
*CONN
*I *874:B I *D sky130_fd_sc_hd__or2_1
*I *873:B I *D sky130_fd_sc_hd__nand2_1
*I *1059:X O *D sky130_fd_sc_hd__clkbuf_1
*CAP
1 *874:B 0
2 *873:B 8.22122e-05
3 *1059:X 0.000610233
4 *302:10 0.000692445
5 *873:B *873:A 0.000141599
6 *302:10 *1101:A 0
7 *302:10 *1125:A 0
8 *302:10 *1131:A 0.00123901
9 *302:10 *327:8 0.000120655
10 *840:A2 *302:10 0.00013521
11 *841:A *302:10 6.74079e-05
12 *841:B *302:10 8.2644e-05
13 *875:A *873:B 0
14 *888:A2 *873:B 8.97642e-05
15 *888:A2 *302:10 1.89685e-05
16 *1052:A *302:10 4.9968e-05
17 *103:12 *302:10 2.76194e-05
18 *140:8 *873:B 4.9253e-06
19 *295:10 *302:10 7.81954e-05
*RES
1 *1059:X *302:10 19.89 
2 *302:10 *873:B 5.94 
3 *302:10 *874:B 3.6 
*END

*D_NET *303 0.000874078
*CONN
*I *834:A I *D sky130_fd_sc_hd__or2_1
*I *833:A I *D sky130_fd_sc_hd__nand2_1
*I *1060:X O *D sky130_fd_sc_hd__clkbuf_1
*CAP
1 *834:A 0
2 *833:A 0.000171915
3 *1060:X 0.000127033
4 *303:10 0.000298948
5 *833:B *833:A 0.000220343
6 *835:A *833:A 0
7 *835:A *303:10 0
8 *835:B *303:10 4.05358e-05
9 *844:B *303:10 1.53032e-05
10 *1084:A *833:A 0
11 *1084:A *303:10 0
*RES
1 *1060:X *303:10 5.685 
2 *303:10 *833:A 6.975 
3 *303:10 *834:A 3.6 
*END

*D_NET *304 0.000648855
*CONN
*I *870:A I *D sky130_fd_sc_hd__nand2_1
*I *871:A I *D sky130_fd_sc_hd__or2_1
*I *1061:X O *D sky130_fd_sc_hd__clkbuf_1
*CAP
1 *870:A 4.85574e-05
2 *871:A 9.20351e-05
3 *1061:X 3.4662e-05
4 *304:8 0.000175254
5 *871:B *870:A 7.63204e-05
6 *871:B *871:A 9.20603e-05
7 *871:B *304:8 1.33293e-05
8 *907:A1 *870:A 7.26629e-05
9 *907:A1 *871:A 4.39734e-05
*RES
1 *1061:X *304:8 4.05 
2 *304:8 *871:A 5.61 
3 *304:8 *870:A 5.235 
*END

*D_NET *305 0.0022948
*CONN
*I *868:A I *D sky130_fd_sc_hd__nand2_1
*I *867:A I *D sky130_fd_sc_hd__nor2_1
*I *1062:X O *D sky130_fd_sc_hd__clkbuf_1
*CAP
1 *868:A 9.27761e-05
2 *867:A 0
3 *1062:X 0.00054986
4 *305:16 0.000642636
5 *305:16 *310:10 0
6 *305:16 *336:28 0.000584637
7 sum[12] *305:16 1.92979e-05
8 *867:B *868:A 6.93138e-05
9 *904:B *305:16 0.000138257
10 *1063:A *305:16 8.97963e-05
11 *1093:A *305:16 5.51589e-05
12 *134:10 *868:A 5.30673e-05
13 *299:10 *305:16 0
14 *301:20 *305:16 0
*RES
1 *1062:X *305:16 18.185 
2 *305:16 *867:A 1.6 
3 *305:16 *868:A 3.805 
*END

*D_NET *306 0.000759477
*CONN
*I *903:A I *D sky130_fd_sc_hd__or2_1
*I *902:A I *D sky130_fd_sc_hd__nand2_1
*I *1063:X O *D sky130_fd_sc_hd__clkbuf_1
*CAP
1 *903:A 0
2 *902:A 0.000142384
3 *1063:X 0.000104555
4 *306:12 0.000246939
5 *902:A *900:A 9.72742e-06
6 *902:A *903:B 4.82919e-05
7 *902:A *912:A2 5.4155e-06
8 *306:12 *310:10 5.21627e-05
9 *306:12 *336:28 0.000139245
10 *165:10 *902:A 4.9253e-06
11 *175:10 *902:A 5.83121e-06
*RES
1 *1063:X *306:12 7.685 
2 *306:12 *902:A 4.15 
3 *306:12 *903:A 1.6 
*END

*D_NET *307 0.00131069
*CONN
*I *912:A1 I *D sky130_fd_sc_hd__a21oi_1
*I *900:A I *D sky130_fd_sc_hd__or2_1
*I *899:A I *D sky130_fd_sc_hd__nand2_1
*I *1064:X O *D sky130_fd_sc_hd__buf_1
*CAP
1 *912:A1 0
2 *900:A 9.31619e-05
3 *899:A 0.000169512
4 *1064:X 0.000178427
5 *307:21 0.00018514
6 *307:6 0.000439917
7 *900:A *912:A2 5.75321e-05
8 *900:A *321:27 5.30673e-05
9 *307:21 *321:27 0
10 *902:A *900:A 9.72742e-06
11 *175:10 *900:A 5.05437e-05
12 *301:20 *307:21 7.3664e-05
*RES
1 *1064:X *307:6 3.43 
2 *307:6 *899:A 4.3 
3 *307:6 *307:21 5.635 
4 *307:21 *900:A 4.15 
5 *307:21 *912:A1 1.6 
*END

*D_NET *308 0.000492885
*CONN
*I *898:A I *D sky130_fd_sc_hd__nand2_1
*I *897:A I *D sky130_fd_sc_hd__nor2_1
*I *1065:X O *D sky130_fd_sc_hd__clkbuf_1
*CAP
1 *898:A 9.71884e-06
2 *897:A 0
3 *1065:X 8.73291e-05
4 *308:12 9.7048e-05
5 *898:A *898:B 4.82919e-05
6 *898:A *365:22 4.82919e-05
7 *308:12 *332:12 7.55391e-05
8 *1089:A *308:12 3.00381e-05
9 *301:20 *308:12 9.6628e-05
*RES
1 *1065:X *308:12 7.685 
2 *308:12 *897:A 1.6 
3 *308:12 *898:A 2.05 
*END

*D_NET *309 0.000939901
*CONN
*I *895:A I *D sky130_fd_sc_hd__nand2_1
*I *894:A I *D sky130_fd_sc_hd__nor2_1
*I *1066:X O *D sky130_fd_sc_hd__clkbuf_1
*CAP
1 *895:A 0.000134052
2 *894:A 0
3 *1066:X 0.000194154
4 *309:12 0.000328206
5 *895:A *895:B 4.82863e-05
6 *895:A *365:22 6.05513e-05
7 *309:12 *321:10 0
8 *309:12 *332:12 4.99619e-05
9 *309:12 *343:12 7.44453e-05
10 *914:A *309:12 4.18603e-06
11 *914:B *309:12 0
12 *1089:A *309:12 4.60584e-05
*RES
1 *1066:X *309:12 8.72 
2 *309:12 *894:A 1.6 
3 *309:12 *895:A 4.15 
*END

*D_NET *310 0.00118419
*CONN
*I *903:B I *D sky130_fd_sc_hd__or2_1
*I *902:B I *D sky130_fd_sc_hd__nand2_1
*I *1067:X O *D sky130_fd_sc_hd__clkbuf_1
*CAP
1 *903:B 2.2266e-05
2 *902:B 0
3 *1067:X 0.000267664
4 *310:10 0.00028993
5 *310:10 *1105:A 5.92849e-05
6 *310:10 *336:28 0
7 *902:A *903:B 4.82919e-05
8 *916:A *310:10 4.39656e-05
9 *1064:A *310:10 8.7562e-05
10 *1093:A *310:10 0
11 *175:10 *310:10 0.000238489
12 *301:20 *310:10 7.45712e-05
13 *305:16 *310:10 0
14 *306:12 *310:10 5.21627e-05
*RES
1 *1067:X *310:10 13.355 
2 *310:10 *902:B 1.6 
3 *310:10 *903:B 2.05 
*END

*D_NET *311 0.00148577
*CONN
*I *928:A I *D sky130_fd_sc_hd__nand2_1
*I *929:A I *D sky130_fd_sc_hd__or2_1
*I *1068:X O *D sky130_fd_sc_hd__clkbuf_1
*CAP
1 *928:A 6.53324e-05
2 *929:A 0
3 *1068:X 0.000425116
4 *311:12 0.000490449
5 *928:A *929:B 4.99619e-05
6 *311:12 *1129:A 0
7 *311:12 *354:18 0
8 *930:A *928:A 0
9 *930:B *311:12 4.82863e-05
10 *941:A *311:12 6.28765e-05
11 *957:B *311:12 5.64057e-05
12 *960:A2 *311:12 0
13 *960:B1 *311:12 0
14 *187:17 *928:A 3.90495e-05
15 *187:17 *311:12 0.000124895
16 *187:25 *311:12 4.49328e-05
17 *199:14 *311:12 2.90275e-05
18 *216:12 *311:12 4.94326e-05
*RES
1 *1068:X *311:12 14.24 
2 *311:12 *929:A 1.6 
3 *311:12 *928:A 3.1 
*END

*D_NET *312 0.000857779
*CONN
*I *925:A I *D sky130_fd_sc_hd__nand2_1
*I *938:A1 I *D sky130_fd_sc_hd__a21o_1
*I *926:A I *D sky130_fd_sc_hd__or2_1
*I *1069:X O *D sky130_fd_sc_hd__clkbuf_1
*CAP
1 *925:A 0
2 *938:A1 5.33003e-05
3 *926:A 0
4 *1069:X 0.000121465
5 *312:12 7.25777e-05
6 *312:10 0.000140742
7 *938:A1 *925:B 0
8 *938:A1 *938:A2 4.99619e-05
9 *938:A1 *365:26 4.4465e-05
10 *312:10 *1108:A 0
11 *312:10 *1109:A 0
12 *312:12 *365:26 0.000124895
13 *938:B1 *938:A1 0.00012657
14 *184:14 *938:A1 2.11921e-05
15 *184:14 *312:12 0.000102611
*RES
1 *1069:X *312:10 7.235 
2 *312:10 *312:12 1.14 
3 *312:12 *926:A 1.6 
4 *312:12 *938:A1 3.445 
5 *312:10 *925:A 1.6 
*END

*D_NET *313 0.00149891
*CONN
*I *923:A I *D sky130_fd_sc_hd__or2_1
*I *924:A I *D sky130_fd_sc_hd__nand2_1
*I *1070:X O *D sky130_fd_sc_hd__clkbuf_1
*CAP
1 *923:A 0.000148784
2 *924:A 0.000256398
3 *1070:X 0
4 *313:4 0.000405182
5 *924:A *354:18 4.82863e-05
6 *923:B *923:A 2.30292e-05
7 *923:B *924:A 4.82863e-05
8 *939:A1 *924:A 1.7396e-05
9 *939:A2 *923:A 0.000161529
10 *939:B1_N *923:A 4.82919e-05
11 *941:A *923:A 5.02217e-05
12 *941:B *923:A 8.54212e-05
13 *941:B *924:A 3.64998e-06
14 *960:A2 *923:A 3.09233e-05
15 *1070:A *924:A 1.83847e-05
16 *182:6 *923:A 2.8185e-05
17 *183:21 *923:A 7.06865e-05
18 *278:12 *924:A 5.4256e-05
*RES
1 *1070:X *313:4 1.6 
2 *313:4 *924:A 9.515 
3 *313:4 *923:A 9.425 
*END

*D_NET *314 0.00159533
*CONN
*I *920:A I *D sky130_fd_sc_hd__nor2_1
*I *921:A I *D sky130_fd_sc_hd__nand2_1
*I *1071:X O *D sky130_fd_sc_hd__clkbuf_1
*CAP
1 *920:A 5.08924e-05
2 *921:A 0.000263556
3 *1071:X 0.000132467
4 *314:10 0.000446915
5 *920:A *1112:A 0
6 *921:A *1112:A 6.02202e-05
7 *921:A *354:18 0.000355369
8 *314:10 *1112:A 0
9 *922:A_N *920:A 0
10 *940:A *920:A 7.23602e-05
11 *940:A *314:10 4.9968e-05
12 *278:12 *314:10 4.99619e-05
13 *279:16 *920:A 4.28483e-05
14 *279:16 *314:10 7.07751e-05
*RES
1 *1071:X *314:10 6.195 
2 *314:10 *921:A 11.845 
3 *314:10 *920:A 4.98 
*END

*D_NET *315 0.000857319
*CONN
*I *832:A I *D sky130_fd_sc_hd__and2_1
*I *837:A I *D sky130_fd_sc_hd__nor2_1
*I *1072:X O *D sky130_fd_sc_hd__clkbuf_1
*CAP
1 *832:A 0
2 *837:A 0.000206395
3 *1072:X 0.000222264
4 *315:10 0.000428659
5 *837:A *1127:A 0
6 *315:10 *1127:A 0
7 *837:B *837:A 0
8 *280:10 *837:A 0
9 *280:10 *315:10 0
*RES
1 *1072:X *315:10 6.465 
2 *315:10 *837:A 6.885 
3 *315:10 *832:A 3.6 
*END

*D_NET *316 0.00188945
*CONN
*I *954:A I *D sky130_fd_sc_hd__nand2_1
*I *955:A I *D sky130_fd_sc_hd__or2_1
*I *1073:X O *D sky130_fd_sc_hd__clkbuf_1
*CAP
1 *954:A 0
2 *955:A 9.81068e-05
3 *1073:X 0.000439806
4 *316:12 0.000537913
5 *316:12 *950:A 4.9253e-06
6 *954:B *955:A 8.55174e-05
7 *956:B *955:A 0.000124895
8 *965:A2 *316:12 0.000125587
9 *966:B *316:12 0.000134516
10 *985:A_N *316:12 5.11148e-06
11 *1075:A *316:12 0
12 *204:14 *316:12 9.37731e-05
13 *205:10 *316:12 4.2934e-05
14 *219:8 *316:12 0.000196364
*RES
1 *1073:X *316:12 12.83 
2 *316:12 *955:A 4.15 
3 *316:12 *954:A 1.6 
*END

*D_NET *317 0.00102157
*CONN
*I *951:A I *D sky130_fd_sc_hd__nand2_1
*I *952:A I *D sky130_fd_sc_hd__or2_1
*I *964:A1 I *D sky130_fd_sc_hd__a21o_1
*I *1074:X O *D sky130_fd_sc_hd__buf_1
*CAP
1 *951:A 0
2 *952:A 6.89071e-06
3 *964:A1 6.3e-05
4 *1074:X 0.000124621
5 *317:14 0.000131869
6 *317:10 0.0001866
7 *317:14 *354:18 3.25108e-05
8 *951:B *952:A 3.50152e-06
9 *951:B *317:14 2.80894e-05
10 *1097:A *964:A1 0
11 *206:10 *964:A1 0.000158536
12 *206:10 *317:14 0.00015136
13 *282:21 *952:A 3.50152e-06
14 *282:21 *964:A1 8.03897e-05
15 *282:21 *317:14 5.06989e-05
*RES
1 *1074:X *317:10 7.235 
2 *317:10 *317:14 2.19 
3 *317:14 *964:A1 3.445 
4 *317:14 *952:A 1.96 
5 *317:10 *951:A 1.6 
*END

*D_NET *318 0.0006834
*CONN
*I *949:A I *D sky130_fd_sc_hd__or2_1
*I *950:A I *D sky130_fd_sc_hd__nand2_1
*I *1075:X O *D sky130_fd_sc_hd__clkbuf_1
*CAP
1 *949:A 0
2 *950:A 0.000114335
3 *1075:X 9.05199e-05
4 *318:12 0.000204855
5 *950:B *950:A 7.25347e-05
6 *1040:A *318:12 4.82863e-05
7 *204:14 *950:A 4.85494e-05
8 *205:10 *950:A 4.99619e-05
9 *219:8 *950:A 0
10 *283:10 *318:12 4.94326e-05
11 *316:12 *950:A 4.9253e-06
*RES
1 *1075:X *318:12 7.175 
2 *318:12 *950:A 4.405 
3 *318:12 *949:A 1.6 
*END

*D_NET *319 0.000460707
*CONN
*I *946:A I *D sky130_fd_sc_hd__or2_1
*I *947:A I *D sky130_fd_sc_hd__nand2_1
*I *1076:X O *D sky130_fd_sc_hd__clkbuf_1
*CAP
1 *946:A 0.000107436
2 *947:A 6.96998e-05
3 *1076:X 0
4 *319:4 0.000177136
5 *947:A *1115:A 4.18603e-06
6 *946:B *947:A 0
7 *985:A_N *947:A 0
8 *1076:A *947:A 9.58678e-06
9 *201:16 *947:A 9.26619e-05
*RES
1 *1076:X *319:4 1.6 
2 *319:4 *947:A 6.98 
3 *319:4 *946:A 3.1 
*END

*D_NET *320 0.000718499
*CONN
*I *987:A I *D sky130_fd_sc_hd__or2_1
*I *979:A I *D sky130_fd_sc_hd__nand2_1
*I *1077:X O *D sky130_fd_sc_hd__clkbuf_1
*CAP
1 *987:A 3.37454e-05
2 *979:A 9.97001e-05
3 *1077:X 8.34212e-05
4 *320:8 0.000216867
5 *979:B *979:A 5.39961e-05
6 *987:B *979:A 9.54399e-05
7 *1014:A_N *320:8 0
8 *1042:A *979:A 4.99619e-05
9 *1077:A *320:8 5.78448e-05
10 *230:10 *979:A 0
11 *285:8 *979:A 2.75229e-05
*RES
1 *1077:X *320:8 5.235 
2 *320:8 *979:A 5.94 
3 *320:8 *987:A 4.05 
*END

*D_NET *321 0.00216137
*CONN
*I *912:A2 I *D sky130_fd_sc_hd__a21oi_1
*I *900:B I *D sky130_fd_sc_hd__or2_1
*I *899:B I *D sky130_fd_sc_hd__nand2_1
*I *1078:X O *D sky130_fd_sc_hd__buf_1
*CAP
1 *912:A2 0.00014108
2 *900:B 0
3 *899:B 0
4 *1078:X 0.000521536
5 *321:27 0.000402652
6 *321:10 0.000783107
7 *321:10 *332:12 4.99619e-05
8 *900:A *912:A2 5.75321e-05
9 *900:A *321:27 5.30673e-05
10 *901:A *321:10 0
11 *901:A *321:27 0
12 *902:A *912:A2 5.4155e-06
13 *913:A1 *321:10 7.18452e-06
14 *914:A *321:10 0
15 *914:B *321:10 7.44375e-05
16 *932:A1 *321:10 0
17 *932:A2 *321:10 4.19967e-05
18 *932:B1 *321:10 0
19 *933:A2 *321:10 0
20 *160:10 *321:10 0
21 *165:10 *912:A2 1.16578e-05
22 *175:10 *912:A2 1.17409e-05
23 *301:20 *321:10 0
24 *301:20 *321:27 0
25 *307:21 *321:27 0
26 *309:12 *321:10 0
*RES
1 *1078:X *321:10 11.55 
2 *321:10 *899:B 3.6 
3 *321:10 *321:27 6.35 
4 *321:27 *900:B 1.6 
5 *321:27 *912:A2 4.27 
*END

*D_NET *322 0.00048037
*CONN
*I *977:A I *D sky130_fd_sc_hd__or2_1
*I *976:A I *D sky130_fd_sc_hd__nand2_1
*I *1079:X O *D sky130_fd_sc_hd__clkbuf_1
*CAP
1 *977:A 8.57829e-05
2 *976:A 0.000107516
3 *1079:X 0
4 *322:4 0.000193299
5 *977:B *977:A 9.37731e-05
6 *227:29 *977:A 0
*RES
1 *1079:X *322:4 1.6 
2 *322:4 *976:A 3.46 
3 *322:4 *977:A 7.175 
*END

*D_NET *323 0.0028137
*CONN
*I *1016:B1 I *D sky130_fd_sc_hd__a22o_1
*I *974:A I *D sky130_fd_sc_hd__nor2_1
*I *975:A I *D sky130_fd_sc_hd__nand2_1
*I *1080:X O *D sky130_fd_sc_hd__buf_1
*CAP
1 *1016:B1 0
2 *974:A 8.70035e-05
3 *975:A 1.24832e-05
4 *1080:X 0.000500077
5 *323:22 0.000428605
6 *323:16 0.000829195
7 *323:16 *1124:A 0.000138993
8 *323:16 *324:12 0.000136877
9 *323:16 *334:6 0.000269253
10 *323:22 *324:12 9.50342e-06
11 sum[26] *323:22 1.88656e-05
12 *973:B *323:22 7.96171e-05
13 *975:B *974:A 2.84447e-05
14 *975:B *975:A 1.49498e-05
15 *975:B *323:22 5.30673e-05
16 *1032:A *323:16 0.000116577
17 *1091:A *323:16 7.46228e-05
18 *1091:A *323:22 9.58678e-06
19 *287:8 *323:16 0
20 *287:12 *323:22 0
21 *289:8 *323:22 5.98004e-06
*RES
1 *1080:X *323:16 19.195 
2 *323:16 *323:22 7.67 
3 *323:22 *975:A 1.96 
4 *323:22 *974:A 3.1 
5 *323:16 *1016:B1 3.6 
*END

*D_NET *324 0.00205622
*CONN
*I *1017:A1 I *D sky130_fd_sc_hd__o21ai_1
*I *973:A I *D sky130_fd_sc_hd__xnor2_1
*I *1016:A1 I *D sky130_fd_sc_hd__a22o_1
*I *1081:X O *D sky130_fd_sc_hd__buf_1
*CAP
1 *1017:A1 0
2 *973:A 0.000139708
3 *1016:A1 0
4 *1081:X 0.000205534
5 *324:21 0.000258465
6 *324:12 0.000324291
7 *973:A *1118:A 4.99619e-05
8 *1000:B *324:12 0.000137578
9 *1016:A2 *324:21 4.82863e-05
10 *1016:B2 *324:21 0.000158965
11 *1017:A2 *324:21 0.000160641
12 *1046:A *324:12 4.82863e-05
13 *1081:A *324:12 0.000115988
14 *224:10 *973:A 0
15 *264:6 *324:21 1.34503e-05
16 *287:12 *973:A 8.18098e-05
17 *289:8 *324:12 0.000166877
18 *323:16 *324:12 0.000136877
19 *323:22 *324:12 9.50342e-06
*RES
1 *1081:X *324:12 11.255 
2 *324:12 *1016:A1 1.6 
3 *324:12 *324:21 2.88 
4 *324:21 *973:A 8.45 
5 *324:21 *1017:A1 1.6 
*END

*D_NET *325 0.00193626
*CONN
*I *1009:A I *D sky130_fd_sc_hd__and2_1
*I *1010:A I *D sky130_fd_sc_hd__nand2_1
*I *1011:A I *D sky130_fd_sc_hd__nor2_1
*I *1082:X O *D sky130_fd_sc_hd__buf_1
*CAP
1 *1009:A 0
2 *1010:A 1.38876e-05
3 *1011:A 0
4 *1082:X 0.000348598
5 *325:18 9.78076e-05
6 *325:12 0.000432518
7 *325:12 *326:16 4.75576e-05
8 *1006:B *325:12 1.31901e-05
9 *1008:C *325:12 0
10 *1009:B *325:18 3.04064e-05
11 *1011:B *325:18 1.49498e-05
12 *1023:A3 *325:12 0.000114492
13 *1026:B1 *325:12 0.000116158
14 *254:12 *325:12 0
15 *266:10 *325:12 0.000360611
16 *290:19 *1010:A 4.99619e-05
17 *290:19 *325:18 4.17174e-05
18 *291:43 *325:12 4.82863e-05
19 *298:14 *325:12 0.000206123
*RES
1 *1082:X *325:12 13.55 
2 *325:12 *325:18 1.86 
3 *325:18 *1011:A 1.6 
4 *325:18 *1010:A 2.05 
5 *325:12 *1009:A 1.6 
*END

*D_NET *326 0.0030804
*CONN
*I *1003:A I *D sky130_fd_sc_hd__nand2_1
*I *1007:A I *D sky130_fd_sc_hd__or2_1
*I *1006:A I *D sky130_fd_sc_hd__nor2_1
*I *1083:X O *D sky130_fd_sc_hd__buf_1
*CAP
1 *1003:A 6.61754e-05
2 *1007:A 0
3 *1006:A 0
4 *1083:X 0.000754436
5 *326:23 9.9939e-05
6 *326:16 0.0007882
7 *326:16 *328:10 0.000197111
8 *1003:B *1003:A 4.82919e-05
9 *1006:B *326:16 9.03081e-05
10 *1023:A2 *326:16 9.80032e-06
11 *1023:A2 *326:23 4.66108e-05
12 *1023:B1 *326:16 4.99619e-05
13 *1025:A *1003:A 2.30292e-05
14 *1085:A *326:16 2.87611e-05
15 *248:10 *326:16 0.000201503
16 *250:8 *1003:A 9.13951e-05
17 *250:8 *326:16 8.49205e-05
18 *250:8 *326:23 5.83589e-05
19 *257:23 *1003:A 6.20787e-05
20 *257:23 *326:23 0.0001249
21 *291:20 *326:16 0.000124719
22 *291:43 *1003:A 4.66108e-05
23 *291:43 *326:16 3.57349e-05
24 *325:12 *326:16 4.75576e-05
*RES
1 *1083:X *326:16 16.865 
2 *326:16 *1006:A 1.6 
3 *326:16 *326:23 1.485 
4 *326:23 *1007:A 1.6 
5 *326:23 *1003:A 4.15 
*END

*D_NET *327 0.00105099
*CONN
*I *828:A I *D sky130_fd_sc_hd__nand2_1
*I *830:A I *D sky130_fd_sc_hd__nor2_1
*I *1084:X O *D sky130_fd_sc_hd__clkbuf_1
*CAP
1 *828:A 0.000180538
2 *830:A 2.08101e-05
3 *1084:X 0.000198247
4 *327:8 0.000399595
5 *830:B *828:A 0
6 *1052:A *327:8 4.66108e-05
7 *105:10 *327:8 8.45369e-05
8 *302:10 *327:8 0.000120655
*RES
1 *1084:X *327:8 5.17 
2 *327:8 *830:A 1.96 
3 *327:8 *828:A 8.03 
*END

*D_NET *328 0.00260697
*CONN
*I *1001:A I *D sky130_fd_sc_hd__nor2_1
*I *1002:A I *D sky130_fd_sc_hd__nand2_1
*I *1030:B1 I *D sky130_fd_sc_hd__o211a_1
*I *1085:X O *D sky130_fd_sc_hd__buf_1
*CAP
1 *1001:A 0
2 *1002:A 4.3571e-05
3 *1030:B1 0.000263854
4 *1085:X 0.00016492
5 *328:14 0.000396276
6 *328:10 0.000253771
7 *328:10 *1124:A 0.000163204
8 *328:14 *1099:A 0
9 *1001:B *328:10 1.85674e-05
10 *1002:B *1030:B1 6.59044e-05
11 *1032:B *1002:A 2.75145e-05
12 *1033:A1 *1002:A 4.66108e-05
13 *1033:A1 *1030:B1 0.00012657
14 *1033:A2 *1002:A 0
15 *1033:B1 *1002:A 0
16 *1080:A *1002:A 4.9968e-05
17 *1080:A *328:14 0.00015997
18 *1083:A *1030:B1 0
19 *1083:A *328:10 3.45252e-05
20 *1085:A *328:10 8.64421e-05
21 *248:10 *328:10 0.000309607
22 *291:20 *328:10 0.000198588
23 *293:12 *1002:A 0
24 *293:12 *328:14 0
25 *326:16 *328:10 0.000197111
*RES
1 *1085:X *328:10 8.29 
2 *328:10 *328:14 3.89 
3 *328:14 *1030:B1 7.98 
4 *328:14 *1002:A 4.665 
5 *328:10 *1001:A 1.6 
*END

*D_NET *329 0.0019982
*CONN
*I *1031:A1 I *D sky130_fd_sc_hd__a21oi_1
*I *1030:A1 I *D sky130_fd_sc_hd__o211a_1
*I *1000:A I *D sky130_fd_sc_hd__xor2_1
*I *1086:X O *D sky130_fd_sc_hd__buf_1
*CAP
1 *1031:A1 0
2 *1030:A1 3.66508e-05
3 *1000:A 0.000227379
4 *1086:X 0
5 *329:25 0.000205182
6 *329:6 0.00039591
7 *1000:B *1000:A 2.49909e-05
8 *1030:A2 *1030:A1 0.000139238
9 *1032:A *1000:A 5.21046e-05
10 *1032:A *329:25 0.000140071
11 *1032:B *329:25 0
12 *1033:B1 *329:25 0.000196376
13 *1051:A *329:25 0.00013106
14 *1055:A *329:25 3.26822e-05
15 *1086:A *1030:A1 0.000140905
16 *247:8 *1000:A 0.000124007
17 *287:8 *1000:A 5.21046e-05
18 *287:8 *329:25 9.9535e-05
*RES
1 *1086:X *329:6 3.6 
2 *329:6 *1000:A 7.605 
3 *329:6 *329:25 7.34 
4 *329:25 *1030:A1 7.235 
5 *329:25 *1031:A1 1.6 
*END

*D_NET *330 0.000692449
*CONN
*I *826:A I *D sky130_fd_sc_hd__nand2_1
*I *825:A I *D sky130_fd_sc_hd__nor2_1
*I *1087:X O *D sky130_fd_sc_hd__clkbuf_1
*CAP
1 *826:A 0
2 *825:A 0.000155129
3 *1087:X 0.000111098
4 *330:10 0.000266227
5 *330:10 *1122:A 0
6 *826:B *825:A 0.000148285
7 *1087:A *330:10 1.17114e-05
8 *101:14 *330:10 0
*RES
1 *1087:X *330:10 7.235 
2 *330:10 *825:A 4.495 
3 *330:10 *826:A 1.6 
*END

*D_NET *331 0.00193269
*CONN
*I *851:A I *D sky130_fd_sc_hd__nand2_1
*I *852:A I *D sky130_fd_sc_hd__or2_1
*I *1088:X O *D sky130_fd_sc_hd__clkbuf_1
*CAP
1 *851:A 0
2 *852:A 6.50255e-05
3 *1088:X 0.000550827
4 *331:12 0.000615853
5 *331:12 *1131:A 0.000147755
6 *827:A_N *331:12 0.000139238
7 *840:A1 *331:12 3.83194e-05
8 *841:B *331:12 8.49205e-05
9 *852:B *852:A 4.99619e-05
10 *853:B *331:12 0
11 *854:A2 *331:12 3.09233e-05
12 *103:21 *331:12 4.7101e-05
13 *122:14 *331:12 0.000116158
14 *276:25 *331:12 4.66108e-05
*RES
1 *1088:X *331:12 16.16 
2 *331:12 *852:A 2.74 
3 *331:12 *851:A 1.6 
*END

*D_NET *332 0.00152217
*CONN
*I *897:B I *D sky130_fd_sc_hd__nor2_1
*I *898:B I *D sky130_fd_sc_hd__nand2_1
*I *1089:X O *D sky130_fd_sc_hd__clkbuf_1
*CAP
1 *897:B 0
2 *898:B 7.03312e-05
3 *1089:X 0.000251008
4 *332:12 0.000321339
5 *898:B *1106:A 0.000196381
6 *898:B *365:22 0.000102962
7 *332:12 *1106:A 0
8 *898:A *898:B 4.82919e-05
9 *1067:A *898:B 0
10 *1089:A *332:12 0.000356395
11 *308:12 *332:12 7.55391e-05
12 *309:12 *332:12 4.99619e-05
13 *321:10 *332:12 4.99619e-05
*RES
1 *1089:X *332:12 10.7 
2 *332:12 *898:B 4.15 
3 *332:12 *897:B 1.6 
*END

*D_NET *333 0.00083392
*CONN
*I *847:A I *D sky130_fd_sc_hd__and2_1
*I *849:A I *D sky130_fd_sc_hd__nor2_1
*I *1090:X O *D sky130_fd_sc_hd__clkbuf_1
*CAP
1 *847:A 0
2 *849:A 0.000121202
3 *1090:X 0.000219061
4 *333:12 0.000340263
5 *333:12 *1128:A 0
6 *847:B *849:A 7.34326e-05
7 *1054:A *333:12 3.64998e-06
8 *297:12 *333:12 7.63125e-05
*RES
1 *1090:X *333:12 8.72 
2 *333:12 *849:A 3.805 
3 *333:12 *847:A 1.6 
*END

*D_NET *334 0.00475661
*CONN
*I *846:A I *D sky130_fd_sc_hd__xor2_1
*I *861:A1 I *D sky130_fd_sc_hd__a21oi_1
*I *878:B1 I *D sky130_fd_sc_hd__a22o_1
*I *1091:X O *D sky130_fd_sc_hd__buf_1
*CAP
1 *846:A 0.00016017
2 *861:A1 0.000200519
3 *878:B1 0
4 *1091:X 0.00127507
5 *334:12 0.000261939
6 *334:6 0.00149666
7 *334:6 *1120:A 3.1562e-06
8 *846:B *846:A 0.000279787
9 *846:B *334:6 9.80032e-06
10 *861:A2 *861:A1 0.000206541
11 *1019:B1 *334:6 0.000119866
12 *1021:A2 *334:6 3.00381e-05
13 *258:12 *334:6 0.000371218
14 *265:14 *334:6 2.05056e-05
15 *298:18 *334:12 5.2089e-05
16 *323:16 *334:6 0.000269253
*RES
1 *1091:X *334:6 17.23 
2 *334:6 *334:12 5.125 
3 *334:12 *878:B1 1.6 
4 *334:12 *861:A1 5.155 
5 *334:6 *846:A 5.08 
*END

*D_NET *335 0.004689
*CONN
*I *878:A1 I *D sky130_fd_sc_hd__a22o_1
*I *879:A1 I *D sky130_fd_sc_hd__o21ai_1
*I *845:A I *D sky130_fd_sc_hd__xor2_1
*I *1092:X O *D sky130_fd_sc_hd__buf_1
*CAP
1 *878:A1 9.95226e-05
2 *879:A1 3.11146e-05
3 *845:A 0
4 *1092:X 0.00138567
5 *335:27 0.000236563
6 *335:18 0.00149159
7 *878:A2 *878:A1 0.000208491
8 *878:A2 *335:27 8.53113e-06
9 *978:B *335:18 7.57202e-05
10 *1012:A *335:18 3.47936e-05
11 *1015:A1 *335:18 9.52646e-05
12 *1015:C1 *335:18 1.03323e-05
13 *228:6 *335:18 4.82863e-05
14 *262:10 *335:18 6.5058e-05
15 *298:18 *878:A1 4.18603e-06
16 *300:20 *335:18 0.000750612
17 *300:37 *335:18 3.25831e-05
18 *300:37 *335:27 0.000110683
*RES
1 *1092:X *335:18 27.21 
2 *335:18 *845:A 3.6 
3 *335:18 *335:27 1.89 
4 *335:27 *879:A1 4.05 
5 *335:27 *878:A1 6 
*END

*D_NET *336 0.00465394
*CONN
*I *876:A I *D sky130_fd_sc_hd__and2_1
*I *883:A I *D sky130_fd_sc_hd__nor2_1
*I *1093:X O *D sky130_fd_sc_hd__buf_1
*CAP
1 *876:A 0
2 *883:A 8.65086e-05
3 *1093:X 0.00119004
4 *336:28 0.00127655
5 *336:28 *1103:A 9.50342e-06
6 sum[12] *336:28 2.10433e-05
7 sum[13] *336:28 6.16226e-06
8 *867:B *336:28 0.000163199
9 *876:B *883:A 4.00541e-06
10 *883:B *883:A 8.1512e-05
11 *904:B *336:28 0.000138257
12 *905:A *336:28 1.52184e-05
13 *919:A *336:28 0.000124895
14 *1064:A *336:28 8.47169e-05
15 *135:10 *336:28 4.21757e-05
16 *143:10 *883:A 3.00381e-05
17 *167:10 *336:28 2.23407e-05
18 *173:12 *336:28 0
19 *301:20 *883:A 5.30673e-05
20 *301:20 *336:28 0.000580831
21 *305:16 *336:28 0.000584637
22 *306:12 *336:28 0.000139245
23 *310:10 *336:28 0
*RES
1 *1093:X *336:28 33.045 
2 *336:28 *883:A 3.79 
3 *336:28 *876:A 1.6 
*END

*D_NET *337 0.00109244
*CONN
*I *873:A I *D sky130_fd_sc_hd__nand2_1
*I *874:A I *D sky130_fd_sc_hd__or2_1
*I *1094:X O *D sky130_fd_sc_hd__clkbuf_1
*CAP
1 *873:A 4.67231e-05
2 *874:A 2.88696e-05
3 *1094:X 0.000273514
4 *337:8 0.000349107
5 *873:B *873:A 0.000141599
6 *890:A *337:8 0.000124895
7 *140:23 *873:A 6.5525e-05
8 *154:8 *874:A 1.83756e-05
9 *154:8 *337:8 4.38278e-05
*RES
1 *1094:X *337:8 5.86 
2 *337:8 *874:A 2.05 
3 *337:8 *873:A 7.235 
*END

*D_NET *338 0.0022605
*CONN
*I *844:A I *D sky130_fd_sc_hd__xnor2_1
*I *836:A1 I *D sky130_fd_sc_hd__a21bo_1
*I *1095:X O *D sky130_fd_sc_hd__buf_1
*CAP
1 *844:A 0
2 *836:A1 0.000200898
3 *1095:X 0.00033485
4 *338:14 0.000535747
5 *338:14 *1100:A 6.44134e-05
6 *338:14 *1122:A 8.53113e-06
7 *833:B *836:A1 0.000109581
8 *836:A2 *836:A1 6.05513e-05
9 *836:B1_N *836:A1 4.82919e-05
10 *844:B *836:A1 0.000251454
11 *1034:A *338:14 4.71433e-05
12 *103:12 *338:14 5.83121e-06
13 *277:12 *836:A1 0.000162311
14 *277:12 *338:14 0.000285653
15 *292:10 *338:14 0.000145239
*RES
1 *1095:X *338:14 11.585 
2 *338:14 *836:A1 7.015 
3 *338:14 *844:A 1.6 
*END

*D_NET *339 0.000341387
*CONN
*I *1099:A I *D sky130_fd_sc_hd__buf_2
*I *1033:Y O *D sky130_fd_sc_hd__o21ai_1
*CAP
1 *1099:A 8.8256e-05
2 *1033:Y 8.8256e-05
3 *1001:B *1099:A 4.82919e-05
4 *1055:A *1099:A 2.96383e-05
5 *291:20 *1099:A 4.82919e-05
6 *293:12 *1099:A 3.86529e-05
7 *328:14 *1099:A 0
*RES
1 *1033:Y *1099:A 9.285 
*END

*D_NET *340 0.000611403
*CONN
*I *1100:A I *D sky130_fd_sc_hd__buf_2
*I *844:Y O *D sky130_fd_sc_hd__xnor2_1
*CAP
1 *1100:A 0.000205287
2 *844:Y 0.000205287
3 *1100:A *1122:A 1.83847e-05
4 sum[0] *1100:A 2.44292e-05
5 *1052:A *1100:A 0
6 *103:12 *1100:A 2.19562e-06
7 *292:10 *1100:A 9.14049e-05
8 *338:14 *1100:A 6.44134e-05
*RES
1 *844:Y *1100:A 10.32 
*END

*D_NET *341 0.00034618
*CONN
*I *1101:A I *D sky130_fd_sc_hd__buf_2
*I *890:Y O *D sky130_fd_sc_hd__xnor2_1
*CAP
1 *1101:A 0.00017309
2 *890:Y 0.00017309
3 sum[10] *1101:A 0
4 *302:10 *1101:A 0
*RES
1 *890:Y *1101:A 9.885 
*END

*D_NET *342 0.000688431
*CONN
*I *1102:A I *D sky130_fd_sc_hd__buf_2
*I *889:Y O *D sky130_fd_sc_hd__xnor2_1
*CAP
1 *1102:A 0.000245548
2 *889:Y 0.000245548
3 *869:A_N *1102:A 8.65905e-05
4 *869:B *1102:A 6.07824e-05
5 *136:6 *1102:A 4.99619e-05
*RES
1 *889:Y *1102:A 7.13 
*END

*D_NET *343 0.000421654
*CONN
*I *894:B I *D sky130_fd_sc_hd__nor2_1
*I *895:B I *D sky130_fd_sc_hd__nand2_1
*I *1096:X O *D sky130_fd_sc_hd__clkbuf_1
*CAP
1 *894:B 0
2 *895:B 1.17533e-05
3 *1096:X 0.000123951
4 *343:12 0.000135704
5 *895:B *365:22 2.75145e-05
6 *343:12 *1108:A 0
7 *895:A *895:B 4.82863e-05
8 *309:12 *343:12 7.44453e-05
*RES
1 *1096:X *343:12 7.685 
2 *343:12 *895:B 2.05 
3 *343:12 *894:B 1.6 
*END

*D_NET *344 0.0013353
*CONN
*I *1103:A I *D sky130_fd_sc_hd__buf_2
*I *919:Y O *D sky130_fd_sc_hd__xnor2_1
*CAP
1 *1103:A 0.000602807
2 *919:Y 0.000602807
3 *167:10 *1103:A 0.000120186
4 *173:12 *1103:A 0
5 *336:28 *1103:A 9.50342e-06
*RES
1 *919:Y *1103:A 16.62 
*END

*D_NET *345 0.0006958
*CONN
*I *1104:A I *D sky130_fd_sc_hd__buf_2
*I *918:Y O *D sky130_fd_sc_hd__nor2_1
*CAP
1 *1104:A 0.000136037
2 *918:Y 0.000136037
3 *904:B *1104:A 3.95724e-05
4 *912:B1 *1104:A 8.65905e-05
5 *165:14 *1104:A 0.000237243
6 *167:10 *1104:A 4.41363e-05
7 *174:8 *1104:A 1.61831e-05
*RES
1 *918:Y *1104:A 6.77 
*END

*D_NET *346 0.000363655
*CONN
*I *1105:A I *D sky130_fd_sc_hd__buf_2
*I *916:X O *D sky130_fd_sc_hd__xor2_1
*CAP
1 *1105:A 0.000132092
2 *916:X 0.000132092
3 *1105:A *365:22 3.09164e-05
4 *1062:A *1105:A 9.26907e-06
5 *1093:A *1105:A 0
6 *301:20 *1105:A 0
7 *310:10 *1105:A 5.92849e-05
*RES
1 *916:X *1105:A 9.795 
*END

*D_NET *347 0.000779354
*CONN
*I *1106:A I *D sky130_fd_sc_hd__buf_2
*I *914:Y O *D sky130_fd_sc_hd__xnor2_1
*CAP
1 *1106:A 0.00025497
2 *914:Y 0.00025497
3 *1106:A *365:22 2.81759e-05
4 *898:B *1106:A 0.000196381
5 *1065:A *1106:A 0
6 *1093:A *1106:A 0
7 *1098:A *1106:A 0
8 *301:20 *1106:A 4.4858e-05
9 *332:12 *1106:A 0
*RES
1 *914:Y *1106:A 11.61 
*END

*D_NET *348 0.00161293
*CONN
*I *1107:A I *D sky130_fd_sc_hd__buf_2
*I *945:X O *D sky130_fd_sc_hd__xor2_1
*CAP
1 *1107:A 0.000633886
2 *945:X 0.000633886
3 *1107:A *1109:A 0
4 *1107:A *1129:A 0
5 *937:A1 *1107:A 0
6 *944:B *1107:A 0
7 *959:B1 *1107:A 0.000294414
8 *189:12 *1107:A 0
9 *189:19 *1107:A 5.07419e-05
10 *212:12 *1107:A 0
*RES
1 *945:X *1107:A 18.135 
*END

*D_NET *349 0.00104464
*CONN
*I *1108:A I *D sky130_fd_sc_hd__buf_2
*I *944:Y O *D sky130_fd_sc_hd__nor2_1
*CAP
1 *1108:A 0.000522318
2 *944:Y 0.000522318
3 *927:B *1108:A 0
4 *932:C1 *1108:A 0
5 *1096:A *1108:A 0
6 *158:8 *1108:A 0
7 *312:10 *1108:A 0
8 *343:12 *1108:A 0
*RES
1 *944:Y *1108:A 14.685 
*END

*D_NET *350 0.000894981
*CONN
*I *1109:A I *D sky130_fd_sc_hd__buf_2
*I *942:Y O *D sky130_fd_sc_hd__xnor2_1
*CAP
1 *1109:A 0.000340956
2 *942:Y 0.000340956
3 *938:B1 *1109:A 2.65814e-06
4 *1069:A *1109:A 0
5 *1107:A *1109:A 0
6 *197:6 *1109:A 0.000210411
7 *312:10 *1109:A 0
*RES
1 *942:Y *1109:A 12.99 
*END

*D_NET *351 0.00221433
*CONN
*I *1110:A I *D sky130_fd_sc_hd__buf_2
*I *940:Y O *D sky130_fd_sc_hd__xnor2_1
*CAP
1 *1110:A 0.000251037
2 *940:Y 0.000251037
3 *1110:A *1113:A 0.000112284
4 *1110:A *1114:A 0.000239813
5 *1041:A *1110:A 8.23457e-05
6 *1074:A *1110:A 4.82919e-05
7 *278:12 *1110:A 0.000914572
8 *279:16 *1110:A 0.000314949
*RES
1 *940:Y *1110:A 17.325 
*END

*D_NET *352 0.00108469
*CONN
*I *1111:A I *D sky130_fd_sc_hd__buf_2
*I *843:X O *D sky130_fd_sc_hd__xor2_1
*CAP
1 *1111:A 0.000428874
2 *843:X 0.000428874
3 *1111:A *1130:A 0
4 *835:A *1111:A 0
5 *836:A2 *1111:A 1.16578e-05
6 *838:A *1111:A 0.00012657
7 *111:16 *1111:A 8.87196e-05
*RES
1 *843:X *1111:A 13.08 
*END

*D_NET *353 0.00161773
*CONN
*I *1112:A I *D sky130_fd_sc_hd__buf_2
*I *972:X O *D sky130_fd_sc_hd__and2_1
*CAP
1 *1112:A 0.000542883
2 *972:X 0.000542883
3 *1112:A *354:18 0
4 *920:A *1112:A 0
5 *921:A *1112:A 6.02202e-05
6 *922:A_N *1112:A 5.16348e-05
7 *941:B *1112:A 0
8 *960:A1 *1112:A 0.00011686
9 *960:A2 *1112:A 0
10 *960:C1 *1112:A 0.000140912
11 *1070:A *1112:A 0
12 *278:12 *1112:A 0.000162332
13 *279:16 *1112:A 0
14 *314:10 *1112:A 0
*RES
1 *972:X *1112:A 16.44 
*END

*D_NET *354 0.00405934
*CONN
*I *928:B I *D sky130_fd_sc_hd__nand2_1
*I *929:B I *D sky130_fd_sc_hd__or2_1
*I *1097:X O *D sky130_fd_sc_hd__buf_1
*CAP
1 *928:B 0
2 *929:B 6.42364e-05
3 *1097:X 0.00124686
4 *354:18 0.0013111
5 *921:A *354:18 0.000355369
6 *923:B *354:18 8.6004e-05
7 *924:A *354:18 4.82863e-05
8 *928:A *929:B 4.99619e-05
9 *940:A *354:18 0.000272978
10 *940:B *354:18 0.00011199
11 *951:B *354:18 0
12 *960:A2 *354:18 0
13 *960:B1 *354:18 6.55406e-05
14 *960:C1 *354:18 0
15 *1112:A *354:18 0
16 *187:17 *929:B 8.65961e-05
17 *206:10 *354:18 0.000310516
18 *219:8 *354:18 1.7386e-05
19 *311:12 *354:18 0
20 *317:14 *354:18 3.25108e-05
*RES
1 *1097:X *354:18 26.21 
2 *354:18 *929:B 3.1 
3 *354:18 *928:B 1.6 
*END

*D_NET *355 0.00105535
*CONN
*I *1113:A I *D sky130_fd_sc_hd__buf_2
*I *970:Y O *D sky130_fd_sc_hd__nor2_1
*CAP
1 *1113:A 0.000294681
2 *970:Y 0.000294681
3 *1113:A *358:26 0.000305133
4 *964:B1 *1113:A 4.85763e-05
5 *1110:A *1113:A 0.000112284
*RES
1 *970:Y *1113:A 12.36 
*END

*D_NET *356 0.00117479
*CONN
*I *1114:A I *D sky130_fd_sc_hd__buf_2
*I *968:Y O *D sky130_fd_sc_hd__xnor2_1
*CAP
1 *1114:A 0.000247137
2 *968:Y 0.000247137
3 *1039:A *1114:A 4.43871e-06
4 *1073:A *1114:A 3.83194e-05
5 *1097:A *1114:A 0.00014301
6 *1110:A *1114:A 0.000239813
7 *219:8 *1114:A 1.34503e-05
8 *279:16 *1114:A 0.000241483
9 *282:12 *1114:A 0
*RES
1 *968:Y *1114:A 13.095 
*END

*D_NET *357 0.000552986
*CONN
*I *1115:A I *D sky130_fd_sc_hd__buf_2
*I *966:Y O *D sky130_fd_sc_hd__xnor2_1
*CAP
1 *1115:A 0.000250217
2 *966:Y 0.000250217
3 sum[23] *1115:A 3.12639e-05
4 *946:B *1115:A 1.71013e-05
5 *947:A *1115:A 4.18603e-06
6 *985:A_N *1115:A 0
*RES
1 *966:Y *1115:A 10.32 
*END

*D_NET *358 0.00625139
*CONN
*I *1116:A I *D sky130_fd_sc_hd__buf_2
*I *999:X O *D sky130_fd_sc_hd__and2_1
*CAP
1 *1116:A 0
2 *999:X 0.00260402
3 *358:26 0.00260402
4 sum[21] *358:26 6.9167e-05
5 sum[25] *358:26 0
6 *956:B *358:26 0
7 *963:A2 *358:26 5.23362e-05
8 *972:B *358:26 0
9 *982:A1 *358:26 5.20968e-05
10 *982:A2 *358:26 2.46007e-05
11 *989:A1 *358:26 7.01289e-05
12 *1035:A *358:26 0
13 *1036:A *358:26 3.0264e-05
14 *1113:A *358:26 0.000305133
15 *217:12 *358:26 6.13356e-05
16 *217:16 *358:26 0.000131401
17 *233:10 *358:26 6.88421e-05
18 *237:10 *358:26 0.000178049
19 *279:16 *358:26 0
*RES
1 *999:X *358:26 49.39 
2 *358:26 *1116:A 1.6 
*END

*D_NET *359 0.00363398
*CONN
*I *1117:A I *D sky130_fd_sc_hd__buf_2
*I *997:X O *D sky130_fd_sc_hd__and2_1
*CAP
1 *1117:A 0.00112453
2 *997:X 0.00112453
3 *964:B1 *1117:A 0
4 *984:B *1117:A 0
5 *986:A *1117:A 0.000139245
6 *986:B *1117:A 0
7 *997:B *1117:A 2.97004e-06
8 *1035:A *1117:A 4.0813e-05
9 *1036:A *1117:A 2.69203e-05
10 *1076:A *1117:A 0
11 *1097:A *1117:A 0.000116165
12 *206:10 *1117:A 0
13 *229:10 *1117:A 0
14 *230:10 *1117:A 0
15 *240:8 *1117:A 4.82919e-05
16 *278:12 *1117:A 0.000198051
17 *279:16 *1117:A 2.26018e-05
18 *284:16 *1117:A 0.00078987
*RES
1 *997:X *1117:A 28.08 
*END

*D_NET *360 0.00188032
*CONN
*I *1118:A I *D sky130_fd_sc_hd__buf_2
*I *995:Y O *D sky130_fd_sc_hd__xnor2_1
*CAP
1 *1118:A 0.000642269
2 *995:Y 0.000642269
3 *973:A *1118:A 4.99619e-05
4 *973:B *1118:A 7.22354e-05
5 *992:B *1118:A 5.4155e-06
6 *994:B *1118:A 0.000163985
7 *995:B *1118:A 4.66108e-05
8 *224:10 *1118:A 0.000226362
9 *225:10 *1118:A 0
10 *243:12 *1118:A 3.12176e-05
11 *287:12 *1118:A 0
*RES
1 *995:Y *1118:A 18.765 
*END

*D_NET *361 0.000982796
*CONN
*I *1119:A I *D sky130_fd_sc_hd__buf_2
*I *994:X O *D sky130_fd_sc_hd__xor2_1
*CAP
1 *1119:A 0.000466794
2 *994:X 0.000466794
3 sum[27] *1119:A 9.58678e-06
4 *226:12 *1119:A 3.86607e-05
5 *286:10 *1119:A 9.60582e-07
6 *287:12 *1119:A 0
*RES
1 *994:X *1119:A 12.735 
*END

*D_NET *362 0.00159194
*CONN
*I *1120:A I *D sky130_fd_sc_hd__buf_2
*I *1029:Y O *D sky130_fd_sc_hd__nor2_1
*CAP
1 *1120:A 0.000603843
2 *1029:Y 0.000603843
3 *1120:A *1123:A 0
4 *1004:B1 *1120:A 0
5 *1008:B *1120:A 0
6 *1020:B1 *1120:A 0.000293719
7 *1021:A2 *1120:A 7.81954e-05
8 *1085:A *1120:A 5.53249e-06
9 *248:10 *1120:A 0
10 *256:17 *1120:A 0
11 *265:14 *1120:A 3.64998e-06
12 *334:6 *1120:A 3.1562e-06
*RES
1 *1029:Y *1120:A 17.445 
*END

*D_NET *363 0.000647205
*CONN
*I *1121:A I *D sky130_fd_sc_hd__buf_2
*I *1027:Y O *D sky130_fd_sc_hd__nand2_1
*CAP
1 *1121:A 0.000259086
2 *1027:Y 0.000259086
3 *1121:A *1128:A 0
4 *1025:A *1121:A 0.000105841
5 *1027:A *1121:A 7.00889e-06
6 *1027:B *1121:A 1.61831e-05
7 *290:10 *1121:A 0
8 *291:43 *1121:A 0
*RES
1 *1027:Y *1121:A 11.775 
*END

*D_NET *364 0.00158257
*CONN
*I *1122:A I *D sky130_fd_sc_hd__buf_2
*I *842:Y O *D sky130_fd_sc_hd__xnor2_1
*CAP
1 *1122:A 0.00040538
2 *842:Y 0.00040538
3 *826:B *1122:A 8.40269e-05
4 *840:A2 *1122:A 9.79872e-05
5 *842:A *1122:A 8.8266e-05
6 *1052:A *1122:A 5.11148e-06
7 *1059:A *1122:A 0.000149604
8 *1087:A *1122:A 0
9 *1100:A *1122:A 1.83847e-05
10 *101:14 *1122:A 4.43871e-06
11 *103:12 *1122:A 0.000291609
12 *276:10 *1122:A 7.68414e-06
13 *277:12 *1122:A 1.07797e-05
14 *292:10 *1122:A 5.38986e-06
15 *330:10 *1122:A 0
16 *338:14 *1122:A 8.53113e-06
*RES
1 *842:Y *1122:A 15.57 
*END

*D_NET *365 0.00316654
*CONN
*I *925:B I *D sky130_fd_sc_hd__nand2_1
*I *926:B I *D sky130_fd_sc_hd__or2_1
*I *938:A2 I *D sky130_fd_sc_hd__a21o_1
*I *1098:X O *D sky130_fd_sc_hd__buf_1
*CAP
1 *925:B 1.34399e-05
2 *926:B 0
3 *938:A2 1.38876e-05
4 *1098:X 0.00104556
5 *365:26 0.000149915
6 *365:22 0.00119503
7 sum[14] *365:22 2.05641e-05
8 *895:A *365:22 6.05513e-05
9 *895:B *365:22 2.75145e-05
10 *898:A *365:22 4.82919e-05
11 *898:B *365:22 0.000102962
12 *914:A *365:22 5.81693e-05
13 *914:B *365:22 3.00381e-05
14 *938:A1 *925:B 0
15 *938:A1 *938:A2 4.99619e-05
16 *938:A1 *365:26 4.4465e-05
17 *938:B1 *365:26 0
18 *1067:A *365:22 5.05437e-05
19 *1093:A *365:22 0
20 *1105:A *365:22 3.09164e-05
21 *1106:A *365:22 2.81759e-05
22 *160:10 *365:22 4.99619e-05
23 *184:14 *365:26 2.16917e-05
24 *301:20 *365:22 0
25 *312:12 *365:26 0.000124895
*RES
1 *1098:X *365:22 22.07 
2 *365:22 *365:26 2.88 
3 *365:26 *938:A2 2.05 
4 *365:26 *926:B 1.6 
5 *365:22 *925:B 1.96 
*END

*D_NET *366 0.00053174
*CONN
*I *1123:A I *D sky130_fd_sc_hd__buf_2
*I *1024:Y O *D sky130_fd_sc_hd__xnor2_1
*CAP
1 *1123:A 0.000218183
2 *1024:Y 0.000218183
3 *1006:B *1123:A 0
4 *1082:A *1123:A 0
5 *1120:A *1123:A 0
6 *269:6 *1123:A 9.53743e-05
*RES
1 *1024:Y *1123:A 10.32 
*END

*D_NET *367 0.00163358
*CONN
*I *1124:A I *D sky130_fd_sc_hd__buf_2
*I *1022:X O *D sky130_fd_sc_hd__xor2_1
*CAP
1 *1124:A 0.000409057
2 *1022:X 0.000409057
3 *1004:A1 *1124:A 6.14602e-05
4 *1004:B1 *1124:A 0
5 *1021:A2 *1124:A 0
6 *1032:A *1124:A 0
7 *1080:A *1124:A 0.000355194
8 *248:10 *1124:A 0
9 *291:20 *1124:A 9.66106e-05
10 *323:16 *1124:A 0.000138993
11 *328:10 *1124:A 0.000163204
*RES
1 *1022:X *1124:A 17.46 
*END

*D_NET *368 0.00102281
*CONN
*I *1125:A I *D sky130_fd_sc_hd__buf_2
*I *841:Y O *D sky130_fd_sc_hd__xnor2_1
*CAP
1 *1125:A 0.000244779
2 *841:Y 0.000244779
3 *1125:A *1126:A 1.7386e-05
4 *841:B *1125:A 0.000135524
5 *1088:A *1125:A 0
6 *101:14 *1125:A 0.000291365
7 *103:12 *1125:A 8.89751e-05
8 *302:10 *1125:A 0
*RES
1 *841:Y *1125:A 13.11 
*END

*D_NET *369 0.00187416
*CONN
*I *1126:A I *D sky130_fd_sc_hd__buf_2
*I *866:Y O *D sky130_fd_sc_hd__xnor2_1
*CAP
1 *1126:A 0.000647588
2 *866:Y 0.000647588
3 *1125:A *1126:A 1.7386e-05
4 *122:14 *1126:A 0.000464499
5 *124:6 *1126:A 9.70988e-05
*RES
1 *866:Y *1126:A 13.925 
*END

*D_NET *370 0.000811077
*CONN
*I *1127:A I *D sky130_fd_sc_hd__buf_2
*I *865:Y O *D sky130_fd_sc_hd__xnor2_1
*CAP
1 *1127:A 0.000380557
2 *865:Y 0.000380557
3 *837:A *1127:A 0
4 *865:A *1127:A 4.99619e-05
5 *1072:A *1127:A 0
6 *120:12 *1127:A 0
7 *297:12 *1127:A 0
8 *315:10 *1127:A 0
*RES
1 *865:Y *1127:A 13.365 
*END

*D_NET *371 0.000815629
*CONN
*I *1128:A I *D sky130_fd_sc_hd__buf_2
*I *864:X O *D sky130_fd_sc_hd__and2b_1
*CAP
1 *1128:A 0.000382833
2 *864:X 0.000382833
3 *864:B *1128:A 4.99619e-05
4 *1025:A *1128:A 0
5 *1090:A *1128:A 0
6 *1121:A *1128:A 0
7 *118:10 *1128:A 0
8 *333:12 *1128:A 0
*RES
1 *864:X *1128:A 13.365 
*END

*D_NET *372 0.00457552
*CONN
*I *1129:A I *D sky130_fd_sc_hd__buf_2
*I *862:Y O *D sky130_fd_sc_hd__xnor2_1
*CAP
1 *1129:A 0.00208658
2 *862:Y 0.00208658
3 *877:A *1129:A 7.00889e-06
4 *941:A *1129:A 0
5 *957:B *1129:A 6.14689e-05
6 *1107:A *1129:A 0
7 *187:25 *1129:A 6.95505e-05
8 *189:12 *1129:A 0.000141599
9 *199:14 *1129:A 4.64184e-05
10 *212:12 *1129:A 7.63125e-05
11 *216:12 *1129:A 0
12 *311:12 *1129:A 0
*RES
1 *862:Y *1129:A 41.76 
*END

*D_NET *373 0.00182911
*CONN
*I *1130:A I *D sky130_fd_sc_hd__buf_2
*I *893:Y O *D sky130_fd_sc_hd__nor2_1
*CAP
1 *1130:A 0.000876401
2 *893:Y 0.000876401
3 *838:B *1130:A 0
4 *855:B1 *1130:A 0
5 *858:A1 *1130:A 0
6 *858:B1 *1130:A 0
7 *866:B *1130:A 7.63125e-05
8 *885:C1 *1130:A 0
9 *1037:A *1130:A 0
10 *1111:A *1130:A 0
11 *113:19 *1130:A 0
12 *126:10 *1130:A 0
13 *127:12 *1130:A 0
*RES
1 *893:Y *1130:A 21.075 
*END

*D_NET *374 0.00489493
*CONN
*I *1131:A I *D sky130_fd_sc_hd__buf_2
*I *891:Y O *D sky130_fd_sc_hd__xnor2_1
*CAP
1 *1131:A 0.00102285
2 *891:Y 0.00102285
3 sum[9] *1131:A 2.75145e-05
4 *827:A_N *1131:A 0.000159957
5 *887:A2 *1131:A 4.60584e-05
6 *1052:A *1131:A 0.000166221
7 *1084:A *1131:A 0.00019762
8 *105:10 *1131:A 0
9 *105:12 *1131:A 0
10 *122:14 *1131:A 0.000116158
11 *154:8 *1131:A 0.00058622
12 *276:10 *1131:A 0.00013521
13 *292:10 *1131:A 2.75145e-05
14 *302:10 *1131:A 0.00123901
15 *331:12 *1131:A 0.000147755
*RES
1 *891:Y *1131:A 31.575 
*END
