*SPEF "ieee 1481-1999"
*DESIGN "cla8"
*DATE "10:37:29 Friday September 18, 2026"
*VENDOR "The OpenROAD Project"
*PROGRAM "OpenROAD"
*VERSION "edf00dff99f6c40d67a30c0e22a8191c5d2ed9d6"
*DESIGN_FLOW "NAME_SCOPE LOCAL" "PIN_CAP NONE"
*DIVIDER /
*DELIMITER :
*BUS_DELIMITER []
*T_UNIT 1 NS
*C_UNIT 1 PF
*R_UNIT 1 OHM
*L_UNIT 1 HENRY

*NAME_MAP
*3 a[0]
*4 a[1]
*5 a[2]
*6 a[3]
*7 a[4]
*8 a[5]
*9 a[6]
*10 a[7]
*11 b[0]
*12 b[1]
*13 b[2]
*14 b[3]
*15 b[4]
*16 b[5]
*17 b[6]
*18 b[7]
*19 cin
*20 cout
*21 sum[0]
*22 sum[1]
*23 sum[2]
*24 sum[3]
*25 sum[4]
*26 sum[5]
*27 sum[6]
*28 sum[7]
*29 _00_
*30 _01_
*31 _02_
*32 _03_
*33 _04_
*34 _05_
*35 _06_
*36 _07_
*37 _08_
*38 _09_
*39 _10_
*40 _11_
*41 _12_
*42 _13_
*43 _14_
*44 _15_
*45 _16_
*46 _17_
*47 _18_
*48 _19_
*49 _20_
*50 _21_
*51 _22_
*52 _23_
*53 _24_
*54 _25_
*55 _26_
*56 _27_
*57 _28_
*58 _29_
*59 _30_
*60 _31_
*61 _32_
*62 _33_
*63 _34_
*64 _35_
*65 _36_
*66 _37_
*67 _38_
*68 net1
*69 net10
*70 net11
*71 net12
*72 net13
*73 net14
*74 net15
*75 net16
*76 net17
*77 net18
*78 net19
*79 net2
*80 net20
*81 net21
*82 net22
*83 net23
*84 net24
*85 net25
*86 net26
*87 net3
*88 net4
*89 net5
*90 net6
*91 net7
*92 net8
*93 net9
*94 FILLER_0_20
*95 FILLER_0_29
*96 FILLER_0_6
*97 FILLER_1_29
*98 FILLER_1_3
*99 FILLER_1_54
*100 FILLER_2_29
*101 FILLER_2_3
*102 FILLER_3_22
*103 FILLER_3_34
*104 FILLER_4_13
*105 FILLER_4_25
*106 FILLER_4_29
*107 FILLER_4_41
*108 FILLER_4_50
*109 FILLER_4_9
*110 FILLER_5_24
*111 FILLER_5_32
*112 FILLER_5_38
*113 FILLER_6_16
*114 FILLER_7_13
*115 FILLER_7_25
*116 FILLER_7_3
*117 FILLER_8_10
*118 FILLER_8_22
*119 FILLER_8_29
*120 PHY_EDGE_ROW_0_Left_9
*121 PHY_EDGE_ROW_0_Right_0
*122 PHY_EDGE_ROW_1_Left_10
*123 PHY_EDGE_ROW_1_Right_1
*124 PHY_EDGE_ROW_2_Left_11
*125 PHY_EDGE_ROW_2_Right_2
*126 PHY_EDGE_ROW_3_Left_12
*127 PHY_EDGE_ROW_3_Right_3
*128 PHY_EDGE_ROW_4_Left_13
*129 PHY_EDGE_ROW_4_Right_4
*130 PHY_EDGE_ROW_5_Left_14
*131 PHY_EDGE_ROW_5_Right_5
*132 PHY_EDGE_ROW_6_Left_15
*133 PHY_EDGE_ROW_6_Right_6
*134 PHY_EDGE_ROW_7_Left_16
*135 PHY_EDGE_ROW_7_Right_7
*136 PHY_EDGE_ROW_8_Left_17
*137 PHY_EDGE_ROW_8_Right_8
*138 TAP_TAPCELL_ROW_0_18
*139 TAP_TAPCELL_ROW_2_19
*140 TAP_TAPCELL_ROW_4_20
*141 TAP_TAPCELL_ROW_6_21
*142 TAP_TAPCELL_ROW_8_22
*143 _39_
*144 _40_
*145 _41_
*146 _42_
*147 _43_
*148 _44_
*149 _45_
*150 _46_
*151 _47_
*152 _48_
*153 _49_
*154 _50_
*155 _51_
*156 _52_
*157 _53_
*158 _54_
*159 _55_
*160 _56_
*161 _57_
*162 _58_
*163 _59_
*164 _60_
*165 _61_
*166 _62_
*167 _63_
*168 _64_
*169 _65_
*170 _66_
*171 _67_
*172 _68_
*173 _69_
*174 _70_
*175 _71_
*176 _72_
*177 _73_
*178 _74_
*179 _75_
*180 _76_
*181 _77_
*182 _78_
*183 _79_
*184 _80_
*185 _81_
*186 _82_
*187 _83_
*188 _84_
*189 _85_
*190 _86_
*191 input1
*192 input10
*193 input11
*194 input12
*195 input13
*196 input14
*197 input15
*198 input16
*199 input17
*200 input2
*201 input3
*202 input4
*203 input5
*204 input6
*205 input7
*206 input8
*207 input9
*208 output18
*209 output19
*210 output20
*211 output21
*212 output22
*213 output23
*214 output24
*215 output25
*216 output26

*PORTS
a[0] I
a[1] I
a[2] I
a[3] I
a[4] I
a[5] I
a[6] I
a[7] I
b[0] I
b[1] I
b[2] I
b[3] I
b[4] I
b[5] I
b[6] I
b[7] I
cin I
cout O
sum[0] O
sum[1] O
sum[2] O
sum[3] O
sum[4] O
sum[5] O
sum[6] O
sum[7] O

*D_NET *3 0.00362737
*CONN
*P a[0] I
*I *191:A I *D sky130_fd_sc_hd__clkbuf_1
*CAP
1 a[0] 0.00117499
2 *191:A 0
3 *3:19 6.15045e-05
4 *3:13 0.00123649
5 *3:13 sum[0] 8.97484e-05
6 *3:13 sum[1] 2.47132e-05
7 *3:13 *151:A 0.000274553
8 *3:13 *4:15 0
9 *3:13 *11:15 7.22615e-05
10 *3:13 *19:15 0
11 *3:13 *21:8 0.000183525
12 *3:13 *68:10 0.000276468
13 *3:13 *80:8 9.15701e-05
14 *3:13 *93:8 0.000114092
15 *3:19 *36:8 4.2812e-06
16 *3:19 *76:10 2.3164e-05
*RES
1 a[0] *3:13 43.9115 
2 *3:13 *3:19 31.2014 
3 *3:19 *191:A 23 
*END

*D_NET *4 0.00157681
*CONN
*P a[1] I
*I *200:A I *D sky130_fd_sc_hd__clkbuf_1
*CAP
1 a[1] 0.000685943
2 *200:A 0
3 *4:15 0.000685943
4 *4:15 *162:A 1.59071e-05
5 *4:15 *162:B 2.93335e-05
6 *4:15 *192:A 9.65021e-05
7 *4:15 *69:10 5.3304e-05
8 *4:15 *79:10 9.87385e-06
9 *3:13 *4:15 0
*RES
1 a[1] *4:15 28.5679 
2 *4:15 *200:A 23 
*END

*D_NET *5 0.00151722
*CONN
*P a[2] I
*I *201:A I *D sky130_fd_sc_hd__buf_1
*CAP
1 a[2] 0.000496682
2 *201:A 0
3 *5:15 0.000496682
4 *5:15 *6:15 0.000368606
5 *5:15 *87:10 1.32939e-05
6 *5:15 *88:10 0.00014196
*RES
1 a[2] *5:15 31.7993 
2 *5:15 *201:A 23 
*END

*D_NET *6 0.00156179
*CONN
*P a[3] I
*I *202:A I *D sky130_fd_sc_hd__clkbuf_1
*CAP
1 a[3] 0.000376219
2 *202:A 0
3 *6:15 0.000376219
4 *6:15 *14:11 0.000116972
5 *6:15 *29:10 2.4754e-05
6 *6:15 *71:36 0.0002263
7 *6:15 *87:10 7.27182e-05
8 *5:15 *6:15 0.000368606
*RES
1 a[3] *6:15 31.6751 
2 *6:15 *202:A 23 
*END

*D_NET *7 0.000782387
*CONN
*P a[4] I
*I *203:A I *D sky130_fd_sc_hd__clkbuf_1
*CAP
1 a[4] 0.000250492
2 *203:A 0
3 *7:17 0.000250492
4 *7:17 *195:A 2.12457e-05
5 *7:17 *13:15 0.000260156
*RES
1 a[4] *7:17 27.1584 
2 *7:17 *203:A 23 
*END

*D_NET *8 0.00115602
*CONN
*P a[5] I
*I *204:A I *D sky130_fd_sc_hd__clkbuf_1
*CAP
1 a[5] 0.000543157
2 *204:A 0
3 *8:15 0.000543157
4 *8:15 sum[4] 6.9705e-05
*RES
1 a[5] *8:15 32.101 
2 *8:15 *204:A 23 
*END

*D_NET *9 0.00199168
*CONN
*P a[6] I
*I *205:A I *D sky130_fd_sc_hd__clkbuf_1
*CAP
1 a[6] 0.00094297
2 *205:A 0
3 *9:13 0.00094297
4 *9:13 cout 8.73764e-05
5 *9:13 sum[6] 0
6 *9:13 *66:14 1.83667e-05
*RES
1 a[6] *9:13 33.4692 
2 *9:13 *205:A 23 
*END

*D_NET *10 0.00098638
*CONN
*P a[7] I
*I *206:A I *D sky130_fd_sc_hd__clkbuf_1
*CAP
1 a[7] 0.000309188
2 *206:A 0
3 *10:11 0.000309188
4 *10:11 *197:A 8.43483e-05
5 *10:11 *18:13 0.000172271
6 *10:11 *50:50 5.02657e-05
7 *10:11 *92:10 6.11183e-05
*RES
1 a[7] *10:11 27.6004 
2 *10:11 *206:A 23 
*END

*D_NET *11 0.00146585
*CONN
*P b[0] I
*I *207:A I *D sky130_fd_sc_hd__clkbuf_1
*CAP
1 b[0] 0.000501423
2 *207:A 0
3 *11:15 0.000501423
4 *11:15 sum[0] 0
5 *11:15 sum[1] 0.000106661
6 *11:15 *19:15 0.000190167
7 *11:15 *38:27 1.9072e-05
8 *11:15 *80:8 7.48456e-05
9 *3:13 *11:15 7.22615e-05
*RES
1 b[0] *11:15 30.7489 
2 *11:15 *207:A 23 
*END

*D_NET *12 0.00117852
*CONN
*P b[1] I
*I *192:A I *D sky130_fd_sc_hd__clkbuf_1
*CAP
1 b[1] 0.000509449
2 *192:A 0.000509449
3 *192:A sum[2] 0
4 *192:A *69:10 5.94125e-05
5 *192:A *79:10 3.7122e-06
6 *192:A *81:10 0
7 *4:15 *192:A 9.65021e-05
*RES
1 b[1] *192:A 48.5643 
*END

*D_NET *13 0.00108001
*CONN
*P b[2] I
*I *193:A I *D sky130_fd_sc_hd__buf_1
*CAP
1 b[2] 0.000357716
2 *193:A 0
3 *13:15 0.000357716
4 *13:15 *195:A 0
5 *13:15 *14:11 3.49463e-05
6 *13:15 *53:14 5.70419e-05
7 *13:15 *70:10 1.24376e-05
8 *7:17 *13:15 0.000260156
*RES
1 b[2] *13:15 29.8639 
2 *13:15 *193:A 23 
*END

*D_NET *14 0.00126633
*CONN
*P b[3] I
*I *194:A I *D sky130_fd_sc_hd__clkbuf_1
*CAP
1 b[3] 0.000378014
2 *194:A 0
3 *14:11 0.000378014
4 *14:11 *29:10 0.000343625
5 *14:11 *71:14 1.47563e-05
6 *14:11 *88:10 0
7 *14:11 *88:21 0
8 *6:15 *14:11 0.000116972
9 *13:15 *14:11 3.49463e-05
*RES
1 b[3] *14:11 29.3611 
2 *14:11 *194:A 23 
*END

*D_NET *15 0.00143083
*CONN
*P b[4] I
*I *195:A I *D sky130_fd_sc_hd__clkbuf_1
*CAP
1 b[4] 0.000684238
2 *195:A 0.000684238
3 *195:A sum[4] 0
4 *195:A *188:A 0
5 *195:A *16:17 3.12475e-05
6 *195:A *60:8 0
7 *195:A *72:8 9.86551e-06
8 *7:17 *195:A 2.12457e-05
9 *13:15 *195:A 0
*RES
1 b[4] *195:A 48.8136 
*END

*D_NET *16 0.000777366
*CONN
*P b[5] I
*I *196:A I *D sky130_fd_sc_hd__clkbuf_1
*CAP
1 b[5] 0.000362436
2 *196:A 0
3 *16:17 0.000362436
4 *16:17 sum[4] 2.12457e-05
5 *16:17 *73:8 0
6 *195:A *16:17 3.12475e-05
*RES
1 b[5] *16:17 28.567 
2 *16:17 *196:A 23 
*END

*D_NET *17 0.000732891
*CONN
*P b[6] I
*I *197:A I *D sky130_fd_sc_hd__clkbuf_1
*CAP
1 b[6] 0.000283459
2 *197:A 0.000283459
3 *197:A sum[1] 8.16249e-05
4 *10:11 *197:A 8.43483e-05
*RES
1 b[6] *197:A 47.3365 
*END

*D_NET *18 0.00123001
*CONN
*P b[7] I
*I *198:A I *D sky130_fd_sc_hd__clkbuf_1
*CAP
1 b[7] 0.000375964
2 *198:A 0
3 *18:13 0.000375964
4 *18:13 sum[7] 6.42401e-05
5 *18:13 *50:50 0.000241569
6 *10:11 *18:13 0.000172271
*RES
1 b[7] *18:13 29.1924 
2 *18:13 *198:A 23 
*END

*D_NET *19 0.00200797
*CONN
*P cin I
*I *199:A I *D sky130_fd_sc_hd__buf_1
*CAP
1 cin 0.000853513
2 *199:A 0
3 *19:15 0.000853513
4 *19:15 sum[0] 6.23473e-05
5 *19:15 sum[1] 2.61527e-06
6 *19:15 *21:8 2.2781e-05
7 *19:15 *92:10 2.30292e-05
8 *3:13 *19:15 0
9 *11:15 *19:15 0.000190167
*RES
1 cin *19:15 38.2208 
2 *19:15 *199:A 23 
*END

*D_NET *20 0.000990042
*CONN
*P cout O
*I *208:X O *D sky130_fd_sc_hd__buf_2
*CAP
1 cout 0.000148974
2 *208:X 0.000240876
3 *20:8 0.00038985
4 cout sum[6] 8.73764e-05
5 *20:8 sum[6] 0
6 *20:8 *77:8 3.55887e-05
7 *9:13 cout 8.73764e-05
*RES
1 *208:X *20:8 42.8989 
2 *20:8 cout 8.84373 
*END

*D_NET *21 0.000954079
*CONN
*P sum[0] O
*I *209:X O *D sky130_fd_sc_hd__buf_2
*CAP
1 sum[0] 0.000147852
2 *209:X 0.000149987
3 *21:8 0.000297839
4 *3:13 sum[0] 8.97484e-05
5 *3:13 *21:8 0.000183525
6 *11:15 sum[0] 0
7 *19:15 sum[0] 6.23473e-05
8 *19:15 *21:8 2.2781e-05
*RES
1 *209:X *21:8 42.5468 
2 *21:8 sum[0] 8.84373 
*END

*D_NET *22 0.000660219
*CONN
*P sum[1] O
*I *210:X O *D sky130_fd_sc_hd__buf_2
*CAP
1 sum[1] 0.000222302
2 *210:X 0.000222302
3 *197:A sum[1] 8.16249e-05
4 *3:13 sum[1] 2.47132e-05
5 *11:15 sum[1] 0.000106661
6 *19:15 sum[1] 2.61527e-06
*RES
1 *210:X sum[1] 47.5169 
*END

*D_NET *23 0.000916456
*CONN
*P sum[2] O
*I *211:X O *D sky130_fd_sc_hd__buf_2
*CAP
1 sum[2] 0.000458228
2 *211:X 0.000458228
3 sum[2] sum[3] 0
4 *192:A sum[2] 0
*RES
1 *211:X sum[2] 49.4136 
*END

*D_NET *24 0.00101793
*CONN
*P sum[3] O
*I *212:X O *D sky130_fd_sc_hd__buf_2
*CAP
1 sum[3] 0.000494273
2 *212:X 0.000494273
3 sum[3] *212:A 2.93845e-05
4 sum[2] sum[3] 0
*RES
1 *212:X sum[3] 47.57 
*END

*D_NET *25 0.000783742
*CONN
*P sum[4] O
*I *213:X O *D sky130_fd_sc_hd__buf_2
*CAP
1 sum[4] 0.000346396
2 *213:X 0.000346396
3 sum[4] *83:10 0
4 *195:A sum[4] 0
5 *8:15 sum[4] 6.9705e-05
6 *16:17 sum[4] 2.12457e-05
*RES
1 *213:X sum[4] 49.1474 
*END

*D_NET *26 0.00128698
*CONN
*P sum[5] O
*I *214:X O *D sky130_fd_sc_hd__buf_2
*CAP
1 sum[5] 0.000643489
2 *214:X 0
3 *26:6 0.000643489
4 sum[5] *84:8 0
*RES
1 *214:X *26:6 38 
2 *26:6 sum[5] 14.1479 
*END

*D_NET *27 0.000862373
*CONN
*P sum[6] O
*I *215:X O *D sky130_fd_sc_hd__buf_2
*CAP
1 sum[6] 0.000300755
2 *215:X 0.000300755
3 sum[6] sum[7] 0.000118166
4 sum[6] *64:10 1.97329e-05
5 sum[6] *77:8 3.55887e-05
6 cout sum[6] 8.73764e-05
7 *9:13 sum[6] 0
8 *20:8 sum[6] 0
*RES
1 *215:X sum[6] 48.5647 
*END

*D_NET *28 0.00176669
*CONN
*P sum[7] O
*I *216:X O *D sky130_fd_sc_hd__buf_2
*CAP
1 sum[7] 0.000767795
2 *216:X 0.000767795
3 sum[7] *60:42 2.33476e-05
4 sum[7] *91:8 2.5343e-05
5 sum[6] sum[7] 0.000118166
6 *18:13 sum[7] 6.42401e-05
*RES
1 *216:X sum[7] 48.2811 
*END

*D_NET *29 0.0014502
*CONN
*I *146:A I *D sky130_fd_sc_hd__nor2_1
*I *143:Y O *D sky130_fd_sc_hd__nor2_1
*CAP
1 *146:A 0
2 *143:Y 0.000293396
3 *29:10 0.000293396
4 *29:10 *71:14 0.000354769
5 *29:10 *71:36 0.000140259
6 *6:15 *29:10 2.4754e-05
7 *14:11 *29:10 0.000343625
*RES
1 *143:Y *29:10 44.7736 
2 *29:10 *146:A 38 
*END

*D_NET *30 0.00122665
*CONN
*I *176:B1 I *D sky130_fd_sc_hd__o31ai_2
*I *174:A1 I *D sky130_fd_sc_hd__a211o_1
*I *144:X O *D sky130_fd_sc_hd__or2_1
*CAP
1 *176:B1 0
2 *174:A1 0.000123146
3 *144:X 0.000249111
4 *30:12 0.000123146
5 *30:10 0.000249111
6 *174:A1 *174:A2 9.84851e-05
7 *174:A1 *174:B1 2.02517e-05
8 *174:A1 *174:C1 4.79544e-05
9 *174:A1 *176:A3 4.00259e-06
10 *30:10 *147:A 3.22879e-05
11 *30:10 *147:B 3.17516e-05
12 *30:10 *33:8 0.000151907
13 *30:10 *33:10 1.14452e-05
14 *30:10 *58:14 8.4047e-05
15 *30:10 *87:29 0
*RES
1 *144:X *30:10 42.3086 
2 *30:10 *30:12 15 
3 *30:12 *174:A1 26.045 
4 *30:12 *176:B1 23 
*END

*D_NET *31 0.00162514
*CONN
*I *174:C1 I *D sky130_fd_sc_hd__a211o_1
*I *176:A3 I *D sky130_fd_sc_hd__o31ai_2
*I *146:B I *D sky130_fd_sc_hd__nor2_1
*I *145:X O *D sky130_fd_sc_hd__and2_1
*CAP
1 *174:C1 0.000223803
2 *176:A3 1.1188e-05
3 *146:B 5.60168e-05
4 *145:X 4.4983e-05
5 *31:23 0.000419954
6 *31:12 0.000261038
7 *31:8 6.50408e-05
8 *146:B *32:10 1.94693e-05
9 *174:C1 *161:A 1.37232e-05
10 *174:C1 *174:A2 9.84851e-05
11 *174:C1 *174:B1 4.37033e-05
12 *174:C1 *56:10 2.93845e-05
13 *174:C1 *58:14 2.93747e-05
14 *31:8 *70:14 0.000116314
15 *31:8 *88:21 0.000116314
16 *31:23 *32:10 2.43944e-05
17 *174:A1 *174:C1 4.79544e-05
18 *174:A1 *176:A3 4.00259e-06
*RES
1 *145:X *31:8 39.5536 
2 *31:8 *31:12 15.4971 
3 *31:12 *146:B 24.1186 
4 *31:12 *31:23 3.00357 
5 *31:23 *176:A3 23.4971 
6 *31:23 *174:C1 28.4064 
*END

*D_NET *32 0.000789647
*CONN
*I *159:A I *D sky130_fd_sc_hd__xnor2_1
*I *146:Y O *D sky130_fd_sc_hd__nor2_1
*CAP
1 *159:A 0
2 *146:Y 0.000234174
3 *32:10 0.000234174
4 *32:10 *87:29 0.000138718
5 *32:10 *88:21 0.000138718
6 *146:B *32:10 1.94693e-05
7 *31:23 *32:10 2.43944e-05
*RES
1 *146:Y *32:10 41.9564 
2 *32:10 *159:A 38 
*END

*D_NET *33 0.00151718
*CONN
*I *174:A2 I *D sky130_fd_sc_hd__a211o_1
*I *158:B1_N I *D sky130_fd_sc_hd__o21ba_1
*I *149:A I *D sky130_fd_sc_hd__nor2_1
*I *147:X O *D sky130_fd_sc_hd__and2_1
*CAP
1 *174:A2 2.01521e-05
2 *158:B1_N 1.80505e-05
3 *149:A 0.000161991
4 *147:X 8.67466e-05
5 *33:10 0.000339788
6 *33:8 0.000266645
7 *149:A *34:14 8.33365e-05
8 *149:A *71:36 0
9 *149:A *87:10 0
10 *149:A *87:29 0
11 *158:B1_N *34:6 5.50049e-05
12 *158:B1_N *82:10 2.93747e-05
13 *33:8 *175:A1 0
14 *33:8 *56:10 8.62876e-05
15 *33:10 *34:14 9.48381e-06
16 *33:10 *40:10 0
17 *33:10 *43:10 0
18 *33:10 *87:29 0
19 *174:A1 *174:A2 9.84851e-05
20 *174:C1 *174:A2 9.84851e-05
21 *30:10 *33:8 0.000151907
22 *30:10 *33:10 1.14452e-05
*RES
1 *147:X *33:8 40.2579 
2 *33:8 *33:10 2.61 
3 *33:10 *149:A 41.3143 
4 *33:10 *158:B1_N 38.6214 
5 *33:8 *174:A2 39.0979 
*END

*D_NET *34 0.00190244
*CONN
*I *158:A1 I *D sky130_fd_sc_hd__o21ba_1
*I *149:B I *D sky130_fd_sc_hd__nor2_1
*I *148:Y O *D sky130_fd_sc_hd__nor2_1
*CAP
1 *158:A1 5.34141e-05
2 *149:B 0
3 *148:Y 0.000357297
4 *34:14 0.000211928
5 *34:6 0.00062264
6 *158:A1 *158:A2 2.91168e-05
7 *34:6 *148:A 9.84851e-05
8 *34:6 *148:B 7.73389e-05
9 *34:6 *158:A2 2.93747e-05
10 *34:6 *159:B 0.000103647
11 *34:6 *82:10 5.79892e-05
12 *34:14 *35:10 1.94693e-05
13 *34:14 *43:10 0
14 *34:14 *82:10 9.39159e-05
15 *149:A *34:14 8.33365e-05
16 *158:B1_N *34:6 5.50049e-05
17 *33:10 *34:14 9.48381e-06
*RES
1 *148:Y *34:6 30.2914 
2 *34:6 *34:14 34.2879 
3 *34:14 *149:B 23 
4 *34:6 *158:A1 24.1186 
*END

*D_NET *35 0.000756638
*CONN
*I *160:A I *D sky130_fd_sc_hd__xnor2_1
*I *149:Y O *D sky130_fd_sc_hd__nor2_1
*CAP
1 *160:A 0
2 *149:Y 0.000304934
3 *35:10 0.000304934
4 *35:10 *212:A 3.71369e-05
5 *35:10 *43:10 3.70187e-05
6 *35:10 *81:10 0
7 *35:10 *82:10 5.31444e-05
8 *34:14 *35:10 1.94693e-05
*RES
1 *149:Y *35:10 42.785 
2 *35:10 *160:A 38 
*END

*D_NET *36 0.00181772
*CONN
*I *156:A I *D sky130_fd_sc_hd__nor2_1
*I *157:B1 I *D sky130_fd_sc_hd__a21oi_1
*I *174:B1 I *D sky130_fd_sc_hd__a211o_1
*I *150:X O *D sky130_fd_sc_hd__and2_1
*CAP
1 *156:A 2.54672e-05
2 *157:B1 0
3 *174:B1 6.77668e-05
4 *150:X 0.000114156
5 *36:14 0.000477696
6 *36:10 0.000435397
7 *36:8 0.000114156
8 *156:A *80:8 5.56356e-05
9 *36:8 *41:10 0.000138727
10 *36:14 *161:A 0.000202495
11 *36:14 *42:6 4.34921e-05
12 *36:14 *42:10 1.59071e-05
13 *36:14 *43:10 1.51028e-05
14 *36:14 *80:8 4.34876e-05
15 *174:A1 *174:B1 2.02517e-05
16 *174:C1 *174:B1 4.37033e-05
17 *3:19 *36:8 4.2812e-06
*RES
1 *150:X *36:8 39.9057 
2 *36:8 *36:10 15 
3 *36:10 *36:14 8.265 
4 *36:14 *174:B1 24.595 
5 *36:14 *157:B1 23 
6 *36:10 *156:A 23.6214 
*END

*D_NET *37 0.00115085
*CONN
*I *153:A I *D sky130_fd_sc_hd__nand2_1
*I *154:B1_N I *D sky130_fd_sc_hd__a21bo_1
*I *151:Y O *D sky130_fd_sc_hd__nand2_1
*CAP
1 *153:A 0.000141401
2 *154:B1_N 0
3 *151:Y 0.000107626
4 *37:10 0.000249027
5 *153:A *151:B 6.70363e-05
6 *153:A *38:27 0.00016046
7 *153:A *68:10 0.000150789
8 *153:A *76:10 1.83977e-05
9 *37:10 *151:B 0.000138727
10 *37:10 *209:A 2.93747e-05
11 *37:10 *38:27 3.70187e-05
12 *37:10 *39:8 5.09885e-05
*RES
1 *151:Y *37:10 40.5271 
2 *37:10 *154:B1_N 38 
3 *37:10 *153:A 41.7286 
*END

*D_NET *38 0.00161327
*CONN
*I *153:B I *D sky130_fd_sc_hd__nand2_1
*I *154:A2 I *D sky130_fd_sc_hd__a21bo_1
*I *152:X O *D sky130_fd_sc_hd__or2_1
*CAP
1 *153:B 0
2 *154:A2 0.000166377
3 *152:X 0.000222815
4 *38:27 0.000160738
5 *38:6 0.00054993
6 *154:A2 *154:A1 2.93335e-05
7 *38:6 *152:A 1.59094e-05
8 *38:27 *39:8 0.000197479
9 *38:27 *80:8 5.41385e-05
10 *153:A *38:27 0.00016046
11 *11:15 *38:27 1.9072e-05
12 *37:10 *38:27 3.70187e-05
*RES
1 *152:X *38:6 26.0036 
2 *38:6 *154:A2 25.5479 
3 *38:6 *38:27 34.7021 
4 *38:27 *153:B 23 
*END

*D_NET *39 0.00107509
*CONN
*I *162:B I *D sky130_fd_sc_hd__xnor2_1
*I *153:Y O *D sky130_fd_sc_hd__nand2_1
*CAP
1 *162:B 4.74321e-05
2 *153:Y 0.000148876
3 *39:8 0.000196308
4 *162:B *162:A 5.79559e-05
5 *39:8 *151:B 1.80023e-05
6 *39:8 *162:A 0.000189005
7 *39:8 *69:10 0
8 *39:8 *76:10 0.000139713
9 *4:15 *162:B 2.93335e-05
10 *37:10 *39:8 5.09885e-05
11 *38:27 *39:8 0.000197479
*RES
1 *153:Y *39:8 42.7229 
2 *39:8 *162:B 39.0979 
*END

*D_NET *40 0.00329102
*CONN
*I *175:A1 I *D sky130_fd_sc_hd__a21oi_1
*I *161:A I *D sky130_fd_sc_hd__xor2_1
*I *157:A1 I *D sky130_fd_sc_hd__a21oi_1
*I *154:X O *D sky130_fd_sc_hd__a21bo_1
*CAP
1 *175:A1 0.000276327
2 *161:A 0.000121908
3 *157:A1 0
4 *154:X 0.000434557
5 *40:12 0.000121908
6 *40:10 0.000710885
7 *161:A *161:B 1.12349e-05
8 *161:A *42:10 0.000318399
9 *175:A1 *157:A2 6.38845e-05
10 *175:A1 *175:A2 0.000387132
11 *175:A1 *56:10 0
12 *175:A1 *57:10 0
13 *40:10 *155:A 4.93812e-05
14 *40:10 *155:B 0.000144494
15 *40:10 *157:A2 1.14452e-05
16 *40:10 *41:10 0.000234102
17 *40:10 *43:10 0.000114074
18 *40:10 *69:14 2.02872e-05
19 *40:10 *81:10 5.47808e-05
20 *174:C1 *161:A 1.37232e-05
21 *33:8 *175:A1 0
22 *33:10 *40:10 0
23 *36:14 *161:A 0.000202495
*RES
1 *154:X *40:10 47.5493 
2 *40:10 *40:12 15 
3 *40:12 *157:A1 23 
4 *40:12 *161:A 27.9507 
5 *40:10 *175:A1 44.4629 
*END

*D_NET *41 0.000852104
*CONN
*I *156:B I *D sky130_fd_sc_hd__nor2_1
*I *155:Y O *D sky130_fd_sc_hd__nor2_1
*CAP
1 *156:B 0
2 *155:Y 0.000239638
3 *41:10 0.000239638
4 *36:8 *41:10 0.000138727
5 *40:10 *41:10 0.000234102
*RES
1 *155:Y *41:10 42.4329 
2 *41:10 *156:B 38 
*END

*D_NET *42 0.00201269
*CONN
*I *161:B I *D sky130_fd_sc_hd__xor2_1
*I *175:A2 I *D sky130_fd_sc_hd__a21oi_1
*I *157:A2 I *D sky130_fd_sc_hd__a21oi_1
*I *156:Y O *D sky130_fd_sc_hd__nor2_1
*CAP
1 *161:B 2.07933e-05
2 *175:A2 0.000233362
3 *157:A2 3.73974e-05
4 *156:Y 8.97417e-05
5 *42:10 0.000441711
6 *42:6 0.000281487
7 *175:A2 *57:10 0
8 *42:6 *80:8 5.67058e-05
9 *161:A *161:B 1.12349e-05
10 *161:A *42:10 0.000318399
11 *175:A1 *157:A2 6.38845e-05
12 *175:A1 *175:A2 0.000387132
13 *36:14 *42:6 4.34921e-05
14 *36:14 *42:10 1.59071e-05
15 *40:10 *157:A2 1.14452e-05
*RES
1 *156:Y *42:6 25.0507 
2 *42:6 *42:10 18.9564 
3 *42:10 *157:A2 38.8493 
4 *42:10 *175:A2 43.6136 
5 *42:6 *161:B 23.4971 
*END

*D_NET *43 0.000927656
*CONN
*I *160:B I *D sky130_fd_sc_hd__xnor2_1
*I *158:A2 I *D sky130_fd_sc_hd__o21ba_1
*I *157:Y O *D sky130_fd_sc_hd__a21oi_1
*CAP
1 *160:B 0
2 *158:A2 0.000167511
3 *157:Y 0.000114298
4 *43:12 0.000167511
5 *43:10 0.000114298
6 *158:A2 *82:10 0.000139352
7 *158:A1 *158:A2 2.91168e-05
8 *33:10 *43:10 0
9 *34:6 *158:A2 2.93747e-05
10 *34:14 *43:10 0
11 *35:10 *43:10 3.70187e-05
12 *36:14 *43:10 1.51028e-05
13 *40:10 *43:10 0.000114074
*RES
1 *157:Y *43:10 40.4339 
2 *43:10 *43:12 15 
3 *43:12 *158:A2 26.5007 
4 *43:12 *160:B 23 
*END

*D_NET *44 0.000292482
*CONN
*I *159:B I *D sky130_fd_sc_hd__xnor2_1
*I *158:X O *D sky130_fd_sc_hd__o21ba_1
*CAP
1 *159:B 6.6065e-05
2 *158:X 6.6065e-05
3 *159:B *82:10 5.67058e-05
4 *34:6 *159:B 0.000103647
*RES
1 *158:X *159:B 48.0507 
*END

*D_NET *45 0.000983697
*CONN
*I *190:A1 I *D sky130_fd_sc_hd__o221a_1
*I *163:X O *D sky130_fd_sc_hd__and2_1
*CAP
1 *190:A1 0
2 *163:X 0.000279758
3 *45:10 0.000279758
4 *45:10 *167:A 6.17437e-06
5 *45:10 *183:B 0
6 *45:10 *190:C1 0
7 *45:10 *49:10 0.000110913
8 *45:10 *49:25 0.000237781
9 *45:10 *50:50 0
10 *45:10 *67:10 5.35429e-05
11 *45:10 *75:14 1.5769e-05
*RES
1 *163:X *45:10 43.6964 
2 *45:10 *190:A1 38 
*END

*D_NET *46 0.00391249
*CONN
*I *189:A I *D sky130_fd_sc_hd__nand2_1
*I *166:A I *D sky130_fd_sc_hd__nand2_1
*I *164:Y O *D sky130_fd_sc_hd__nand2_1
*CAP
1 *189:A 0.000552391
2 *166:A 0
3 *164:Y 0.000268577
4 *46:16 0.000394213
5 *46:6 0.00121518
6 *189:A *181:B1 0.00039523
7 *189:A *182:A 2.02872e-05
8 *189:A *67:10 6.71408e-06
9 *46:6 *170:B 6.58415e-06
10 *46:6 *181:C1 2.93335e-05
11 *46:6 *75:30 0.000181169
12 *46:16 *166:B 5.56279e-05
13 *46:16 *170:B 0.000133649
14 *46:16 *50:14 0.000461619
15 *46:16 *50:18 6.07397e-05
16 *46:16 *91:8 0.000108681
17 *46:16 *92:18 2.24973e-05
*RES
1 *164:Y *46:6 26.48 
2 *46:6 *46:16 39.1764 
3 *46:16 *166:A 23 
4 *46:6 *189:A 30.6643 
*END

*D_NET *47 0.00184302
*CONN
*I *190:C1 I *D sky130_fd_sc_hd__o221a_1
*I *166:B I *D sky130_fd_sc_hd__nand2_1
*I *165:X O *D sky130_fd_sc_hd__or2_1
*CAP
1 *190:C1 0.000342052
2 *166:B 0.000259278
3 *165:X 4.35499e-05
4 *47:8 0.000644879
5 *166:B *48:10 2.07944e-05
6 *166:B *50:14 0
7 *166:B *91:31 0.000210851
8 *190:C1 *190:B1 5.56279e-05
9 *190:C1 *48:10 5.57761e-05
10 *190:C1 *49:25 0
11 *190:C1 *60:42 2.45027e-05
12 *190:C1 *86:10 7.44498e-05
13 *47:8 *91:14 5.56279e-05
14 *45:10 *190:C1 0
15 *46:16 *166:B 5.56279e-05
*RES
1 *165:X *47:8 38.6214 
2 *47:8 *166:B 42.64 
3 *47:8 *190:C1 44.4629 
*END

*D_NET *48 0.00140669
*CONN
*I *182:A I *D sky130_fd_sc_hd__xnor2_1
*I *166:Y O *D sky130_fd_sc_hd__nand2_1
*CAP
1 *182:A 5.48259e-05
2 *166:Y 0.000275912
3 *48:10 0.000330738
4 *182:A *181:B1 5.3304e-05
5 *182:A *182:B 5.3304e-05
6 *48:10 *167:A 4.60366e-05
7 *48:10 *49:10 0.000215782
8 *48:10 *49:25 2.46345e-05
9 *48:10 *50:14 9.41704e-05
10 *48:10 *91:31 0.000161121
11 *166:B *48:10 2.07944e-05
12 *189:A *182:A 2.02872e-05
13 *190:C1 *48:10 5.57761e-05
*RES
1 *166:Y *48:10 43.8207 
2 *48:10 *182:A 39.0979 
*END

*D_NET *49 0.00270097
*CONN
*I *183:A I *D sky130_fd_sc_hd__nand2_1
*I *190:A2 I *D sky130_fd_sc_hd__o221a_1
*I *181:B1 I *D sky130_fd_sc_hd__o211a_1
*I *167:X O *D sky130_fd_sc_hd__or2_1
*CAP
1 *183:A 9.11275e-05
2 *190:A2 1.80505e-05
3 *181:B1 0.000173127
4 *167:X 0.000118681
5 *49:25 0.000256674
6 *49:10 0.000439303
7 *181:B1 *182:B 6.82101e-05
8 *181:B1 *86:10 2.16575e-05
9 *183:A *190:B2 0.000125213
10 *183:A *64:10 9.91798e-05
11 *190:A2 *190:B2 5.50049e-05
12 *190:A2 *64:10 2.93747e-05
13 *49:10 *167:A 5.94125e-05
14 *49:10 *50:50 0
15 *49:10 *75:14 5.3304e-05
16 *49:10 *92:18 5.50049e-05
17 *182:A *181:B1 5.3304e-05
18 *189:A *181:B1 0.00039523
19 *190:C1 *49:25 0
20 *45:10 *49:10 0.000110913
21 *45:10 *49:25 0.000237781
22 *48:10 *49:10 0.000215782
23 *48:10 *49:25 2.46345e-05
*RES
1 *167:X *49:10 41.5836 
2 *49:10 *181:B1 42.93 
3 *49:10 *49:25 18.3143 
4 *49:25 *190:A2 23.6214 
5 *49:25 *183:A 25.5479 
*END

*D_NET *50 0.00415933
*CONN
*I *183:B I *D sky130_fd_sc_hd__nand2_1
*I *189:B I *D sky130_fd_sc_hd__nand2_1
*I *170:B I *D sky130_fd_sc_hd__nand2b_1
*I *180:A I *D sky130_fd_sc_hd__nand2_1
*I *168:Y O *D sky130_fd_sc_hd__nand2_1
*CAP
1 *183:B 0.000180551
2 *189:B 0
3 *170:B 0.000270308
4 *180:A 0
5 *168:Y 0
6 *50:50 0.000623337
7 *50:18 0.000303915
8 *50:14 0.000376015
9 *50:4 0.000785194
10 *170:B *181:C1 2.93335e-05
11 *170:B *75:30 0.000139907
12 *170:B *91:8 4.78036e-05
13 *170:B *92:36 3.18151e-05
14 *183:B *67:10 3.14242e-05
15 *50:14 *75:30 9.41704e-05
16 *50:14 *92:18 3.70094e-05
17 *50:18 *75:30 3.64337e-05
18 *50:50 *163:B 1.4471e-05
19 *50:50 *75:8 9.67556e-05
20 *50:50 *92:10 1.22906e-05
21 *166:B *50:14 0
22 *10:11 *50:50 5.02657e-05
23 *18:13 *50:50 0.000241569
24 *45:10 *183:B 0
25 *45:10 *50:50 0
26 *46:6 *170:B 6.58415e-06
27 *46:16 *170:B 0.000133649
28 *46:16 *50:14 0.000461619
29 *46:16 *50:18 6.07397e-05
30 *48:10 *50:14 9.41704e-05
31 *49:10 *50:50 0
*RES
1 *168:Y *50:4 23 
2 *50:4 *50:14 37.4364 
3 *50:14 *50:18 15.8493 
4 *50:18 *180:A 38 
5 *50:18 *170:B 44.0382 
6 *50:4 *50:50 23.3686 
7 *50:50 *189:B 38 
8 *50:50 *183:B 41.3143 
*END

*D_NET *51 0.00256842
*CONN
*I *185:A1 I *D sky130_fd_sc_hd__a21bo_1
*I *170:A_N I *D sky130_fd_sc_hd__nand2b_1
*I *184:A I *D sky130_fd_sc_hd__nand2_1
*I *169:X O *D sky130_fd_sc_hd__or2_1
*CAP
1 *185:A1 8.57463e-05
2 *170:A_N 0
3 *184:A 3.09148e-05
4 *169:X 0.00022383
5 *51:21 0.000168243
6 *51:15 0.000347312
7 *51:6 0.000348066
8 *184:A *184:B 3.77561e-06
9 *185:A1 *60:29 0.000183021
10 *51:6 *187:A 0.000141954
11 *51:6 *187:B 4.79641e-05
12 *51:6 *60:29 1.24376e-05
13 *51:6 *61:8 6.64697e-05
14 *51:15 *184:B 5.67058e-05
15 *51:15 *187:B 2.4754e-05
16 *51:15 *60:29 0.00044458
17 *51:15 *61:8 9.24795e-06
18 *51:15 *61:19 0.000145611
19 *51:21 *180:B 8.81402e-05
20 *51:21 *59:8 0
21 *51:21 *60:29 0
22 *51:21 *61:29 0.000139647
*RES
1 *169:X *51:6 27.9093 
2 *51:6 *184:A 23.4971 
3 *51:6 *51:15 4.90929 
4 *51:15 *51:21 33.6664 
5 *51:21 *170:A_N 23 
6 *51:15 *185:A1 25.0714 
*END

*D_NET *52 0.000102631
*CONN
*I *181:C1 I *D sky130_fd_sc_hd__o211a_1
*I *170:Y O *D sky130_fd_sc_hd__nand2b_1
*CAP
1 *181:C1 2.1982e-05
2 *170:Y 2.1982e-05
3 *170:B *181:C1 2.93335e-05
4 *46:6 *181:C1 2.93335e-05
*RES
1 *170:Y *181:C1 46.6214 
*END

*D_NET *53 0.00217796
*CONN
*I *178:B1 I *D sky130_fd_sc_hd__o31ai_2
*I *173:A I *D sky130_fd_sc_hd__nand2_1
*I *171:Y O *D sky130_fd_sc_hd__nand2_1
*CAP
1 *178:B1 0.000444767
2 *173:A 0
3 *171:Y 0
4 *53:14 0.000307905
5 *53:4 0.000752672
6 *178:B1 *171:A 3.34247e-05
7 *178:B1 *171:B 9.84794e-05
8 *178:B1 *177:A 2.02872e-05
9 *178:B1 *177:B 0.000176789
10 *178:B1 *178:A2 9.4713e-05
11 *178:B1 *72:12 8.2832e-05
12 *53:14 *54:8 0
13 *53:14 *70:10 3.34247e-05
14 *53:14 *89:10 7.56279e-05
15 *13:15 *53:14 5.70419e-05
*RES
1 *171:Y *53:4 23 
2 *53:4 *53:14 36.3593 
3 *53:14 *173:A 23 
4 *53:4 *178:B1 32.4043 
*END

*D_NET *54 0.000328552
*CONN
*I *173:B I *D sky130_fd_sc_hd__nand2_1
*I *172:X O *D sky130_fd_sc_hd__or2_1
*CAP
1 *173:B 0
2 *172:X 0.000120017
3 *54:8 0.000120017
4 *54:8 *55:8 8.85189e-05
5 *54:8 *58:14 0
6 *54:8 *89:10 0
7 *53:14 *54:8 0
*RES
1 *172:X *54:8 40.2579 
2 *54:8 *173:B 38 
*END

*D_NET *55 0.000763643
*CONN
*I *188:A I *D sky130_fd_sc_hd__xnor2_1
*I *178:A1 I *D sky130_fd_sc_hd__o31ai_2
*I *173:Y O *D sky130_fd_sc_hd__nand2_1
*CAP
1 *188:A 0.00017093
2 *178:A1 0
3 *173:Y 0.000113916
4 *55:8 0.000284846
5 *188:A *178:A3 0
6 *188:A *188:B 5.50049e-05
7 *188:A *57:10 0
8 *188:A *72:8 5.0427e-05
9 *55:8 *178:A3 0
10 *55:8 *58:14 0
11 *55:8 *89:10 0
12 *195:A *188:A 0
13 *54:8 *55:8 8.85189e-05
*RES
1 *173:Y *55:8 40.2579 
2 *55:8 *178:A1 38 
3 *55:8 *188:A 41.2314 
*END

*D_NET *56 0.000484925
*CONN
*I *175:B1 I *D sky130_fd_sc_hd__a21oi_1
*I *174:X O *D sky130_fd_sc_hd__a211o_1
*CAP
1 *175:B1 0
2 *174:X 0.000138617
3 *56:10 0.000138617
4 *56:10 *57:10 6.48142e-05
5 *56:10 *58:14 2.72055e-05
6 *174:C1 *56:10 2.93845e-05
7 *175:A1 *56:10 0
8 *33:8 *56:10 8.62876e-05
*RES
1 *174:X *56:10 40.8793 
2 *56:10 *175:B1 38 
*END

*D_NET *57 0.00169465
*CONN
*I *177:A I *D sky130_fd_sc_hd__nor2_1
*I *178:A2 I *D sky130_fd_sc_hd__o31ai_2
*I *175:Y O *D sky130_fd_sc_hd__a21oi_1
*CAP
1 *177:A 0.000144797
2 *178:A2 0.000136394
3 *175:Y 0.000362051
4 *57:12 0.000281191
5 *57:10 0.000362051
6 *177:A *177:B 2.16757e-05
7 *57:10 *177:B 1.02561e-05
8 *57:10 *178:A3 1.25723e-05
9 *57:10 *58:14 6.97586e-05
10 *57:10 *60:8 0.000114083
11 *175:A1 *57:10 0
12 *175:A2 *57:10 0
13 *178:B1 *177:A 2.02872e-05
14 *178:B1 *178:A2 9.4713e-05
15 *188:A *57:10 0
16 *56:10 *57:10 6.48142e-05
*RES
1 *175:Y *57:10 45.4571 
2 *57:10 *57:12 15 
3 *57:12 *178:A2 25.5479 
4 *57:12 *177:A 25.5479 
*END

*D_NET *58 0.00174789
*CONN
*I *177:B I *D sky130_fd_sc_hd__nor2_1
*I *178:A3 I *D sky130_fd_sc_hd__o31ai_2
*I *176:Y O *D sky130_fd_sc_hd__o31ai_2
*CAP
1 *177:B 0.000177549
2 *178:A3 4.01232e-05
3 *176:Y 0.000440433
4 *58:14 0.000658105
5 *58:14 *147:B 0
6 *58:14 *70:10 0
7 *174:C1 *58:14 2.93747e-05
8 *177:A *177:B 2.16757e-05
9 *178:B1 *177:B 0.000176789
10 *188:A *178:A3 0
11 *30:10 *58:14 8.4047e-05
12 *54:8 *58:14 0
13 *55:8 *178:A3 0
14 *55:8 *58:14 0
15 *56:10 *58:14 2.72055e-05
16 *57:10 *177:B 1.02561e-05
17 *57:10 *178:A3 1.25723e-05
18 *57:10 *58:14 6.97586e-05
*RES
1 *176:Y *58:14 46.7518 
2 *58:14 *178:A3 38.6732 
3 *58:14 *177:B 41.8425 
*END

*D_NET *59 0.00106418
*CONN
*I *188:B I *D sky130_fd_sc_hd__xnor2_1
*I *177:Y O *D sky130_fd_sc_hd__nor2_1
*CAP
1 *188:B 0.000365279
2 *177:Y 9.67411e-05
3 *59:8 0.00046202
4 *59:8 *60:8 8.51329e-05
5 *188:A *188:B 5.50049e-05
6 *51:21 *59:8 0
*RES
1 *177:Y *59:8 40.2579 
2 *59:8 *188:B 44.3386 
*END

*D_NET *60 0.00408462
*CONN
*I *181:A1 I *D sky130_fd_sc_hd__o211a_1
*I *185:A2 I *D sky130_fd_sc_hd__a21bo_1
*I *187:A I *D sky130_fd_sc_hd__xnor2_1
*I *178:Y O *D sky130_fd_sc_hd__o31ai_2
*CAP
1 *181:A1 0
2 *185:A2 0
3 *187:A 2.74876e-05
4 *178:Y 0.000395324
5 *60:42 0.000220018
6 *60:29 0.000828649
7 *60:8 0.00103144
8 *187:A *187:B 9.84794e-05
9 *187:A *61:8 1.76557e-05
10 *60:8 *72:8 0
11 *60:29 *84:8 1.14452e-05
12 *60:42 *190:B1 4.21048e-05
13 *60:42 *62:10 1.12863e-05
14 *60:42 *66:6 9.8203e-05
15 *60:42 *86:10 0.000163596
16 *60:42 *91:8 0.000109871
17 sum[7] *60:42 2.33476e-05
18 *185:A1 *60:29 0.000183021
19 *190:C1 *60:42 2.45027e-05
20 *195:A *60:8 0
21 *51:6 *187:A 0.000141954
22 *51:6 *60:29 1.24376e-05
23 *51:15 *60:29 0.00044458
24 *51:21 *60:29 0
25 *57:10 *60:8 0.000114083
26 *59:8 *60:8 8.51329e-05
*RES
1 *178:Y *60:8 44.8357 
2 *60:8 *187:A 39.5743 
3 *60:8 *60:29 24.7564 
4 *60:29 *185:A2 23 
5 *60:29 *60:42 35.8414 
6 *60:42 *181:A1 23 
*END

*D_NET *61 0.00346616
*CONN
*I *185:B1_N I *D sky130_fd_sc_hd__a21bo_1
*I *180:B I *D sky130_fd_sc_hd__nand2_1
*I *184:B I *D sky130_fd_sc_hd__nand2_1
*I *179:Y O *D sky130_fd_sc_hd__nand2_1
*CAP
1 *185:B1_N 0
2 *180:B 0.000225204
3 *184:B 2.55237e-05
4 *179:Y 0.000629556
5 *61:29 0.00039493
6 *61:19 0.000284733
7 *61:8 0.000770087
8 *180:B *75:30 8.82714e-06
9 *180:B *92:36 0.000273681
10 *61:8 *169:A 0.000103647
11 *61:8 *187:B 0.000126847
12 *61:29 *92:36 9.58714e-05
13 *184:A *184:B 3.77561e-06
14 *187:A *61:8 1.76557e-05
15 *51:6 *61:8 6.64697e-05
16 *51:15 *184:B 5.67058e-05
17 *51:15 *61:8 9.24795e-06
18 *51:15 *61:19 0.000145611
19 *51:21 *180:B 8.81402e-05
20 *51:21 *61:29 0.000139647
*RES
1 *179:Y *61:8 33.0464 
2 *61:8 *184:B 24.1186 
3 *61:8 *61:19 3.00357 
4 *61:19 *61:29 48.0036 
5 *61:29 *180:B 42.7643 
6 *61:19 *185:B1_N 23 
*END

*D_NET *62 0.000709834
*CONN
*I *181:A2 I *D sky130_fd_sc_hd__o211a_1
*I *180:Y O *D sky130_fd_sc_hd__nand2_1
*CAP
1 *181:A2 0
2 *180:Y 0.000219188
3 *62:10 0.000219188
4 *62:10 *91:8 0.000135557
5 *62:10 *91:14 5.56356e-05
6 *62:10 *92:36 6.89803e-05
7 *60:42 *62:10 1.12863e-05
*RES
1 *180:Y *62:10 41.48 
2 *62:10 *181:A2 38 
*END

*D_NET *63 0.00033864
*CONN
*I *182:B I *D sky130_fd_sc_hd__xnor2_1
*I *181:X O *D sky130_fd_sc_hd__o211a_1
*CAP
1 *182:B 8.15253e-05
2 *181:X 8.15253e-05
3 *182:B *86:10 5.40752e-05
4 *181:B1 *182:B 6.82101e-05
5 *182:A *182:B 5.3304e-05
*RES
1 *181:X *182:B 48.0507 
*END

*D_NET *64 0.00105899
*CONN
*I *186:A I *D sky130_fd_sc_hd__xnor2_1
*I *183:Y O *D sky130_fd_sc_hd__nand2_1
*CAP
1 *186:A 0.000134095
2 *183:Y 0.000309342
3 *64:10 0.000443437
4 *186:A *215:A 6.17437e-06
5 *64:10 *190:B2 1.76557e-05
6 *64:10 *77:8 0
7 sum[6] *64:10 1.97329e-05
8 *183:A *64:10 9.91798e-05
9 *190:A2 *64:10 2.93747e-05
*RES
1 *183:Y *64:10 43.7379 
2 *64:10 *186:A 40.0507 
*END

*D_NET *65 0.000404796
*CONN
*I *187:B I *D sky130_fd_sc_hd__xnor2_1
*I *184:Y O *D sky130_fd_sc_hd__nand2_1
*CAP
1 *187:B 5.33757e-05
2 *184:Y 5.33757e-05
3 *187:A *187:B 9.84794e-05
4 *51:6 *187:B 4.79641e-05
5 *51:15 *187:B 2.4754e-05
6 *61:8 *187:B 0.000126847
*RES
1 *184:Y *187:B 48.5271 
*END

*D_NET *66 0.00112537
*CONN
*I *190:B1 I *D sky130_fd_sc_hd__o221a_1
*I *186:B I *D sky130_fd_sc_hd__xnor2_1
*I *185:X O *D sky130_fd_sc_hd__a21bo_1
*CAP
1 *190:B1 0.000174025
2 *186:B 0
3 *185:X 6.02886e-05
4 *66:14 0.000164173
5 *66:6 0.000398487
6 *66:14 *91:8 0.000114092
7 *190:C1 *190:B1 5.56279e-05
8 *9:13 *66:14 1.83667e-05
9 *60:42 *190:B1 4.21048e-05
10 *60:42 *66:6 9.8203e-05
*RES
1 *185:X *66:6 24.0979 
2 *66:6 *66:14 33.2314 
3 *66:14 *186:B 23 
4 *66:6 *190:B1 26.0243 
*END

*D_NET *67 0.000914718
*CONN
*I *190:B2 I *D sky130_fd_sc_hd__o221a_1
*I *189:Y O *D sky130_fd_sc_hd__nand2_1
*CAP
1 *190:B2 0.000160535
2 *189:Y 0.000152047
3 *67:10 0.000312582
4 *183:A *190:B2 0.000125213
5 *183:B *67:10 3.14242e-05
6 *189:A *67:10 6.71408e-06
7 *190:A2 *190:B2 5.50049e-05
8 *45:10 *67:10 5.35429e-05
9 *64:10 *190:B2 1.76557e-05
*RES
1 *189:Y *67:10 40.6514 
2 *67:10 *190:B2 41.0243 
*END

*D_NET *68 0.00187239
*CONN
*I *152:B I *D sky130_fd_sc_hd__or2_1
*I *151:B I *D sky130_fd_sc_hd__nand2_1
*I *191:X O *D sky130_fd_sc_hd__clkbuf_1
*CAP
1 *152:B 0
2 *151:B 0.000127491
3 *191:X 0.000148377
4 *68:10 0.000275868
5 *151:B *151:A 0.000271392
6 *151:B *209:A 5.50049e-05
7 *151:B *69:10 0
8 *68:10 *151:A 1.14452e-05
9 *68:10 *80:8 0.000226923
10 *68:10 *93:8 0.000104869
11 *153:A *151:B 6.70363e-05
12 *153:A *68:10 0.000150789
13 *3:13 *68:10 0.000276468
14 *37:10 *151:B 0.000138727
15 *39:8 *151:B 1.80023e-05
*RES
1 *191:X *68:10 43.4893 
2 *68:10 *151:B 42.2879 
3 *68:10 *152:B 38 
*END

*D_NET *69 0.00128771
*CONN
*I *150:A I *D sky130_fd_sc_hd__and2_1
*I *155:A I *D sky130_fd_sc_hd__nor2_1
*I *192:X O *D sky130_fd_sc_hd__clkbuf_1
*CAP
1 *150:A 0
2 *155:A 0.000102892
3 *192:X 0.000217093
4 *69:14 0.000186737
5 *69:10 0.000300938
6 *155:A *155:B 5.79559e-05
7 *69:10 *162:A 0
8 *69:10 *79:10 0.000139647
9 *69:10 *81:10 0
10 *69:14 *155:B 0.000100061
11 *151:B *69:10 0
12 *192:A *69:10 5.94125e-05
13 *4:15 *69:10 5.3304e-05
14 *39:8 *69:10 0
15 *40:10 *155:A 4.93812e-05
16 *40:10 *69:14 2.02872e-05
*RES
1 *192:X *69:10 42.2879 
2 *69:10 *69:14 16.5743 
3 *69:14 *155:A 25.0714 
4 *69:14 *150:A 23 
*END

*D_NET *70 0.00239559
*CONN
*I *147:A I *D sky130_fd_sc_hd__and2_1
*I *176:A1 I *D sky130_fd_sc_hd__o31ai_2
*I *148:A I *D sky130_fd_sc_hd__nor2_1
*I *193:X O *D sky130_fd_sc_hd__buf_1
*CAP
1 *147:A 0.000156435
2 *176:A1 1.73916e-06
3 *148:A 0.000220493
4 *193:X 0.000190957
5 *70:14 0.000360791
6 *70:10 0.000485951
7 *147:A *144:A 4.79641e-05
8 *147:A *145:B 9.67842e-05
9 *147:A *147:B 9.84851e-05
10 *148:A *148:B 5.90675e-06
11 *148:A *71:14 5.34147e-05
12 *148:A *88:21 0.00012482
13 *176:A1 *88:21 2.5343e-05
14 *70:10 *71:14 1.47563e-05
15 *70:10 *88:21 1.58805e-05
16 *70:14 *71:14 0.000155947
17 *70:14 *88:21 4.69757e-05
18 *13:15 *70:10 1.24376e-05
19 *30:10 *147:A 3.22879e-05
20 *31:8 *70:14 0.000116314
21 *34:6 *148:A 9.84851e-05
22 *53:14 *70:10 3.34247e-05
23 *58:14 *70:10 0
*RES
1 *193:X *70:10 41.3557 
2 *70:10 *70:14 3.75964 
3 *70:14 *148:A 42.1532 
4 *70:14 *176:A1 38.3211 
5 *70:10 *147:A 41.48 
*END

*D_NET *71 0.00253742
*CONN
*I *143:A I *D sky130_fd_sc_hd__nor2_1
*I *144:A I *D sky130_fd_sc_hd__or2_1
*I *145:A I *D sky130_fd_sc_hd__and2_1
*I *194:X O *D sky130_fd_sc_hd__clkbuf_1
*CAP
1 *143:A 0
2 *144:A 0.000177837
3 *145:A 0
4 *194:X 0
5 *71:36 0.000113527
6 *71:14 0.000498804
7 *71:4 0.000434493
8 *144:A *145:B 0.000139352
9 *71:14 *88:21 7.45536e-05
10 *71:36 *87:10 5.50049e-05
11 *71:36 *88:10 6.07611e-06
12 *71:36 *88:21 2.96051e-05
13 *147:A *144:A 4.79641e-05
14 *148:A *71:14 5.34147e-05
15 *149:A *71:36 0
16 *6:15 *71:36 0.0002263
17 *14:11 *71:14 1.47563e-05
18 *29:10 *71:14 0.000354769
19 *29:10 *71:36 0.000140259
20 *70:10 *71:14 1.47563e-05
21 *70:14 *71:14 0.000155947
*RES
1 *194:X *71:4 23 
2 *71:4 *71:14 39.0107 
3 *71:14 *145:A 23 
4 *71:14 *144:A 26.5007 
5 *71:4 *71:36 33.3764 
6 *71:36 *143:A 23 
*END

*D_NET *72 0.000839544
*CONN
*I *172:A I *D sky130_fd_sc_hd__or2_1
*I *171:A I *D sky130_fd_sc_hd__nand2_1
*I *195:X O *D sky130_fd_sc_hd__clkbuf_1
*CAP
1 *172:A 0
2 *171:A 9.5753e-05
3 *195:X 8.30621e-05
4 *72:12 0.000225087
5 *72:8 0.000212396
6 *171:A *171:B 4.66969e-05
7 *178:B1 *171:A 3.34247e-05
8 *178:B1 *72:12 8.2832e-05
9 *188:A *72:8 5.0427e-05
10 *195:A *72:8 9.86551e-06
11 *60:8 *72:8 0
*RES
1 *195:X *72:8 39.5536 
2 *72:8 *72:12 17.5271 
3 *72:12 *171:A 25.0714 
4 *72:12 *172:A 23 
*END

*D_NET *73 0.00085082
*CONN
*I *179:A I *D sky130_fd_sc_hd__nand2_1
*I *169:A I *D sky130_fd_sc_hd__or2_1
*I *196:X O *D sky130_fd_sc_hd__clkbuf_1
*CAP
1 *179:A 0
2 *169:A 0.000140612
3 *196:X 0.00011529
4 *73:10 0.000140612
5 *73:8 0.00011529
6 *169:A *179:B 6.66152e-05
7 *73:8 *83:10 0.000168754
8 *16:17 *73:8 0
9 *61:8 *169:A 0.000103647
*RES
1 *196:X *73:8 40.2579 
2 *73:8 *73:10 15 
3 *73:10 *169:A 26.5214 
4 *73:10 *179:A 23 
*END

*D_NET *74 0.000973567
*CONN
*I *167:A I *D sky130_fd_sc_hd__or2_1
*I *168:A I *D sky130_fd_sc_hd__nand2_1
*I *197:X O *D sky130_fd_sc_hd__clkbuf_1
*CAP
1 *167:A 0.000195944
2 *168:A 0
3 *197:X 7.64316e-05
4 *74:8 0.000272375
5 *167:A *163:B 3.3746e-05
6 *167:A *75:14 9.41704e-05
7 *167:A *91:31 2.87227e-05
8 *167:A *92:10 8.16253e-05
9 *74:8 *91:31 6.07611e-06
10 *74:8 *92:10 7.28526e-05
11 *45:10 *167:A 6.17437e-06
12 *48:10 *167:A 4.60366e-05
13 *49:10 *167:A 5.94125e-05
*RES
1 *197:X *74:8 39.9057 
2 *74:8 *168:A 38 
3 *74:8 *167:A 42.4121 
*END

*D_NET *75 0.00306591
*CONN
*I *163:A I *D sky130_fd_sc_hd__and2_1
*I *165:A I *D sky130_fd_sc_hd__or2_1
*I *164:A I *D sky130_fd_sc_hd__nand2_1
*I *198:X O *D sky130_fd_sc_hd__clkbuf_1
*CAP
1 *163:A 6.57066e-05
2 *165:A 2.17524e-05
3 *164:A 0
4 *198:X 5.37306e-05
5 *75:30 0.000366557
6 *75:14 0.000573451
7 *75:12 0.00027433
8 *75:8 7.72128e-05
9 *163:A *163:B 1.32314e-05
10 *165:A *91:14 3.23857e-06
11 *165:A *92:36 0
12 *75:8 *163:B 3.70187e-05
13 *75:8 *92:10 8.62783e-05
14 *75:14 *163:B 5.50106e-05
15 *75:14 *91:14 7.25404e-05
16 *75:14 *91:31 5.3304e-05
17 *75:14 *92:18 0.000172502
18 *75:30 *91:14 4.78593e-05
19 *75:30 *92:18 5.40337e-05
20 *75:30 *92:36 0.000317643
21 *167:A *75:14 9.41704e-05
22 *170:B *75:30 0.000139907
23 *180:B *75:30 8.82714e-06
24 *45:10 *75:14 1.5769e-05
25 *46:6 *75:30 0.000181169
26 *49:10 *75:14 5.3304e-05
27 *50:14 *75:30 9.41704e-05
28 *50:18 *75:30 3.64337e-05
29 *50:50 *75:8 9.67556e-05
*RES
1 *198:X *75:8 39.5536 
2 *75:8 *75:12 15.4971 
3 *75:12 *75:14 4.90929 
4 *75:14 *75:30 38.9279 
5 *75:30 *164:A 23 
6 *75:14 *165:A 23.4971 
7 *75:12 *163:A 24.0979 
*END

*D_NET *76 0.00161555
*CONN
*I *154:A1 I *D sky130_fd_sc_hd__a21bo_1
*I *162:A I *D sky130_fd_sc_hd__xnor2_1
*I *199:X O *D sky130_fd_sc_hd__buf_1
*CAP
1 *154:A1 3.30345e-05
2 *162:A 0.000217651
3 *199:X 0.000320352
4 *76:10 0.000571038
5 *153:A *76:10 1.83977e-05
6 *154:A2 *154:A1 2.93335e-05
7 *162:B *162:A 5.79559e-05
8 *3:19 *76:10 2.3164e-05
9 *4:15 *162:A 1.59071e-05
10 *39:8 *162:A 0.000189005
11 *39:8 *76:10 0.000139713
12 *69:10 *162:A 0
*RES
1 *199:X *76:10 43.3443 
2 *76:10 *162:A 42.5571 
3 *76:10 *154:A1 38.6214 
*END

*D_NET *77 0.000233122
*CONN
*I *208:A I *D sky130_fd_sc_hd__buf_2
*I *190:X O *D sky130_fd_sc_hd__o221a_1
*CAP
1 *208:A 0
2 *190:X 8.09725e-05
3 *77:8 8.09725e-05
4 sum[6] *77:8 3.55887e-05
5 *20:8 *77:8 3.55887e-05
6 *64:10 *77:8 0
*RES
1 *190:X *77:8 39.9057 
2 *77:8 *208:A 38 
*END

*D_NET *78 0.000396999
*CONN
*I *209:A I *D sky130_fd_sc_hd__buf_2
*I *162:Y O *D sky130_fd_sc_hd__xnor2_1
*CAP
1 *209:A 0.00015631
2 *162:Y 0.00015631
3 *151:B *209:A 5.50049e-05
4 *37:10 *209:A 2.93747e-05
*RES
1 *162:Y *209:A 49.045 
*END

*D_NET *79 0.000981196
*CONN
*I *150:B I *D sky130_fd_sc_hd__and2_1
*I *155:B I *D sky130_fd_sc_hd__nor2_1
*I *200:X O *D sky130_fd_sc_hd__clkbuf_1
*CAP
1 *150:B 0
2 *155:B 2.87042e-05
3 *200:X 0.000234022
4 *79:12 2.87042e-05
5 *79:10 0.000234022
6 *79:10 *81:10 0
7 *155:A *155:B 5.79559e-05
8 *192:A *79:10 3.7122e-06
9 *4:15 *79:10 9.87385e-06
10 *40:10 *155:B 0.000144494
11 *69:10 *79:10 0.000139647
12 *69:14 *155:B 0.000100061
*RES
1 *200:X *79:10 41.8321 
2 *79:10 *79:12 15 
3 *79:12 *155:B 24.5743 
4 *79:12 *150:B 23 
*END

*D_NET *80 0.00111578
*CONN
*I *210:A I *D sky130_fd_sc_hd__buf_2
*I *161:X O *D sky130_fd_sc_hd__xor2_1
*CAP
1 *210:A 0
2 *161:X 0.000256238
3 *80:8 0.000256238
4 *156:A *80:8 5.56356e-05
5 *3:13 *80:8 9.15701e-05
6 *11:15 *80:8 7.48456e-05
7 *36:14 *80:8 4.34876e-05
8 *38:27 *80:8 5.41385e-05
9 *42:6 *80:8 5.67058e-05
10 *68:10 *80:8 0.000226923
*RES
1 *161:X *80:8 29.8357 
2 *80:8 *210:A 23 
*END

*D_NET *81 0.000506967
*CONN
*I *211:A I *D sky130_fd_sc_hd__buf_2
*I *160:Y O *D sky130_fd_sc_hd__xnor2_1
*CAP
1 *211:A 0
2 *160:Y 0.000226093
3 *81:10 0.000226093
4 *81:10 *82:10 0
5 *192:A *81:10 0
6 *35:10 *81:10 0
7 *40:10 *81:10 5.47808e-05
8 *69:10 *81:10 0
9 *79:10 *81:10 0
*RES
1 *160:Y *81:10 42.1843 
2 *81:10 *211:A 38 
*END

*D_NET *82 0.00123764
*CONN
*I *212:A I *D sky130_fd_sc_hd__buf_2
*I *159:Y O *D sky130_fd_sc_hd__xnor2_1
*CAP
1 *212:A 4.33912e-05
2 *159:Y 0.000326926
3 *82:10 0.000370317
4 sum[3] *212:A 2.93845e-05
5 *158:A2 *82:10 0.000139352
6 *158:B1_N *82:10 2.93747e-05
7 *159:B *82:10 5.67058e-05
8 *34:6 *82:10 5.79892e-05
9 *34:14 *82:10 9.39159e-05
10 *35:10 *212:A 3.71369e-05
11 *35:10 *82:10 5.31444e-05
12 *81:10 *82:10 0
*RES
1 *159:Y *82:10 45.0429 
2 *82:10 *212:A 39.0979 
*END

*D_NET *83 0.000748958
*CONN
*I *213:A I *D sky130_fd_sc_hd__buf_2
*I *188:Y O *D sky130_fd_sc_hd__xnor2_1
*CAP
1 *213:A 0
2 *188:Y 0.000261054
3 *83:10 0.000261054
4 *83:10 *90:10 5.80963e-05
5 sum[4] *83:10 0
6 *73:8 *83:10 0.000168754
*RES
1 *188:Y *83:10 43.3443 
2 *83:10 *213:A 38 
*END

*D_NET *84 0.000415701
*CONN
*I *214:A I *D sky130_fd_sc_hd__buf_2
*I *187:Y O *D sky130_fd_sc_hd__xnor2_1
*CAP
1 *214:A 9.37145e-05
2 *187:Y 0.000108413
3 *84:8 0.000202128
4 sum[5] *84:8 0
5 *60:29 *84:8 1.14452e-05
*RES
1 *187:Y *84:8 39.9057 
2 *84:8 *214:A 39.5743 
*END

*D_NET *85 0.000191588
*CONN
*I *215:A I *D sky130_fd_sc_hd__buf_2
*I *186:Y O *D sky130_fd_sc_hd__xnor2_1
*CAP
1 *215:A 9.27067e-05
2 *186:Y 9.27067e-05
3 *186:A *215:A 6.17437e-06
*RES
1 *186:Y *215:A 47.4707 
*END

*D_NET *86 0.000754547
*CONN
*I *216:A I *D sky130_fd_sc_hd__buf_2
*I *182:Y O *D sky130_fd_sc_hd__xnor2_1
*CAP
1 *216:A 0
2 *182:Y 0.000220384
3 *86:10 0.000220384
4 *181:B1 *86:10 2.16575e-05
5 *182:B *86:10 5.40752e-05
6 *190:C1 *86:10 7.44498e-05
7 *60:42 *86:10 0.000163596
*RES
1 *182:Y *86:10 42.3086 
2 *86:10 *216:A 38 
*END

*D_NET *87 0.00253943
*CONN
*I *147:B I *D sky130_fd_sc_hd__and2_1
*I *176:A2 I *D sky130_fd_sc_hd__o31ai_2
*I *148:B I *D sky130_fd_sc_hd__nor2_1
*I *201:X O *D sky130_fd_sc_hd__buf_1
*CAP
1 *147:B 0.00027364
2 *176:A2 0
3 *148:B 0.000125769
4 *201:X 0.000302426
5 *87:29 0.000455598
6 *87:10 0.000610153
7 *147:B *88:21 0.000109524
8 *87:10 *88:21 0.000114083
9 *87:29 *88:21 5.50213e-05
10 *147:A *147:B 9.84851e-05
11 *148:A *148:B 5.90675e-06
12 *149:A *87:10 0
13 *149:A *87:29 0
14 *5:15 *87:10 1.32939e-05
15 *6:15 *87:10 7.27182e-05
16 *30:10 *147:B 3.17516e-05
17 *30:10 *87:29 0
18 *32:10 *87:29 0.000138718
19 *33:10 *87:29 0
20 *34:6 *148:B 7.73389e-05
21 *58:14 *147:B 0
22 *71:36 *87:10 5.50049e-05
*RES
1 *201:X *87:10 43.0336 
2 *87:10 *148:B 40.5686 
3 *87:10 *87:29 4.08071 
4 *87:29 *176:A2 38 
5 *87:29 *147:B 44.1314 
*END

*D_NET *88 0.00224132
*CONN
*I *144:B I *D sky130_fd_sc_hd__or2_1
*I *145:B I *D sky130_fd_sc_hd__and2_1
*I *143:B I *D sky130_fd_sc_hd__nor2_1
*I *202:X O *D sky130_fd_sc_hd__clkbuf_1
*CAP
1 *144:B 0
2 *145:B 4.77787e-05
3 *143:B 0
4 *202:X 0.000141819
5 *88:21 0.000361338
6 *88:10 0.000455378
7 *144:A *145:B 0.000139352
8 *147:A *145:B 9.67842e-05
9 *147:B *88:21 0.000109524
10 *148:A *88:21 0.00012482
11 *176:A1 *88:21 2.5343e-05
12 *5:15 *88:10 0.00014196
13 *14:11 *88:10 0
14 *14:11 *88:21 0
15 *31:8 *88:21 0.000116314
16 *32:10 *88:21 0.000138718
17 *70:10 *88:21 1.58805e-05
18 *70:14 *88:21 4.69757e-05
19 *71:14 *88:21 7.45536e-05
20 *71:36 *88:10 6.07611e-06
21 *71:36 *88:21 2.96051e-05
22 *87:10 *88:21 0.000114083
23 *87:29 *88:21 5.50213e-05
*RES
1 *202:X *88:10 40.4236 
2 *88:10 *143:B 38 
3 *88:10 *88:21 23.9486 
4 *88:21 *145:B 24.5743 
5 *88:21 *144:B 23 
*END

*D_NET *89 0.000785916
*CONN
*I *172:B I *D sky130_fd_sc_hd__or2_1
*I *171:B I *D sky130_fd_sc_hd__nand2_1
*I *203:X O *D sky130_fd_sc_hd__clkbuf_1
*CAP
1 *172:B 0
2 *171:B 9.05357e-05
3 *203:X 0.00019202
4 *89:12 9.05357e-05
5 *89:10 0.00019202
6 *171:A *171:B 4.66969e-05
7 *178:B1 *171:B 9.84794e-05
8 *53:14 *89:10 7.56279e-05
9 *54:8 *89:10 0
10 *55:8 *89:10 0
*RES
1 *203:X *89:10 40.8793 
2 *89:10 *89:12 15 
3 *89:12 *171:B 25.5686 
4 *89:12 *172:B 23 
*END

*D_NET *90 0.000476508
*CONN
*I *169:B I *D sky130_fd_sc_hd__or2_1
*I *179:B I *D sky130_fd_sc_hd__nand2_1
*I *204:X O *D sky130_fd_sc_hd__clkbuf_1
*CAP
1 *169:B 0
2 *179:B 4.07108e-05
3 *204:X 0.000135188
4 *90:12 4.07108e-05
5 *90:10 0.000135188
6 *169:A *179:B 6.66152e-05
7 *83:10 *90:10 5.80963e-05
*RES
1 *204:X *90:10 40.175 
2 *90:10 *90:12 15 
3 *90:12 *179:B 24.1186 
4 *90:12 *169:B 23 
*END

*D_NET *91 0.00263911
*CONN
*I *168:B I *D sky130_fd_sc_hd__nand2_1
*I *167:B I *D sky130_fd_sc_hd__or2_1
*I *205:X O *D sky130_fd_sc_hd__clkbuf_1
*CAP
1 *168:B 0
2 *167:B 0
3 *205:X 0.000321635
4 *91:31 0.000215601
5 *91:14 0.000352253
6 *91:8 0.000458287
7 *91:14 *92:36 5.50049e-05
8 sum[7] *91:8 2.5343e-05
9 *165:A *91:14 3.23857e-06
10 *166:B *91:31 0.000210851
11 *167:A *91:31 2.87227e-05
12 *170:B *91:8 4.78036e-05
13 *46:16 *91:8 0.000108681
14 *47:8 *91:14 5.56279e-05
15 *48:10 *91:31 0.000161121
16 *60:42 *91:8 0.000109871
17 *62:10 *91:8 0.000135557
18 *62:10 *91:14 5.56356e-05
19 *66:14 *91:8 0.000114092
20 *74:8 *91:31 6.07611e-06
21 *75:14 *91:14 7.25404e-05
22 *75:14 *91:31 5.3304e-05
23 *75:30 *91:14 4.78593e-05
*RES
1 *205:X *91:8 45.1879 
2 *91:8 *91:14 18.5007 
3 *91:14 *167:B 23 
4 *91:14 *91:31 34.7021 
5 *91:31 *168:B 23 
*END

*D_NET *92 0.00401477
*CONN
*I *163:B I *D sky130_fd_sc_hd__and2_1
*I *165:B I *D sky130_fd_sc_hd__or2_1
*I *164:B I *D sky130_fd_sc_hd__nand2_1
*I *206:X O *D sky130_fd_sc_hd__clkbuf_1
*CAP
1 *163:B 9.29738e-05
2 *165:B 0
3 *164:B 0
4 *206:X 0.000176426
5 *92:36 0.000439709
6 *92:20 0.000439709
7 *92:18 0.000460917
8 *92:10 0.000730317
9 *163:A *163:B 1.32314e-05
10 *165:A *92:36 0
11 *167:A *163:B 3.3746e-05
12 *167:A *92:10 8.16253e-05
13 *170:B *92:36 3.18151e-05
14 *180:B *92:36 0.000273681
15 *10:11 *92:10 6.11183e-05
16 *19:15 *92:10 2.30292e-05
17 *46:16 *92:18 2.24973e-05
18 *49:10 *92:18 5.50049e-05
19 *50:14 *92:18 3.70094e-05
20 *50:50 *163:B 1.4471e-05
21 *50:50 *92:10 1.22906e-05
22 *61:29 *92:36 9.58714e-05
23 *62:10 *92:36 6.89803e-05
24 *74:8 *92:10 7.28526e-05
25 *75:8 *163:B 3.70187e-05
26 *75:8 *92:10 8.62783e-05
27 *75:14 *163:B 5.50106e-05
28 *75:14 *92:18 0.000172502
29 *75:30 *92:18 5.40337e-05
30 *75:30 *92:36 0.000317643
31 *91:14 *92:36 5.50049e-05
*RES
1 *206:X *92:10 42.64 
2 *92:10 *92:18 36.5871 
3 *92:18 *92:20 15 
4 *92:20 *92:36 39.9843 
5 *92:36 *164:B 23 
6 *92:20 *165:B 23 
7 *92:10 *163:B 39.8229 
*END

*D_NET *93 0.00114577
*CONN
*I *152:A I *D sky130_fd_sc_hd__or2_1
*I *151:A I *D sky130_fd_sc_hd__nand2_1
*I *207:X O *D sky130_fd_sc_hd__clkbuf_1
*CAP
1 *152:A 4.774e-05
2 *151:A 9.04156e-05
3 *207:X 3.85993e-05
4 *93:8 0.000176755
5 *151:B *151:A 0.000271392
6 *3:13 *151:A 0.000274553
7 *3:13 *93:8 0.000114092
8 *38:6 *152:A 1.59094e-05
9 *68:10 *151:A 1.14452e-05
10 *68:10 *93:8 0.000104869
*RES
1 *207:X *93:8 39.5536 
2 *93:8 *151:A 41.6664 
3 *93:8 *152:A 38.6214 
*END
