*SPEF "ieee 1481-1999"
*DESIGN "cla8"
*DATE "10:37:29 Friday September 18, 2026"
*VENDOR "The OpenROAD Project"
*PROGRAM "OpenROAD"
*VERSION "edf00dff99f6c40d67a30c0e22a8191c5d2ed9d6"
*DESIGN_FLOW "NAME_SCOPE LOCAL" "PIN_CAP NONE"
*DIVIDER /
*DELIMITER :
*BUS_DELIMITER []
*T_UNIT 1 NS
*C_UNIT 1 PF
*R_UNIT 1 OHM
*L_UNIT 1 HENRY

*NAME_MAP
*3 a[0]
*4 a[1]
*5 a[2]
*6 a[3]
*7 a[4]
*8 a[5]
*9 a[6]
*10 a[7]
*11 b[0]
*12 b[1]
*13 b[2]
*14 b[3]
*15 b[4]
*16 b[5]
*17 b[6]
*18 b[7]
*19 cin
*20 cout
*21 sum[0]
*22 sum[1]
*23 sum[2]
*24 sum[3]
*25 sum[4]
*26 sum[5]
*27 sum[6]
*28 sum[7]
*29 _00_
*30 _01_
*31 _02_
*32 _03_
*33 _04_
*34 _05_
*35 _06_
*36 _07_
*37 _08_
*38 _09_
*39 _10_
*40 _11_
*41 _12_
*42 _13_
*43 _14_
*44 _15_
*45 _16_
*46 _17_
*47 _18_
*48 _19_
*49 _20_
*50 _21_
*51 _22_
*52 _23_
*53 _24_
*54 _25_
*55 _26_
*56 _27_
*57 _28_
*58 _29_
*59 _30_
*60 _31_
*61 _32_
*62 _33_
*63 _34_
*64 _35_
*65 _36_
*66 _37_
*67 _38_
*68 net1
*69 net10
*70 net11
*71 net12
*72 net13
*73 net14
*74 net15
*75 net16
*76 net17
*77 net18
*78 net19
*79 net2
*80 net20
*81 net21
*82 net22
*83 net23
*84 net24
*85 net25
*86 net26
*87 net3
*88 net4
*89 net5
*90 net6
*91 net7
*92 net8
*93 net9
*94 FILLER_0_20
*95 FILLER_0_29
*96 FILLER_0_6
*97 FILLER_1_29
*98 FILLER_1_3
*99 FILLER_1_54
*100 FILLER_2_29
*101 FILLER_2_3
*102 FILLER_3_22
*103 FILLER_3_34
*104 FILLER_4_13
*105 FILLER_4_25
*106 FILLER_4_29
*107 FILLER_4_41
*108 FILLER_4_50
*109 FILLER_4_9
*110 FILLER_5_24
*111 FILLER_5_32
*112 FILLER_5_38
*113 FILLER_6_16
*114 FILLER_7_13
*115 FILLER_7_25
*116 FILLER_7_3
*117 FILLER_8_10
*118 FILLER_8_22
*119 FILLER_8_29
*120 PHY_EDGE_ROW_0_Left_9
*121 PHY_EDGE_ROW_0_Right_0
*122 PHY_EDGE_ROW_1_Left_10
*123 PHY_EDGE_ROW_1_Right_1
*124 PHY_EDGE_ROW_2_Left_11
*125 PHY_EDGE_ROW_2_Right_2
*126 PHY_EDGE_ROW_3_Left_12
*127 PHY_EDGE_ROW_3_Right_3
*128 PHY_EDGE_ROW_4_Left_13
*129 PHY_EDGE_ROW_4_Right_4
*130 PHY_EDGE_ROW_5_Left_14
*131 PHY_EDGE_ROW_5_Right_5
*132 PHY_EDGE_ROW_6_Left_15
*133 PHY_EDGE_ROW_6_Right_6
*134 PHY_EDGE_ROW_7_Left_16
*135 PHY_EDGE_ROW_7_Right_7
*136 PHY_EDGE_ROW_8_Left_17
*137 PHY_EDGE_ROW_8_Right_8
*138 TAP_TAPCELL_ROW_0_18
*139 TAP_TAPCELL_ROW_2_19
*140 TAP_TAPCELL_ROW_4_20
*141 TAP_TAPCELL_ROW_6_21
*142 TAP_TAPCELL_ROW_8_22
*143 _39_
*144 _40_
*145 _41_
*146 _42_
*147 _43_
*148 _44_
*149 _45_
*150 _46_
*151 _47_
*152 _48_
*153 _49_
*154 _50_
*155 _51_
*156 _52_
*157 _53_
*158 _54_
*159 _55_
*160 _56_
*161 _57_
*162 _58_
*163 _59_
*164 _60_
*165 _61_
*166 _62_
*167 _63_
*168 _64_
*169 _65_
*170 _66_
*171 _67_
*172 _68_
*173 _69_
*174 _70_
*175 _71_
*176 _72_
*177 _73_
*178 _74_
*179 _75_
*180 _76_
*181 _77_
*182 _78_
*183 _79_
*184 _80_
*185 _81_
*186 _82_
*187 _83_
*188 _84_
*189 _85_
*190 _86_
*191 input1
*192 input10
*193 input11
*194 input12
*195 input13
*196 input14
*197 input15
*198 input16
*199 input17
*200 input2
*201 input3
*202 input4
*203 input5
*204 input6
*205 input7
*206 input8
*207 input9
*208 output18
*209 output19
*210 output20
*211 output21
*212 output22
*213 output23
*214 output24
*215 output25
*216 output26

*PORTS
a[0] I
a[1] I
a[2] I
a[3] I
a[4] I
a[5] I
a[6] I
a[7] I
b[0] I
b[1] I
b[2] I
b[3] I
b[4] I
b[5] I
b[6] I
b[7] I
cin I
cout O
sum[0] O
sum[1] O
sum[2] O
sum[3] O
sum[4] O
sum[5] O
sum[6] O
sum[7] O

*D_NET *3 0.00303028
*CONN
*P a[0] I
*I *191:A I *D sky130_fd_sc_hd__clkbuf_1
*CAP
1 a[0] 0.000993193
2 *191:A 0.000993193
3 *191:A sum[0] 0.000263183
4 *191:A sum[1] 2.3038e-05
5 *191:A *151:A 0.00022921
6 *191:A *199:A 0
7 *191:A *200:A 0
8 *191:A *207:A 7.40259e-05
9 *191:A *210:A 8.43553e-05
10 *191:A *36:10 4.1652e-06
11 *191:A *68:10 0.000244989
12 *191:A *76:10 2.54824e-05
13 *191:A *93:8 9.54469e-05
*RES
1 a[0] *191:A 24.0666 
*END

*D_NET *4 0.00133317
*CONN
*P a[1] I
*I *200:A I *D sky130_fd_sc_hd__clkbuf_1
*CAP
1 a[1] 0.000575154
2 *200:A 0.000575154
3 *200:A *162:A 1.52352e-05
4 *200:A *162:B 2.68464e-05
5 *200:A *192:A 8.35106e-05
6 *200:A *69:14 4.66108e-05
7 *200:A *79:12 1.06624e-05
8 *191:A *200:A 0
*RES
1 a[1] *200:A 13.425 
*END

*D_NET *5 0.00131509
*CONN
*P a[2] I
*I *201:A I *D sky130_fd_sc_hd__buf_1
*CAP
1 a[2] 0.000413404
2 *201:A 0.000413404
3 *201:A *202:A 0.000350053
4 *201:A *87:10 1.33293e-05
5 *201:A *88:10 0.0001249
*RES
1 a[2] *201:A 10.4452 
*END

*D_NET *6 0.00133757
*CONN
*P a[3] I
*I *202:A I *D sky130_fd_sc_hd__clkbuf_1
*CAP
1 a[3] 0.000290169
2 *202:A 0.000290169
3 *202:A *143:A 0.000198939
4 *202:A *146:A 2.30292e-05
5 *202:A *194:A 0.000117457
6 *202:A *87:10 6.77501e-05
7 *201:A *202:A 0.000350053
*RES
1 a[3] *202:A 10.3552 
*END

*D_NET *7 0.000675286
*CONN
*P a[4] I
*I *203:A I *D sky130_fd_sc_hd__clkbuf_1
*CAP
1 a[4] 0.000209939
2 *203:A 0.000209939
3 *203:A *193:A 0.000232918
4 *203:A *195:A 2.24901e-05
*RES
1 a[4] *203:A 7.0893 
*END

*D_NET *8 0.000991055
*CONN
*P a[5] I
*I *204:A I *D sky130_fd_sc_hd__clkbuf_1
*CAP
1 a[5] 0.000460979
2 *204:A 0.000460979
3 *204:A sum[4] 6.90972e-05
*RES
1 a[5] *204:A 10.6754 
*END

*D_NET *9 0.00176203
*CONN
*P a[6] I
*I *205:A I *D sky130_fd_sc_hd__clkbuf_1
*CAP
1 a[6] 0.000826189
2 *205:A 0.000826189
3 *205:A cout 9.25475e-05
4 *205:A sum[6] 0
5 *205:A *186:B 1.71013e-05
*RES
1 a[6] *205:A 11.584 
*END

*D_NET *10 0.000838185
*CONN
*P a[7] I
*I *206:A I *D sky130_fd_sc_hd__clkbuf_1
*CAP
1 a[7] 0.000242649
2 *206:A 0.000242649
3 *206:A *197:A 8.95111e-05
4 *206:A *198:A 0.000159087
5 *206:A *50:50 4.1977e-05
6 *206:A *92:10 6.23119e-05
*RES
1 a[7] *206:A 7.39677 
*END

*D_NET *11 0.00121738
*CONN
*P b[0] I
*I *207:A I *D sky130_fd_sc_hd__clkbuf_1
*CAP
1 b[0] 0.000382146
2 *207:A 0.000382146
3 *207:A sum[0] 0
4 *207:A sum[1] 0.00010582
5 *207:A *153:B 1.78933e-05
6 *207:A *199:A 0.000184739
7 *207:A *210:A 7.06063e-05
8 *191:A *207:A 7.40259e-05
*RES
1 b[0] *207:A 9.67677 
*END

*D_NET *12 0.000999295
*CONN
*P b[1] I
*I *192:A I *D sky130_fd_sc_hd__clkbuf_1
*CAP
1 b[1] 0.000431083
2 *192:A 0.000431083
3 *192:A sum[2] 0
4 *192:A *211:A 0
5 *192:A *69:14 4.9968e-05
6 *192:A *79:12 3.64998e-06
7 *200:A *192:A 8.35106e-05
*RES
1 b[1] *192:A 11.25 
*END

*D_NET *13 0.000945147
*CONN
*P b[2] I
*I *193:A I *D sky130_fd_sc_hd__buf_1
*CAP
1 b[2] 0.000305646
2 *193:A 0.000305646
3 *193:A *173:A 5.30673e-05
4 *193:A *194:A 3.6993e-05
5 *193:A *195:A 0
6 *193:A *70:10 1.08758e-05
7 *203:A *193:A 0.000232918
*RES
1 b[2] *193:A 9.05543 
*END

*D_NET *14 0.00106305
*CONN
*P b[3] I
*I *194:A I *D sky130_fd_sc_hd__clkbuf_1
*CAP
1 b[3] 0.00030445
2 *194:A 0.00030445
3 *194:A *146:A 0.00028626
4 *194:A *71:14 1.34361e-05
5 *194:A *88:10 0
6 *194:A *88:21 0
7 *193:A *194:A 3.6993e-05
8 *202:A *194:A 0.000117457
*RES
1 b[3] *194:A 8.67177 
*END

*D_NET *15 0.00128433
*CONN
*P b[4] I
*I *195:A I *D sky130_fd_sc_hd__clkbuf_1
*CAP
1 b[4] 0.000610423
2 *195:A 0.000610423
3 *195:A sum[4] 0
4 *195:A *188:A 0
5 *195:A *196:A 3.14094e-05
6 *195:A *60:8 0
7 *195:A *72:12 9.58678e-06
8 *193:A *195:A 0
9 *203:A *195:A 2.24901e-05
*RES
1 b[4] *195:A 6.05597 
*END

*D_NET *16 0.000678513
*CONN
*P b[5] I
*I *196:A I *D sky130_fd_sc_hd__clkbuf_1
*CAP
1 b[5] 0.000312307
2 *196:A 0.000312307
3 *196:A sum[4] 2.24901e-05
4 *196:A *73:10 0
5 *195:A *196:A 3.14094e-05
*RES
1 b[5] *196:A 8.1093 
*END

*D_NET *17 0.00065868
*CONN
*P b[6] I
*I *197:A I *D sky130_fd_sc_hd__clkbuf_1
*CAP
1 b[6] 0.00024129
2 *197:A 0.00024129
3 *197:A sum[1] 8.65893e-05
4 *206:A *197:A 8.95111e-05
*RES
1 b[6] *197:A 5.02157 
*END

*D_NET *18 0.00101926
*CONN
*P b[7] I
*I *198:A I *D sky130_fd_sc_hd__clkbuf_1
*CAP
1 b[7] 0.000294011
2 *198:A 0.000294011
3 *198:A sum[7] 6.8435e-05
4 *198:A *50:50 0.000203713
5 *206:A *198:A 0.000159087
*RES
1 b[7] *198:A 8.5535 
*END

*D_NET *19 0.00169609
*CONN
*P cin I
*I *199:A I *D sky130_fd_sc_hd__buf_1
*CAP
1 cin 0.000698786
2 *199:A 0.000698786
3 *199:A sum[0] 8.97026e-05
4 *199:A sum[1] 2.97206e-06
5 *199:A *92:10 2.11084e-05
6 *191:A *199:A 0
7 *207:A *199:A 0.000184739
*RES
1 cin *199:A 15.0952 
*END

*D_NET *20 0.000867033
*CONN
*P cout O
*I *208:X O *D sky130_fd_sc_hd__buf_2
*CAP
1 cout 0.000324767
2 *208:X 0.000324767
3 cout sum[6] 9.25475e-05
4 cout *208:A 3.24046e-05
5 *205:A cout 9.25475e-05
*RES
1 *208:X cout 8.22003 
*END

*D_NET *21 0.000847812
*CONN
*P sum[0] O
*I *209:X O *D sky130_fd_sc_hd__buf_2
*CAP
1 sum[0] 0.000247463
2 *209:X 0.000247463
3 *191:A sum[0] 0.000263183
4 *199:A sum[0] 8.97026e-05
5 *207:A sum[0] 0
*RES
1 *209:X sum[0] 7.96503 
*END

*D_NET *22 0.000572979
*CONN
*P sum[1] O
*I *210:X O *D sky130_fd_sc_hd__buf_2
*CAP
1 sum[1] 0.000177279
2 *210:X 0.000177279
3 *191:A sum[1] 2.3038e-05
4 *197:A sum[1] 8.65893e-05
5 *199:A sum[1] 2.97206e-06
6 *207:A sum[1] 0.00010582
*RES
1 *210:X sum[1] 5.16003 
*END

*D_NET *23 0.000812338
*CONN
*P sum[2] O
*I *211:X O *D sky130_fd_sc_hd__buf_2
*CAP
1 sum[2] 0.000406169
2 *211:X 0.000406169
3 sum[2] sum[3] 0
4 *192:A sum[2] 0
*RES
1 *211:X sum[2] 11.865 
*END

*D_NET *24 0.000887282
*CONN
*P sum[3] O
*I *212:X O *D sky130_fd_sc_hd__buf_2
*CAP
1 sum[3] 0.000429879
2 *212:X 0.000429879
3 sum[3] *212:A 2.75229e-05
4 sum[2] sum[3] 0
*RES
1 *212:X sum[3] 10.53 
*END

*D_NET *25 0.000671165
*CONN
*P sum[4] O
*I *213:X O *D sky130_fd_sc_hd__buf_2
*CAP
1 sum[4] 0.000289789
2 *213:X 0.000289789
3 sum[4] *213:A 0
4 *195:A sum[4] 0
5 *196:A sum[4] 2.24901e-05
6 *204:A sum[4] 6.90972e-05
*RES
1 *213:X sum[4] 6.3485 
*END

*D_NET *26 0.00115011
*CONN
*P sum[5] O
*I *214:X O *D sky130_fd_sc_hd__buf_2
*CAP
1 sum[5] 0.000575054
2 *214:X 0.000575054
3 sum[5] *214:A 0
*RES
1 *214:X sum[5] 13.845 
*END

*D_NET *27 0.000757069
*CONN
*P sum[6] O
*I *215:X O *D sky130_fd_sc_hd__buf_2
*CAP
1 sum[6] 0.000243244
2 *215:X 0.000243244
3 sum[6] sum[7] 0.00012527
4 sum[6] *186:A 2.03578e-05
5 sum[6] *208:A 3.24046e-05
6 cout sum[6] 9.25475e-05
7 *205:A sum[6] 0
*RES
1 *215:X sum[6] 5.9031 
*END

*D_NET *28 0.00148039
*CONN
*P sum[7] O
*I *216:X O *D sky130_fd_sc_hd__buf_2
*CAP
1 sum[7] 0.000623172
2 *216:X 0.000623172
3 sum[7] *181:A1 1.92979e-05
4 sum[7] *91:14 2.10433e-05
5 sum[6] sum[7] 0.00012527
6 *198:A sum[7] 6.8435e-05
*RES
1 *216:X sum[7] 5.6625 
*END

*D_NET *29 0.00114423
*CONN
*I *146:A I *D sky130_fd_sc_hd__nor2_1
*I *143:Y O *D sky130_fd_sc_hd__nor2_1
*CAP
1 *146:A 0.000207818
2 *143:Y 0.000207818
3 *146:A *143:A 0.000123225
4 *146:A *71:14 0.000296081
5 *194:A *146:A 0.00028626
6 *202:A *146:A 2.30292e-05
*RES
1 *143:Y *146:A 12.105 
*END

*D_NET *30 0.00100782
*CONN
*I *176:B1 I *D sky130_fd_sc_hd__o31ai_2
*I *174:A1 I *D sky130_fd_sc_hd__a211o_1
*I *144:X O *D sky130_fd_sc_hd__or2_1
*CAP
1 *176:B1 0
2 *174:A1 0.00010317
3 *144:X 0.000190184
4 *30:12 0.000293354
5 *174:A1 *174:A2 8.65961e-05
6 *174:A1 *174:B1 1.85674e-05
7 *174:A1 *174:C1 4.47125e-05
8 *174:A1 *176:A3 4.00541e-06
9 *30:12 *147:A 3.00381e-05
10 *30:12 *147:B 2.96334e-05
11 *30:12 *33:8 0.000127373
12 *30:12 *33:10 9.50342e-06
13 *30:12 *58:14 7.06865e-05
14 *30:12 *87:29 0
*RES
1 *144:X *30:12 8.72 
2 *30:12 *174:A1 3.805 
3 *30:12 *176:B1 1.6 
*END

*D_NET *31 0.00134748
*CONN
*I *174:C1 I *D sky130_fd_sc_hd__a211o_1
*I *176:A3 I *D sky130_fd_sc_hd__o31ai_2
*I *146:B I *D sky130_fd_sc_hd__nor2_1
*I *145:X O *D sky130_fd_sc_hd__and2_1
*CAP
1 *174:C1 0.000187276
2 *176:A3 9.56236e-06
3 *146:B 4.42501e-05
4 *145:X 4.60195e-05
5 *31:23 0.000343354
6 *31:12 0.000236785
7 *146:B *159:A 1.83756e-05
8 *174:C1 *161:A 1.37328e-05
9 *174:C1 *174:A2 8.65961e-05
10 *174:C1 *174:B1 3.95724e-05
11 *174:C1 *175:B1 2.75229e-05
12 *174:C1 *58:14 2.75145e-05
13 *31:12 *70:14 9.71067e-05
14 *31:12 *88:21 9.71067e-05
15 *31:23 *159:A 2.39856e-05
16 *174:A1 *174:C1 4.47125e-05
17 *174:A1 *176:A3 4.00541e-06
*RES
1 *145:X *31:12 7.085 
2 *31:12 *146:B 2.41 
3 *31:12 *31:23 2.175 
4 *31:23 *176:A3 1.96 
5 *31:23 *174:C1 5.515 
*END

*D_NET *32 0.000616005
*CONN
*I *159:A I *D sky130_fd_sc_hd__xnor2_1
*I *146:Y O *D sky130_fd_sc_hd__nor2_1
*CAP
1 *159:A 0.000170663
2 *146:Y 0.000170663
3 *159:A *87:29 0.000116158
4 *159:A *88:21 0.000116158
5 *146:B *159:A 1.83756e-05
6 *31:23 *159:A 2.39856e-05
*RES
1 *146:Y *159:A 10.065 
*END

*D_NET *33 0.00121027
*CONN
*I *174:A2 I *D sky130_fd_sc_hd__a211o_1
*I *158:B1_N I *D sky130_fd_sc_hd__o21ba_1
*I *149:A I *D sky130_fd_sc_hd__nor2_1
*I *147:X O *D sky130_fd_sc_hd__and2_1
*CAP
1 *174:A2 1.41735e-05
2 *158:B1_N 1.17533e-05
3 *149:A 0.000121832
4 *147:X 5.8076e-05
5 *33:10 0.000256302
6 *33:8 0.000194967
7 *149:A *143:A 0
8 *149:A *149:B 8.47542e-05
9 *149:A *87:10 0
10 *149:A *87:29 0
11 *158:B1_N *212:A 2.75145e-05
12 *158:B1_N *34:6 4.82863e-05
13 *33:8 *175:A1 0
14 *33:8 *175:B1 7.23602e-05
15 *33:10 *149:B 1.0183e-05
16 *33:10 *40:10 0
17 *33:10 *43:12 0
18 *33:10 *87:29 0
19 *174:A1 *174:A2 8.65961e-05
20 *174:C1 *174:A2 8.65961e-05
21 *30:12 *33:8 0.000127373
22 *30:12 *33:10 9.50342e-06
*RES
1 *147:X *33:8 5.235 
2 *33:8 *33:10 1.89 
3 *33:10 *149:A 6 
4 *33:10 *158:B1_N 4.05 
5 *33:8 *174:A2 4.395 
*END

*D_NET *34 0.00157415
*CONN
*I *158:A1 I *D sky130_fd_sc_hd__o21ba_1
*I *149:B I *D sky130_fd_sc_hd__nor2_1
*I *148:Y O *D sky130_fd_sc_hd__nor2_1
*CAP
1 *158:A1 4.41405e-05
2 *149:B 0.000149849
3 *148:Y 0.000286599
4 *34:6 0.000480589
5 *149:B *160:A 1.83756e-05
6 *149:B *212:A 8.78813e-05
7 *149:B *43:12 0
8 *158:A1 *158:A2 2.71072e-05
9 *34:6 *148:A 8.65961e-05
10 *34:6 *148:B 7.22354e-05
11 *34:6 *158:A2 2.75145e-05
12 *34:6 *159:B 9.66106e-05
13 *34:6 *212:A 5.34336e-05
14 *149:A *149:B 8.47542e-05
15 *158:B1_N *34:6 4.82863e-05
16 *33:10 *149:B 1.0183e-05
*RES
1 *148:Y *34:6 6.88 
2 *34:6 *149:B 8.705 
3 *34:6 *158:A1 2.41 
*END

*D_NET *35 0.000610916
*CONN
*I *160:A I *D sky130_fd_sc_hd__xnor2_1
*I *149:Y O *D sky130_fd_sc_hd__nor2_1
*CAP
1 *160:A 0.000238414
2 *149:Y 0.000238414
3 *160:A *211:A 0
4 *160:A *212:A 8.47896e-05
5 *160:A *43:12 3.09233e-05
6 *149:B *160:A 1.83756e-05
*RES
1 *149:Y *160:A 10.665 
*END

*D_NET *36 0.00151725
*CONN
*I *156:A I *D sky130_fd_sc_hd__nor2_1
*I *157:B1 I *D sky130_fd_sc_hd__a21oi_1
*I *174:B1 I *D sky130_fd_sc_hd__a211o_1
*I *150:X O *D sky130_fd_sc_hd__and2_1
*CAP
1 *156:A 1.92088e-05
2 *157:B1 0
3 *174:B1 6.00203e-05
4 *150:X 7.6673e-05
5 *36:14 0.000401277
6 *36:10 0.000437138
7 *156:A *210:A 4.77757e-05
8 *36:10 *156:B 0.000116165
9 *36:14 *161:A 0.000186001
10 *36:14 *210:A 4.0843e-05
11 *36:14 *42:6 4.14006e-05
12 *36:14 *42:10 1.52352e-05
13 *36:14 *43:12 1.32064e-05
14 *174:A1 *174:B1 1.85674e-05
15 *174:C1 *174:B1 3.95724e-05
16 *191:A *36:10 4.1652e-06
*RES
1 *150:X *36:10 6.98 
2 *36:10 *36:14 5.985 
3 *36:14 *174:B1 2.755 
4 *36:14 *157:B1 1.6 
5 *36:10 *156:A 2.05 
*END

*D_NET *37 0.000910549
*CONN
*I *153:A I *D sky130_fd_sc_hd__nand2_1
*I *154:B1_N I *D sky130_fd_sc_hd__a21bo_1
*I *151:Y O *D sky130_fd_sc_hd__nand2_1
*CAP
1 *153:A 0.00010248
2 *154:B1_N 0
3 *151:Y 7.44402e-05
4 *37:10 0.00017692
5 *153:A *151:B 5.56629e-05
6 *153:A *153:B 0.000133763
7 *153:A *68:10 0.000126587
8 *153:A *76:10 1.84358e-05
9 *37:10 *151:B 0.000116165
10 *37:10 *153:B 3.09233e-05
11 *37:10 *162:B 4.76581e-05
12 *37:10 *209:A 2.75145e-05
*RES
1 *151:Y *37:10 5.43 
2 *37:10 *154:B1_N 3.6 
3 *37:10 *153:A 6.3 
*END

*D_NET *38 0.00129002
*CONN
*I *153:B I *D sky130_fd_sc_hd__nand2_1
*I *154:A2 I *D sky130_fd_sc_hd__a21bo_1
*I *152:X O *D sky130_fd_sc_hd__or2_1
*CAP
1 *153:B 0.000119877
2 *154:A2 0.000133652
3 *152:X 0.000171326
4 *38:6 0.000424856
5 *153:B *162:B 0.000164686
6 *153:B *210:A 5.05521e-05
7 *154:A2 *154:A1 2.68464e-05
8 *38:6 *152:A 1.56428e-05
9 *153:A *153:B 0.000133763
10 *207:A *153:B 1.78933e-05
11 *37:10 *153:B 3.09233e-05
*RES
1 *152:X *38:6 3.775 
2 *38:6 *154:A2 3.445 
3 *38:6 *153:B 9.005 
*END

*D_NET *39 0.000856646
*CONN
*I *162:B I *D sky130_fd_sc_hd__xnor2_1
*I *153:Y O *D sky130_fd_sc_hd__nand2_1
*CAP
1 *162:B 0.000140569
2 *153:Y 0.000140569
3 *162:B *151:B 1.82563e-05
4 *162:B *162:A 0.000203861
5 *162:B *69:14 0
6 *162:B *76:10 0.000114201
7 *153:B *162:B 0.000164686
8 *200:A *162:B 2.68464e-05
9 *37:10 *162:B 4.76581e-05
*RES
1 *153:Y *162:B 11.415 
*END

*D_NET *40 0.00275444
*CONN
*I *175:A1 I *D sky130_fd_sc_hd__a21oi_1
*I *161:A I *D sky130_fd_sc_hd__xor2_1
*I *157:A1 I *D sky130_fd_sc_hd__a21oi_1
*I *154:X O *D sky130_fd_sc_hd__a21bo_1
*CAP
1 *175:A1 0.000218607
2 *161:A 9.83257e-05
3 *157:A1 0
4 *154:X 0.000353425
5 *40:12 9.83257e-05
6 *40:10 0.000572032
7 *161:A *161:B 9.13949e-06
8 *161:A *42:10 0.000276017
9 *175:A1 *157:A2 5.33085e-05
10 *175:A1 *175:A2 0.000333599
11 *175:A1 *175:B1 0
12 *175:A1 *57:12 0
13 *40:10 *155:A 4.40028e-05
14 *40:10 *155:B 0.000122797
15 *40:10 *156:B 0.000200289
16 *40:10 *157:A2 9.50342e-06
17 *40:10 *211:A 5.07419e-05
18 *40:10 *43:12 9.5433e-05
19 *40:10 *69:14 1.91597e-05
20 *174:C1 *161:A 1.37328e-05
21 *33:8 *175:A1 0
22 *33:10 *40:10 0
23 *36:14 *161:A 0.000186001
*RES
1 *154:X *40:10 10.515 
2 *40:10 *40:12 2 
3 *40:12 *157:A1 1.6 
4 *40:12 *161:A 5.185 
5 *40:10 *175:A1 8.28 
*END

*D_NET *41 0.000700303
*CONN
*I *156:B I *D sky130_fd_sc_hd__nor2_1
*I *155:Y O *D sky130_fd_sc_hd__nor2_1
*CAP
1 *156:B 0.000191924
2 *155:Y 0.000191924
3 *36:10 *156:B 0.000116165
4 *40:10 *156:B 0.000200289
*RES
1 *155:Y *156:B 10.41 
*END

*D_NET *42 0.001708
*CONN
*I *161:B I *D sky130_fd_sc_hd__xor2_1
*I *175:A2 I *D sky130_fd_sc_hd__a21oi_1
*I *157:A2 I *D sky130_fd_sc_hd__a21oi_1
*I *156:Y O *D sky130_fd_sc_hd__nor2_1
*CAP
1 *161:B 1.8855e-05
2 *175:A2 0.000187843
3 *157:A2 2.78431e-05
4 *156:Y 7.807e-05
5 *42:10 0.000362995
6 *42:6 0.000244234
7 *175:A2 *57:12 0
8 *42:6 *210:A 4.99619e-05
9 *161:A *161:B 9.13949e-06
10 *161:A *42:10 0.000276017
11 *175:A1 *157:A2 5.33085e-05
12 *175:A1 *175:A2 0.000333599
13 *36:14 *42:6 4.14006e-05
14 *36:14 *42:10 1.52352e-05
15 *40:10 *157:A2 9.50342e-06
*RES
1 *156:Y *42:6 3.085 
2 *42:6 *42:10 4.865 
3 *42:10 *157:A2 4.215 
4 *42:10 *175:A2 7.665 
5 *42:6 *161:B 1.96 
*END

*D_NET *43 0.000750314
*CONN
*I *160:B I *D sky130_fd_sc_hd__xnor2_1
*I *158:A2 I *D sky130_fd_sc_hd__o21ba_1
*I *157:Y O *D sky130_fd_sc_hd__a21oi_1
*CAP
1 *160:B 0
2 *158:A2 0.000131355
3 *157:Y 8.55446e-05
4 *43:12 0.0002169
5 *158:A2 *212:A 0.000122331
6 *149:B *43:12 0
7 *158:A1 *158:A2 2.71072e-05
8 *160:A *43:12 3.09233e-05
9 *33:10 *43:12 0
10 *34:6 *158:A2 2.75145e-05
11 *36:14 *43:12 1.32064e-05
12 *40:10 *43:12 9.5433e-05
*RES
1 *157:Y *43:12 7.3625 
2 *43:12 *158:A2 4.135 
3 *43:12 *160:B 1.6 
*END

*D_NET *44 0.00025642
*CONN
*I *159:B I *D sky130_fd_sc_hd__xnor2_1
*I *158:X O *D sky130_fd_sc_hd__o21ba_1
*CAP
1 *159:B 5.49236e-05
2 *158:X 5.49236e-05
3 *159:B *212:A 4.99619e-05
4 *34:6 *159:B 9.66106e-05
*RES
1 *158:X *159:B 4.685 
*END

*D_NET *45 0.000764471
*CONN
*I *190:A1 I *D sky130_fd_sc_hd__o221a_1
*I *163:X O *D sky130_fd_sc_hd__and2_1
*CAP
1 *190:A1 0.000200218
2 *163:X 0.000200218
3 *190:A1 *167:A 5.83121e-06
4 *190:A1 *183:B 0
5 *190:A1 *190:B2 5.0651e-05
6 *190:A1 *190:C1 0
7 *190:A1 *49:10 9.30717e-05
8 *190:A1 *49:25 0.000199746
9 *190:A1 *50:50 0
10 *190:A1 *75:14 1.47347e-05
*RES
1 *163:X *190:A1 11.325 
*END

*D_NET *46 0.00314746
*CONN
*I *189:A I *D sky130_fd_sc_hd__nand2_1
*I *166:A I *D sky130_fd_sc_hd__nand2_1
*I *164:Y O *D sky130_fd_sc_hd__nand2_1
*CAP
1 *189:A 0.000438369
2 *166:A 0.000291588
3 *164:Y 0.000208206
4 *46:6 0.000938162
5 *166:A *166:B 4.77719e-05
6 *166:A *170:B 0.000110486
7 *166:A *50:18 0.000441745
8 *166:A *91:14 9.14049e-05
9 *166:A *92:20 2.15594e-05
10 *189:A *181:B1 0.000341173
11 *189:A *182:A 1.91597e-05
12 *189:A *190:B2 6.60261e-06
13 *46:6 *164:A 0.000157271
14 *46:6 *170:B 7.11235e-06
15 *46:6 *181:C1 2.68464e-05
*RES
1 *164:Y *46:6 4.12 
2 *46:6 *166:A 12.245 
3 *46:6 *189:A 7.15 
*END

*D_NET *47 0.00144006
*CONN
*I *190:C1 I *D sky130_fd_sc_hd__o221a_1
*I *166:B I *D sky130_fd_sc_hd__nand2_1
*I *165:X O *D sky130_fd_sc_hd__or2_1
*CAP
1 *190:C1 0.000257012
2 *166:B 0.000182823
3 *165:X 3.42523e-05
4 *47:8 0.000474087
5 *166:B *168:B 0.000176608
6 *166:B *182:A 2.0231e-05
7 *166:B *50:18 0
8 *190:C1 *181:A1 2.62303e-05
9 *190:C1 *182:A 5.45358e-05
10 *190:C1 *190:B1 4.77719e-05
11 *190:C1 *216:A 7.09661e-05
12 *190:C1 *49:25 0
13 *47:8 *91:14 4.77719e-05
14 *166:A *166:B 4.77719e-05
15 *190:A1 *190:C1 0
*RES
1 *165:X *47:8 4.05 
2 *47:8 *166:B 6.96 
3 *47:8 *190:C1 8.28 
*END

*D_NET *48 0.00108309
*CONN
*I *182:A I *D sky130_fd_sc_hd__xnor2_1
*I *166:Y O *D sky130_fd_sc_hd__nand2_1
*CAP
1 *182:A 0.000216545
2 *166:Y 0.000216545
3 *182:A *167:A 4.39079e-05
4 *182:A *168:B 0.00013521
5 *182:A *181:B1 4.66108e-05
6 *182:A *182:B 4.66108e-05
7 *182:A *49:10 0.000180675
8 *182:A *49:25 2.07184e-05
9 *182:A *50:18 8.23457e-05
10 *166:B *182:A 2.0231e-05
11 *189:A *182:A 1.91597e-05
12 *190:C1 *182:A 5.45358e-05
*RES
1 *166:Y *182:A 12.21 
*END

*D_NET *49 0.00216779
*CONN
*I *183:A I *D sky130_fd_sc_hd__nand2_1
*I *190:A2 I *D sky130_fd_sc_hd__o221a_1
*I *181:B1 I *D sky130_fd_sc_hd__o211a_1
*I *167:X O *D sky130_fd_sc_hd__or2_1
*CAP
1 *183:A 6.76501e-05
2 *190:A2 1.17533e-05
3 *181:B1 0.000126539
4 *167:X 7.56531e-05
5 *49:25 0.000185821
6 *49:10 0.000308609
7 *181:B1 *182:B 6.32125e-05
8 *181:B1 *216:A 2.33708e-05
9 *183:A *186:A 9.2741e-05
10 *183:A *190:B2 0.00010978
11 *190:A2 *186:A 2.75145e-05
12 *190:A2 *190:B2 4.82863e-05
13 *49:10 *167:A 4.9968e-05
14 *49:10 *50:50 0
15 *49:10 *75:14 4.66108e-05
16 *49:10 *92:20 4.82863e-05
17 *182:A *181:B1 4.66108e-05
18 *182:A *49:10 0.000180675
19 *182:A *49:25 2.07184e-05
20 *189:A *181:B1 0.000341173
21 *190:A1 *49:10 9.30717e-05
22 *190:A1 *49:25 0.000199746
23 *190:C1 *49:25 0
*RES
1 *167:X *49:10 6.195 
2 *49:10 *181:B1 7.17 
3 *49:10 *49:25 4.4 
4 *49:25 *190:A2 2.05 
5 *49:25 *183:A 3.445 
*END

*D_NET *50 0.00333833
*CONN
*I *183:B I *D sky130_fd_sc_hd__nand2_1
*I *189:B I *D sky130_fd_sc_hd__nand2_1
*I *170:B I *D sky130_fd_sc_hd__nand2b_1
*I *180:A I *D sky130_fd_sc_hd__nand2_1
*I *168:Y O *D sky130_fd_sc_hd__nand2_1
*CAP
1 *183:B 0.000143677
2 *189:B 0
3 *170:B 0.000194459
4 *180:A 0
5 *168:Y 0
6 *50:50 0.000484436
7 *50:18 0.000482005
8 *50:4 0.000628305
9 *170:B *164:A 0.000126892
10 *170:B *164:B 3.32492e-05
11 *170:B *181:C1 2.68464e-05
12 *170:B *91:14 4.52728e-05
13 *183:B *190:B2 3.32667e-05
14 *50:18 *164:A 0.000112126
15 *50:18 *92:20 3.09164e-05
16 *50:50 *163:B 1.52945e-05
17 *50:50 *75:12 8.26412e-05
18 *50:50 *92:10 1.15688e-05
19 *166:A *170:B 0.000110486
20 *166:A *50:18 0.000441745
21 *166:B *50:18 0
22 *182:A *50:18 8.23457e-05
23 *190:A1 *183:B 0
24 *190:A1 *50:50 0
25 *198:A *50:50 0.000203713
26 *206:A *50:50 4.1977e-05
27 *46:6 *170:B 7.11235e-06
28 *49:10 *50:50 0
*RES
1 *168:Y *50:4 1.6 
2 *50:4 *50:18 12 
3 *50:18 *180:A 3.6 
4 *50:18 *170:B 7.9725 
5 *50:4 *50:50 8.06 
6 *50:50 *189:B 3.6 
7 *50:50 *183:B 6 
*END

*D_NET *51 0.00216193
*CONN
*I *185:A1 I *D sky130_fd_sc_hd__a21bo_1
*I *170:A_N I *D sky130_fd_sc_hd__nand2b_1
*I *184:A I *D sky130_fd_sc_hd__nand2_1
*I *169:X O *D sky130_fd_sc_hd__or2_1
*CAP
1 *185:A1 6.5115e-05
2 *170:A_N 0.000129514
3 *184:A 2.35193e-05
4 *169:X 0.00018998
5 *51:15 0.000265841
6 *51:6 0.000284711
7 *170:A_N *180:B 0.0001889
8 *170:A_N *188:B 0
9 *170:A_N *60:29 0
10 *184:A *184:B 3.80633e-06
11 *185:A1 *60:29 0.000154136
12 *51:6 *187:A 0.000124895
13 *51:6 *187:B 4.47209e-05
14 *51:6 *60:29 1.08758e-05
15 *51:6 *61:8 6.66464e-05
16 *51:15 *184:B 4.99619e-05
17 *51:15 *187:B 2.30292e-05
18 *51:15 *60:29 0.000391354
19 *51:15 *61:8 9.27255e-06
20 *51:15 *61:19 0.000135652
*RES
1 *169:X *51:6 5.155 
2 *51:6 *184:A 1.96 
3 *51:6 *51:15 3.555 
4 *51:15 *170:A_N 8.255 
5 *51:15 *185:A1 3.1 
*END

*D_NET *52 8.27081e-05
*CONN
*I *181:C1 I *D sky130_fd_sc_hd__o211a_1
*I *170:Y O *D sky130_fd_sc_hd__nand2b_1
*CAP
1 *181:C1 1.45076e-05
2 *170:Y 1.45076e-05
3 *170:B *181:C1 2.68464e-05
4 *46:6 *181:C1 2.68464e-05
*RES
1 *170:Y *181:C1 3.65 
*END

*D_NET *53 0.00182108
*CONN
*I *178:B1 I *D sky130_fd_sc_hd__o31ai_2
*I *173:A I *D sky130_fd_sc_hd__nand2_1
*I *171:Y O *D sky130_fd_sc_hd__nand2_1
*CAP
1 *178:B1 0.000354008
2 *173:A 0.000251444
3 *171:Y 0
4 *53:4 0.000605453
5 *173:A *173:B 0
6 *173:A *70:10 3.09179e-05
7 *173:A *89:12 7.05739e-05
8 *178:B1 *171:A 3.09179e-05
9 *178:B1 *171:B 8.65905e-05
10 *178:B1 *177:A 1.91597e-05
11 *178:B1 *177:B 0.000153344
12 *178:B1 *178:A2 8.88715e-05
13 *178:B1 *72:12 7.67345e-05
14 *193:A *173:A 5.30673e-05
*RES
1 *171:Y *53:4 1.6 
2 *53:4 *173:A 10.205 
3 *53:4 *178:B1 8.41 
*END

*D_NET *54 0.000264381
*CONN
*I *173:B I *D sky130_fd_sc_hd__nand2_1
*I *172:X O *D sky130_fd_sc_hd__or2_1
*CAP
1 *173:B 9.51772e-05
2 *172:X 9.51772e-05
3 *173:B *55:8 7.4027e-05
4 *173:B *58:14 0
5 *173:B *89:12 0
6 *173:A *173:B 0
*RES
1 *172:X *173:B 8.835 
*END

*D_NET *55 0.000603771
*CONN
*I *188:A I *D sky130_fd_sc_hd__xnor2_1
*I *178:A1 I *D sky130_fd_sc_hd__o31ai_2
*I *173:Y O *D sky130_fd_sc_hd__nand2_1
*CAP
1 *188:A 0.00012881
2 *178:A1 0
3 *173:Y 8.77386e-05
4 *55:8 0.000216548
5 *188:A *178:A3 0
6 *188:A *188:B 4.82863e-05
7 *188:A *57:12 0
8 *188:A *72:12 4.83612e-05
9 *55:8 *178:A3 0
10 *55:8 *58:14 0
11 *55:8 *89:12 0
12 *173:B *55:8 7.4027e-05
13 *195:A *188:A 0
*RES
1 *173:Y *55:8 5.235 
2 *55:8 *178:A1 3.6 
3 *55:8 *188:A 5.94 
*END

*D_NET *56 0.000383274
*CONN
*I *175:B1 I *D sky130_fd_sc_hd__a21oi_1
*I *174:X O *D sky130_fd_sc_hd__a211o_1
*CAP
1 *175:B1 0.000100917
2 *174:X 0.000100917
3 *175:B1 *57:12 5.4003e-05
4 *175:B1 *58:14 2.75538e-05
5 *174:C1 *175:B1 2.75229e-05
6 *175:A1 *175:B1 0
7 *33:8 *175:B1 7.23602e-05
*RES
1 *174:X *175:B1 9.285 
*END

*D_NET *57 0.00139291
*CONN
*I *177:A I *D sky130_fd_sc_hd__nor2_1
*I *178:A2 I *D sky130_fd_sc_hd__o31ai_2
*I *175:Y O *D sky130_fd_sc_hd__a21oi_1
*CAP
1 *177:A 0.000119175
2 *178:A2 0.000110281
3 *175:Y 0.000281642
4 *57:12 0.000511098
5 *177:A *177:B 2.01502e-05
6 *57:12 *177:B 9.82856e-06
7 *57:12 *178:A3 1.29127e-05
8 *57:12 *58:14 7.0348e-05
9 *57:12 *60:8 9.54399e-05
10 *175:A1 *57:12 0
11 *175:A2 *57:12 0
12 *175:B1 *57:12 5.4003e-05
13 *178:B1 *177:A 1.91597e-05
14 *178:B1 *178:A2 8.88715e-05
15 *188:A *57:12 0
*RES
1 *175:Y *57:12 11 
2 *57:12 *178:A2 3.445 
3 *57:12 *177:A 3.445 
*END

*D_NET *58 0.00143095
*CONN
*I *177:B I *D sky130_fd_sc_hd__nor2_1
*I *178:A3 I *D sky130_fd_sc_hd__o31ai_2
*I *176:Y O *D sky130_fd_sc_hd__o31ai_2
*CAP
1 *177:B 0.000146599
2 *178:A3 3.09718e-05
3 *176:Y 0.000341734
4 *58:14 0.000519305
5 *58:14 *147:B 0
6 *58:14 *70:10 0
7 *173:B *58:14 0
8 *174:C1 *58:14 2.75145e-05
9 *175:B1 *58:14 2.75538e-05
10 *177:A *177:B 2.01502e-05
11 *178:B1 *177:B 0.000153344
12 *188:A *178:A3 0
13 *30:12 *58:14 7.06865e-05
14 *55:8 *178:A3 0
15 *55:8 *58:14 0
16 *57:12 *177:B 9.82856e-06
17 *57:12 *178:A3 1.29127e-05
18 *57:12 *58:14 7.0348e-05
*RES
1 *176:Y *58:14 9.9375 
2 *58:14 *178:A3 4.0875 
3 *58:14 *177:B 6.3825 
*END

*D_NET *59 0.000893454
*CONN
*I *188:B I *D sky130_fd_sc_hd__xnor2_1
*I *177:Y O *D sky130_fd_sc_hd__nor2_1
*CAP
1 *188:B 0.000383099
2 *177:Y 0.000383099
3 *188:B *60:8 7.89689e-05
4 *170:A_N *188:B 0
5 *188:A *188:B 4.82863e-05
*RES
1 *177:Y *188:B 13.425 
*END

*D_NET *60 0.00335067
*CONN
*I *181:A1 I *D sky130_fd_sc_hd__o211a_1
*I *185:A2 I *D sky130_fd_sc_hd__a21bo_1
*I *187:A I *D sky130_fd_sc_hd__xnor2_1
*I *178:Y O *D sky130_fd_sc_hd__o31ai_2
*CAP
1 *181:A1 0.000165669
2 *185:A2 0
3 *187:A 2.02273e-05
4 *178:Y 0.000295225
5 *60:29 0.000669827
6 *60:8 0.00081961
7 *181:A1 *181:A2 9.09788e-06
8 *181:A1 *190:B1 3.6355e-05
9 *181:A1 *216:A 0.000134505
10 *181:A1 *66:6 8.51862e-05
11 *181:A1 *91:14 0.000101494
12 *187:A *187:B 8.65905e-05
13 *187:A *61:8 1.61831e-05
14 *60:8 *72:12 0
15 *60:29 *214:A 9.50342e-06
16 sum[7] *181:A1 1.92979e-05
17 *170:A_N *60:29 0
18 *185:A1 *60:29 0.000154136
19 *188:B *60:8 7.89689e-05
20 *190:C1 *181:A1 2.62303e-05
21 *195:A *60:8 0
22 *51:6 *187:A 0.000124895
23 *51:6 *60:29 1.08758e-05
24 *51:15 *60:29 0.000391354
25 *57:12 *60:8 9.54399e-05
*RES
1 *178:Y *60:8 8.55 
2 *60:8 *187:A 4.74 
3 *60:8 *60:29 9.065 
4 *60:29 *185:A2 1.6 
5 *60:29 *181:A1 9.83 
*END

*D_NET *61 0.00290023
*CONN
*I *185:B1_N I *D sky130_fd_sc_hd__a21bo_1
*I *180:B I *D sky130_fd_sc_hd__nand2_1
*I *184:B I *D sky130_fd_sc_hd__nand2_1
*I *179:Y O *D sky130_fd_sc_hd__nand2_1
*CAP
1 *185:B1_N 0
2 *180:B 0.000291922
3 *184:B 2.22389e-05
4 *179:Y 0.000538423
5 *61:19 0.000387555
6 *61:8 0.000656295
7 *180:B *164:A 8.87282e-06
8 *180:B *164:B 0.000309597
9 *61:8 *169:A 9.66106e-05
10 *61:8 *187:B 0.000118294
11 *170:A_N *180:B 0.0001889
12 *184:A *184:B 3.80633e-06
13 *187:A *61:8 1.61831e-05
14 *51:6 *61:8 6.66464e-05
15 *51:15 *184:B 4.99619e-05
16 *51:15 *61:8 9.27255e-06
17 *51:15 *61:19 0.000135652
*RES
1 *179:Y *61:8 8.875 
2 *61:8 *184:B 2.41 
3 *61:8 *61:19 2.175 
4 *61:19 *180:B 15.225 
5 *61:19 *185:B1_N 1.6 
*END

*D_NET *62 0.000551519
*CONN
*I *181:A2 I *D sky130_fd_sc_hd__o211a_1
*I *180:Y O *D sky130_fd_sc_hd__nand2_1
*CAP
1 *181:A2 0.000159777
2 *180:Y 0.000159777
3 *181:A2 *164:B 6.12936e-05
4 *181:A2 *91:14 0.000161573
5 *181:A1 *181:A2 9.09788e-06
*RES
1 *180:Y *181:A2 9.72 
*END

*D_NET *63 0.000276652
*CONN
*I *182:B I *D sky130_fd_sc_hd__xnor2_1
*I *181:X O *D sky130_fd_sc_hd__o211a_1
*CAP
1 *182:B 5.86509e-05
2 *181:X 5.86509e-05
3 *182:B *216:A 4.95266e-05
4 *181:B1 *182:B 6.32125e-05
5 *182:A *182:B 4.66108e-05
*RES
1 *181:X *182:B 4.685 
*END

*D_NET *64 0.000881153
*CONN
*I *186:A I *D sky130_fd_sc_hd__xnor2_1
*I *183:Y O *D sky130_fd_sc_hd__nand2_1
*CAP
1 *186:A 0.000359263
2 *183:Y 0.000359263
3 *186:A *190:B2 1.61831e-05
4 *186:A *208:A 0
5 *186:A *215:A 5.83121e-06
6 sum[6] *186:A 2.03578e-05
7 *183:A *186:A 9.2741e-05
8 *190:A2 *186:A 2.75145e-05
*RES
1 *183:Y *186:A 12.84 
*END

*D_NET *65 0.000350495
*CONN
*I *187:B I *D sky130_fd_sc_hd__xnor2_1
*I *184:Y O *D sky130_fd_sc_hd__nand2_1
*CAP
1 *187:B 3.89301e-05
2 *184:Y 3.89301e-05
3 *187:A *187:B 8.65905e-05
4 *51:6 *187:B 4.47209e-05
5 *51:15 *187:B 2.30292e-05
6 *61:8 *187:B 0.000118294
*RES
1 *184:Y *187:B 5.03 
*END

*D_NET *66 0.000916835
*CONN
*I *190:B1 I *D sky130_fd_sc_hd__o221a_1
*I *186:B I *D sky130_fd_sc_hd__xnor2_1
*I *185:X O *D sky130_fd_sc_hd__a21bo_1
*CAP
1 *190:B1 0.000143361
2 *186:B 0.000128069
3 *185:X 4.60572e-05
4 *66:6 0.000317487
5 *186:B *91:14 9.54469e-05
6 *181:A1 *190:B1 3.6355e-05
7 *181:A1 *66:6 8.51862e-05
8 *190:C1 *190:B1 4.77719e-05
9 *205:A *186:B 1.71013e-05
*RES
1 *185:X *66:6 2.395 
2 *66:6 *186:B 7.94 
3 *66:6 *190:B1 3.79 
*END

*D_NET *67 0.000750375
*CONN
*I *190:B2 I *D sky130_fd_sc_hd__o221a_1
*I *189:Y O *D sky130_fd_sc_hd__nand2_1
*CAP
1 *190:B2 0.000242803
2 *189:Y 0.000242803
3 *183:A *190:B2 0.00010978
4 *183:B *190:B2 3.32667e-05
5 *186:A *190:B2 1.61831e-05
6 *189:A *190:B2 6.60261e-06
7 *190:A1 *190:B2 5.0651e-05
8 *190:A2 *190:B2 4.82863e-05
*RES
1 *189:Y *190:B2 11.31 
*END

*D_NET *68 0.00151279
*CONN
*I *152:B I *D sky130_fd_sc_hd__or2_1
*I *151:B I *D sky130_fd_sc_hd__nand2_1
*I *191:X O *D sky130_fd_sc_hd__clkbuf_1
*CAP
1 *152:B 0
2 *151:B 8.86566e-05
3 *191:X 0.000101576
4 *68:10 0.000190232
5 *151:B *151:A 0.000226848
6 *151:B *209:A 4.82863e-05
7 *151:B *69:14 0
8 *68:10 *151:A 9.50342e-06
9 *68:10 *210:A 0.000198425
10 *68:10 *93:8 8.76033e-05
11 *153:A *151:B 5.56629e-05
12 *153:A *68:10 0.000126587
13 *162:B *151:B 1.82563e-05
14 *191:A *68:10 0.000244989
15 *37:10 *151:B 0.000116165
*RES
1 *191:X *68:10 7.575 
2 *68:10 *151:B 6.705 
3 *68:10 *152:B 3.6 
*END

*D_NET *69 0.00102294
*CONN
*I *150:A I *D sky130_fd_sc_hd__and2_1
*I *155:A I *D sky130_fd_sc_hd__nor2_1
*I *192:X O *D sky130_fd_sc_hd__clkbuf_1
*CAP
1 *150:A 0
2 *155:A 8.07473e-05
3 *192:X 0.000225318
4 *69:14 0.000306065
5 *155:A *155:B 4.89295e-05
6 *69:14 *155:B 8.52845e-05
7 *69:14 *162:A 0
8 *69:14 *211:A 0
9 *69:14 *79:12 0.000116853
10 *151:B *69:14 0
11 *162:B *69:14 0
12 *192:A *69:14 4.9968e-05
13 *200:A *69:14 4.66108e-05
14 *40:10 *155:A 4.40028e-05
15 *40:10 *69:14 1.91597e-05
*RES
1 *192:X *69:14 9.845 
2 *69:14 *155:A 3.1 
3 *69:14 *150:A 1.6 
*END

*D_NET *70 0.00193988
*CONN
*I *147:A I *D sky130_fd_sc_hd__and2_1
*I *176:A1 I *D sky130_fd_sc_hd__o31ai_2
*I *148:A I *D sky130_fd_sc_hd__nor2_1
*I *193:X O *D sky130_fd_sc_hd__buf_1
*CAP
1 *147:A 0.000118683
2 *176:A1 1.54507e-06
3 *148:A 0.000166894
4 *193:X 0.000152615
5 *70:14 0.000266886
6 *70:10 0.000369746
7 *147:A *144:A 4.47209e-05
8 *147:A *145:B 8.49205e-05
9 *147:A *147:B 8.65961e-05
10 *148:A *148:B 5.4155e-06
11 *148:A *71:14 5.0626e-05
12 *148:A *88:21 0.000104619
13 *176:A1 *88:21 2.10433e-05
14 *70:10 *71:14 1.34361e-05
15 *70:10 *88:21 1.52184e-05
16 *70:14 *71:14 0.000137692
17 *70:14 *88:21 4.36881e-05
18 *173:A *70:10 3.09179e-05
19 *193:A *70:10 1.08758e-05
20 *30:12 *147:A 3.00381e-05
21 *31:12 *70:14 9.71067e-05
22 *34:6 *148:A 8.65961e-05
23 *58:14 *70:10 0
*RES
1 *193:X *70:10 6.03 
2 *70:10 *70:14 2.7225 
3 *70:14 *148:A 6.6075 
4 *70:14 *176:A1 3.8325 
5 *70:10 *147:A 6.12 
*END

*D_NET *71 0.00209494
*CONN
*I *143:A I *D sky130_fd_sc_hd__nor2_1
*I *144:A I *D sky130_fd_sc_hd__or2_1
*I *145:A I *D sky130_fd_sc_hd__and2_1
*I *194:X O *D sky130_fd_sc_hd__clkbuf_1
*CAP
1 *143:A 8.36225e-05
2 *144:A 0.000148072
3 *145:A 0
4 *194:X 0
5 *71:14 0.000384389
6 *71:4 0.000319939
7 *143:A *87:10 4.82863e-05
8 *143:A *88:10 5.53249e-06
9 *143:A *88:21 2.78732e-05
10 *144:A *145:B 0.000122331
11 *71:14 *88:21 7.67378e-05
12 *146:A *143:A 0.000123225
13 *146:A *71:14 0.000296081
14 *147:A *144:A 4.47209e-05
15 *148:A *71:14 5.0626e-05
16 *149:A *143:A 0
17 *194:A *71:14 1.34361e-05
18 *202:A *143:A 0.000198939
19 *70:10 *71:14 1.34361e-05
20 *70:14 *71:14 0.000137692
*RES
1 *194:X *71:4 1.6 
2 *71:4 *71:14 10.525 
3 *71:14 *145:A 1.6 
4 *71:14 *144:A 4.135 
5 *71:4 *143:A 8.045 
*END

*D_NET *72 0.000698498
*CONN
*I *172:A I *D sky130_fd_sc_hd__or2_1
*I *171:A I *D sky130_fd_sc_hd__nand2_1
*I *195:X O *D sky130_fd_sc_hd__clkbuf_1
*CAP
1 *172:A 0
2 *171:A 8.13073e-05
3 *195:X 0.000163909
4 *72:12 0.000245216
5 *171:A *171:B 4.24643e-05
6 *178:B1 *171:A 3.09179e-05
7 *178:B1 *72:12 7.67345e-05
8 *188:A *72:12 4.83612e-05
9 *195:A *72:12 9.58678e-06
10 *60:8 *72:12 0
*RES
1 *195:X *72:12 8.555 
2 *72:12 *171:A 3.1 
3 *72:12 *172:A 1.6 
*END

*D_NET *73 0.000687957
*CONN
*I *179:A I *D sky130_fd_sc_hd__nand2_1
*I *169:A I *D sky130_fd_sc_hd__or2_1
*I *196:X O *D sky130_fd_sc_hd__clkbuf_1
*CAP
1 *179:A 0
2 *169:A 0.000113655
3 *196:X 8.18711e-05
4 *73:10 0.000195526
5 *169:A *179:B 5.93828e-05
6 *73:10 *213:A 0.000140912
7 *196:A *73:10 0
8 *61:8 *169:A 9.66106e-05
*RES
1 *196:X *73:10 7.235 
2 *73:10 *169:A 4.15 
3 *73:10 *179:A 1.6 
*END

*D_NET *74 0.000761394
*CONN
*I *167:A I *D sky130_fd_sc_hd__or2_1
*I *168:A I *D sky130_fd_sc_hd__nand2_1
*I *197:X O *D sky130_fd_sc_hd__clkbuf_1
*CAP
1 *167:A 0.000126136
2 *168:A 0
3 *197:X 5.90104e-05
4 *74:8 0.000185146
5 *167:A *163:B 3.23391e-05
6 *167:A *168:B 2.74566e-05
7 *167:A *75:14 8.23457e-05
8 *167:A *92:10 7.63125e-05
9 *74:8 *168:B 5.53249e-06
10 *74:8 *92:10 6.74079e-05
11 *182:A *167:A 4.39079e-05
12 *190:A1 *167:A 5.83121e-06
13 *49:10 *167:A 4.9968e-05
*RES
1 *197:X *74:8 4.98 
2 *74:8 *168:A 3.6 
3 *74:8 *167:A 6.795 
*END

*D_NET *75 0.00244361
*CONN
*I *163:A I *D sky130_fd_sc_hd__and2_1
*I *165:A I *D sky130_fd_sc_hd__or2_1
*I *164:A I *D sky130_fd_sc_hd__nand2_1
*I *198:X O *D sky130_fd_sc_hd__clkbuf_1
*CAP
1 *163:A 5.2362e-05
2 *165:A 1.94839e-05
3 *164:A 0.000252381
4 *198:X 5.378e-05
5 *75:14 0.00039628
6 *75:12 0.000230557
7 *163:A *163:B 1.16578e-05
8 *164:A *164:B 0.000277691
9 *164:A *91:14 4.30228e-05
10 *164:A *92:20 4.8854e-05
11 *165:A *164:B 0
12 *165:A *91:14 3.50152e-06
13 *75:12 *163:B 3.09233e-05
14 *75:12 *92:10 7.23533e-05
15 *75:14 *163:B 4.82919e-05
16 *75:14 *168:B 4.66108e-05
17 *75:14 *91:14 6.5018e-05
18 *75:14 *92:20 0.000159353
19 *167:A *75:14 8.23457e-05
20 *170:B *164:A 0.000126892
21 *180:B *164:A 8.87282e-06
22 *190:A1 *75:14 1.47347e-05
23 *46:6 *164:A 0.000157271
24 *49:10 *75:14 4.66108e-05
25 *50:18 *164:A 0.000112126
26 *50:50 *75:12 8.26412e-05
*RES
1 *198:X *75:12 7.085 
2 *75:12 *75:14 3.555 
3 *75:14 *164:A 12.065 
4 *75:14 *165:A 1.96 
5 *75:12 *163:A 2.395 
*END

*D_NET *76 0.00128634
*CONN
*I *154:A1 I *D sky130_fd_sc_hd__a21bo_1
*I *162:A I *D sky130_fd_sc_hd__xnor2_1
*I *199:X O *D sky130_fd_sc_hd__buf_1
*CAP
1 *154:A1 2.48204e-05
2 *162:A 0.000177475
3 *199:X 0.000238843
4 *76:10 0.000441138
5 *153:A *76:10 1.84358e-05
6 *154:A2 *154:A1 2.68464e-05
7 *162:B *162:A 0.000203861
8 *162:B *76:10 0.000114201
9 *191:A *76:10 2.54824e-05
10 *200:A *162:A 1.52352e-05
11 *69:14 *162:A 0
*RES
1 *199:X *76:10 7.47 
2 *76:10 *162:A 6.9 
3 *76:10 *154:A1 4.05 
*END

*D_NET *77 0.000190741
*CONN
*I *208:A I *D sky130_fd_sc_hd__buf_2
*I *190:X O *D sky130_fd_sc_hd__o221a_1
*CAP
1 *208:A 6.29659e-05
2 *190:X 6.29659e-05
3 cout *208:A 3.24046e-05
4 sum[6] *208:A 3.24046e-05
5 *186:A *208:A 0
*RES
1 *190:X *208:A 8.58 
*END

*D_NET *78 0.000329574
*CONN
*I *209:A I *D sky130_fd_sc_hd__buf_2
*I *162:Y O *D sky130_fd_sc_hd__xnor2_1
*CAP
1 *209:A 0.000126886
2 *162:Y 0.000126886
3 *151:B *209:A 4.82863e-05
4 *37:10 *209:A 2.75145e-05
*RES
1 *162:Y *209:A 5.405 
*END

*D_NET *79 0.000797656
*CONN
*I *150:B I *D sky130_fd_sc_hd__and2_1
*I *155:B I *D sky130_fd_sc_hd__nor2_1
*I *200:X O *D sky130_fd_sc_hd__clkbuf_1
*CAP
1 *150:B 0
2 *155:B 2.17383e-05
3 *200:X 0.000183001
4 *79:12 0.00020474
5 *79:12 *211:A 0
6 *155:A *155:B 4.89295e-05
7 *192:A *79:12 3.64998e-06
8 *200:A *79:12 1.06624e-05
9 *40:10 *155:B 0.000122797
10 *69:14 *155:B 8.52845e-05
11 *69:14 *79:12 0.000116853
*RES
1 *200:X *79:12 8.375 
2 *79:12 *155:B 2.74 
3 *79:12 *150:B 1.6 
*END

*D_NET *80 0.000930495
*CONN
*I *210:A I *D sky130_fd_sc_hd__buf_2
*I *161:X O *D sky130_fd_sc_hd__xor2_1
*CAP
1 *210:A 0.000193988
2 *161:X 0.000193988
3 *153:B *210:A 5.05521e-05
4 *156:A *210:A 4.77757e-05
5 *191:A *210:A 8.43553e-05
6 *207:A *210:A 7.06063e-05
7 *36:14 *210:A 4.0843e-05
8 *42:6 *210:A 4.99619e-05
9 *68:10 *210:A 0.000198425
*RES
1 *161:X *210:A 8.15 
*END

*D_NET *81 0.000419848
*CONN
*I *211:A I *D sky130_fd_sc_hd__buf_2
*I *160:Y O *D sky130_fd_sc_hd__xnor2_1
*CAP
1 *211:A 0.000184553
2 *160:Y 0.000184553
3 *211:A *212:A 0
4 *160:A *211:A 0
5 *192:A *211:A 0
6 *40:10 *211:A 5.07419e-05
7 *69:14 *211:A 0
8 *79:12 *211:A 0
*RES
1 *160:Y *211:A 10.23 
*END

*D_NET *82 0.00102363
*CONN
*I *212:A I *D sky130_fd_sc_hd__buf_2
*I *159:Y O *D sky130_fd_sc_hd__xnor2_1
*CAP
1 *212:A 0.0002851
2 *159:Y 0.0002851
3 sum[3] *212:A 2.75229e-05
4 *149:B *212:A 8.78813e-05
5 *158:A2 *212:A 0.000122331
6 *158:B1_N *212:A 2.75145e-05
7 *159:B *212:A 4.99619e-05
8 *160:A *212:A 8.47896e-05
9 *211:A *212:A 0
10 *34:6 *212:A 5.34336e-05
*RES
1 *159:Y *212:A 13.095 
*END

*D_NET *83 0.000604755
*CONN
*I *213:A I *D sky130_fd_sc_hd__buf_2
*I *188:Y O *D sky130_fd_sc_hd__xnor2_1
*CAP
1 *213:A 0.000204936
2 *188:Y 0.000204936
3 *213:A *90:12 5.39718e-05
4 sum[4] *213:A 0
5 *73:10 *213:A 0.000140912
*RES
1 *188:Y *213:A 11.07 
*END

*D_NET *84 0.000340901
*CONN
*I *214:A I *D sky130_fd_sc_hd__buf_2
*I *187:Y O *D sky130_fd_sc_hd__xnor2_1
*CAP
1 *214:A 0.000165699
2 *187:Y 0.000165699
3 sum[5] *214:A 0
4 *60:29 *214:A 9.50342e-06
*RES
1 *187:Y *214:A 9.72 
*END

*D_NET *85 0.000161876
*CONN
*I *215:A I *D sky130_fd_sc_hd__buf_2
*I *186:Y O *D sky130_fd_sc_hd__xnor2_1
*CAP
1 *215:A 7.80224e-05
2 *186:Y 7.80224e-05
3 *186:A *215:A 5.83121e-06
*RES
1 *186:Y *215:A 4.265 
*END

*D_NET *86 0.000614714
*CONN
*I *216:A I *D sky130_fd_sc_hd__buf_2
*I *182:Y O *D sky130_fd_sc_hd__xnor2_1
*CAP
1 *216:A 0.000168173
2 *182:Y 0.000168173
3 *181:A1 *216:A 0.000134505
4 *181:B1 *216:A 2.33708e-05
5 *182:B *216:A 4.95266e-05
6 *190:C1 *216:A 7.09661e-05
*RES
1 *182:Y *216:A 10.32 
*END

*D_NET *87 0.00208494
*CONN
*I *147:B I *D sky130_fd_sc_hd__and2_1
*I *176:A2 I *D sky130_fd_sc_hd__o31ai_2
*I *148:B I *D sky130_fd_sc_hd__nor2_1
*I *201:X O *D sky130_fd_sc_hd__buf_1
*CAP
1 *147:B 0.000213196
2 *176:A2 0
3 *148:B 9.80476e-05
4 *201:X 0.000249196
5 *87:29 0.000351425
6 *87:10 0.000485472
7 *147:B *88:21 0.00010309
8 *87:10 *88:21 9.54399e-05
9 *87:29 *88:21 4.96723e-05
10 *143:A *87:10 4.82863e-05
11 *147:A *147:B 8.65961e-05
12 *148:A *148:B 5.4155e-06
13 *149:A *87:10 0
14 *149:A *87:29 0
15 *159:A *87:29 0.000116158
16 *201:A *87:10 1.33293e-05
17 *202:A *87:10 6.77501e-05
18 *30:12 *147:B 2.96334e-05
19 *30:12 *87:29 0
20 *33:10 *87:29 0
21 *34:6 *148:B 7.22354e-05
22 *58:14 *147:B 0
*RES
1 *201:X *87:10 7.245 
2 *87:10 *148:B 5.46 
3 *87:10 *87:29 2.955 
4 *87:29 *176:A2 3.6 
5 *87:29 *147:B 8.04 
*END

*D_NET *88 0.00180634
*CONN
*I *144:B I *D sky130_fd_sc_hd__or2_1
*I *145:B I *D sky130_fd_sc_hd__and2_1
*I *143:B I *D sky130_fd_sc_hd__nor2_1
*I *202:X O *D sky130_fd_sc_hd__clkbuf_1
*CAP
1 *144:B 0
2 *145:B 3.34282e-05
3 *143:B 0
4 *202:X 0.000118056
5 *88:21 0.000240948
6 *88:10 0.000325577
7 *143:A *88:10 5.53249e-06
8 *143:A *88:21 2.78732e-05
9 *144:A *145:B 0.000122331
10 *147:A *145:B 8.49205e-05
11 *147:B *88:21 0.00010309
12 *148:A *88:21 0.000104619
13 *159:A *88:21 0.000116158
14 *176:A1 *88:21 2.10433e-05
15 *194:A *88:10 0
16 *194:A *88:21 0
17 *201:A *88:10 0.0001249
18 *31:12 *88:21 9.71067e-05
19 *70:10 *88:21 1.52184e-05
20 *70:14 *88:21 4.36881e-05
21 *71:14 *88:21 7.67378e-05
22 *87:10 *88:21 9.54399e-05
23 *87:29 *88:21 4.96723e-05
*RES
1 *202:X *88:10 5.355 
2 *88:10 *143:B 3.6 
3 *88:10 *88:21 8.48 
4 *88:21 *145:B 2.74 
5 *88:21 *144:B 1.6 
*END

*D_NET *89 0.000638089
*CONN
*I *172:B I *D sky130_fd_sc_hd__or2_1
*I *171:B I *D sky130_fd_sc_hd__nand2_1
*I *203:X O *D sky130_fd_sc_hd__clkbuf_1
*CAP
1 *172:B 0
2 *171:B 7.47786e-05
3 *203:X 0.000144452
4 *89:12 0.00021923
5 *171:A *171:B 4.24643e-05
6 *173:A *89:12 7.05739e-05
7 *173:B *89:12 0
8 *178:B1 *171:B 8.65905e-05
9 *55:8 *89:12 0
*RES
1 *203:X *89:12 7.685 
2 *89:12 *171:B 3.46 
3 *89:12 *172:B 1.6 
*END

*D_NET *90 0.000388582
*CONN
*I *169:B I *D sky130_fd_sc_hd__or2_1
*I *179:B I *D sky130_fd_sc_hd__nand2_1
*I *204:X O *D sky130_fd_sc_hd__clkbuf_1
*CAP
1 *169:B 0
2 *179:B 3.56026e-05
3 *204:X 0.000102011
4 *90:12 0.000137614
5 *169:A *179:B 5.93828e-05
6 *213:A *90:12 5.39718e-05
*RES
1 *204:X *90:12 7.175 
2 *90:12 *179:B 2.41 
3 *90:12 *169:B 1.6 
*END

*D_NET *91 0.00207766
*CONN
*I *168:B I *D sky130_fd_sc_hd__nand2_1
*I *167:B I *D sky130_fd_sc_hd__or2_1
*I *205:X O *D sky130_fd_sc_hd__clkbuf_1
*CAP
1 *168:B 0.000145565
2 *167:B 0
3 *205:X 0.000335637
4 *91:14 0.000481202
5 *91:14 *164:B 4.82863e-05
6 sum[7] *91:14 2.10433e-05
7 *164:A *91:14 4.30228e-05
8 *165:A *91:14 3.50152e-06
9 *166:A *91:14 9.14049e-05
10 *166:B *168:B 0.000176608
11 *167:A *168:B 2.74566e-05
12 *170:B *91:14 4.52728e-05
13 *181:A1 *91:14 0.000101494
14 *181:A2 *91:14 0.000161573
15 *182:A *168:B 0.00013521
16 *186:B *91:14 9.54469e-05
17 *47:8 *91:14 4.77719e-05
18 *74:8 *168:B 5.53249e-06
19 *75:14 *168:B 4.66108e-05
20 *75:14 *91:14 6.5018e-05
*RES
1 *205:X *91:14 13.34 
2 *91:14 *167:B 1.6 
3 *91:14 *168:B 9.005 
*END

*D_NET *92 0.00323142
*CONN
*I *163:B I *D sky130_fd_sc_hd__and2_1
*I *165:B I *D sky130_fd_sc_hd__or2_1
*I *164:B I *D sky130_fd_sc_hd__nand2_1
*I *206:X O *D sky130_fd_sc_hd__clkbuf_1
*CAP
1 *163:B 6.30421e-05
2 *165:B 0
3 *164:B 0.000323463
4 *206:X 0.000123569
5 *92:20 0.000684772
6 *92:10 0.000547921
7 *163:A *163:B 1.16578e-05
8 *164:A *164:B 0.000277691
9 *164:A *92:20 4.8854e-05
10 *165:A *164:B 0
11 *166:A *92:20 2.15594e-05
12 *167:A *163:B 3.23391e-05
13 *167:A *92:10 7.63125e-05
14 *170:B *164:B 3.32492e-05
15 *180:B *164:B 0.000309597
16 *181:A2 *164:B 6.12936e-05
17 *199:A *92:10 2.11084e-05
18 *206:A *92:10 6.23119e-05
19 *49:10 *92:20 4.82863e-05
20 *50:18 *92:20 3.09164e-05
21 *50:50 *163:B 1.52945e-05
22 *50:50 *92:10 1.15688e-05
23 *74:8 *92:10 6.74079e-05
24 *75:12 *163:B 3.09233e-05
25 *75:12 *92:10 7.23533e-05
26 *75:14 *163:B 4.82919e-05
27 *75:14 *92:20 0.000159353
28 *91:14 *164:B 4.82863e-05
*RES
1 *206:X *92:10 6.96 
2 *92:10 *92:20 10.77 
3 *92:20 *164:B 12.83 
4 *92:20 *165:B 1.6 
5 *92:10 *163:B 4.92 
*END

*D_NET *93 0.000899243
*CONN
*I *152:A I *D sky130_fd_sc_hd__or2_1
*I *151:A I *D sky130_fd_sc_hd__nand2_1
*I *207:X O *D sky130_fd_sc_hd__clkbuf_1
*CAP
1 *152:A 3.36482e-05
2 *151:A 5.91317e-05
3 *207:X 2.47143e-05
4 *93:8 0.000117494
5 *151:B *151:A 0.000226848
6 *191:A *151:A 0.00022921
7 *191:A *93:8 9.54469e-05
8 *38:6 *152:A 1.56428e-05
9 *68:10 *151:A 9.50342e-06
10 *68:10 *93:8 8.76033e-05
*RES
1 *207:X *93:8 4.725 
2 *93:8 *151:A 6.255 
3 *93:8 *152:A 4.05 
*END
