*SPEF "ieee 1481-1999"
*DESIGN "acc32"
*DATE "16:13:34 Saturday September 19, 2026"
*VENDOR "The OpenROAD Project"
*PROGRAM "OpenROAD"
*VERSION "edf00dff99f6c40d67a30c0e22a8191c5d2ed9d6"
*DESIGN_FLOW "NAME_SCOPE LOCAL" "PIN_CAP NONE"
*DIVIDER /
*DELIMITER :
*BUS_DELIMITER []
*T_UNIT 1 NS
*C_UNIT 1 PF
*R_UNIT 1 OHM
*L_UNIT 1 HENRY

*NAME_MAP
*3 acc[0]
*4 acc[10]
*5 acc[11]
*6 acc[12]
*7 acc[13]
*8 acc[14]
*9 acc[15]
*10 acc[16]
*11 acc[17]
*12 acc[18]
*13 acc[19]
*14 acc[1]
*15 acc[20]
*16 acc[21]
*17 acc[22]
*18 acc[23]
*19 acc[24]
*20 acc[25]
*21 acc[26]
*22 acc[27]
*23 acc[28]
*24 acc[29]
*25 acc[2]
*26 acc[30]
*27 acc[31]
*28 acc[3]
*29 acc[4]
*30 acc[5]
*31 acc[6]
*32 acc[7]
*33 acc[8]
*34 acc[9]
*35 clk
*36 data_in[0]
*37 data_in[10]
*38 data_in[11]
*39 data_in[12]
*40 data_in[13]
*41 data_in[14]
*42 data_in[15]
*43 data_in[16]
*44 data_in[17]
*45 data_in[18]
*46 data_in[19]
*47 data_in[1]
*48 data_in[20]
*49 data_in[21]
*50 data_in[22]
*51 data_in[23]
*52 data_in[24]
*53 data_in[25]
*54 data_in[26]
*55 data_in[27]
*56 data_in[28]
*57 data_in[29]
*58 data_in[2]
*59 data_in[30]
*60 data_in[31]
*61 data_in[3]
*62 data_in[4]
*63 data_in[5]
*64 data_in[6]
*65 data_in[7]
*66 data_in[8]
*67 data_in[9]
*68 rst
*69 _000_
*70 _001_
*71 _002_
*72 _003_
*73 _004_
*74 _005_
*75 _006_
*76 _007_
*77 _008_
*78 _009_
*79 _010_
*80 _011_
*81 _012_
*82 _013_
*83 _014_
*84 _015_
*85 _016_
*86 _017_
*87 _018_
*88 _019_
*89 _020_
*90 _021_
*91 _022_
*92 _023_
*93 _024_
*94 _025_
*95 _026_
*96 _027_
*97 _028_
*98 _029_
*99 _030_
*100 _031_
*101 _032_
*102 _033_
*103 _034_
*104 _035_
*105 _036_
*106 _037_
*107 _038_
*108 _039_
*109 _040_
*110 _041_
*111 _042_
*112 _043_
*113 _044_
*114 _045_
*115 _046_
*116 _047_
*117 _048_
*118 _049_
*119 _050_
*120 _051_
*121 _052_
*122 _053_
*123 _054_
*124 _055_
*125 _056_
*126 _057_
*127 _058_
*128 _059_
*129 _060_
*130 _061_
*131 _062_
*132 _063_
*133 _064_
*134 _065_
*135 _066_
*136 _067_
*137 _068_
*138 _069_
*139 _070_
*140 _071_
*141 _072_
*142 _073_
*143 _074_
*144 _075_
*145 _076_
*146 _077_
*147 _078_
*148 _079_
*149 _080_
*150 _081_
*151 _082_
*152 _083_
*153 _084_
*154 _085_
*155 _086_
*156 _087_
*157 _088_
*158 _089_
*159 _090_
*160 _091_
*161 _092_
*162 _093_
*163 _094_
*164 _095_
*165 _096_
*166 _097_
*167 _098_
*168 _099_
*169 _100_
*170 _101_
*171 _102_
*172 _103_
*173 _104_
*174 _105_
*175 _106_
*176 _107_
*177 _108_
*178 _109_
*179 _110_
*180 _111_
*181 _112_
*182 _113_
*183 _114_
*184 _115_
*185 _116_
*186 _117_
*187 _118_
*188 _119_
*189 _120_
*190 _121_
*191 _122_
*192 _123_
*193 _124_
*194 _125_
*195 _126_
*196 _127_
*197 _128_
*198 _129_
*199 _130_
*200 _131_
*201 _132_
*202 _133_
*203 _134_
*204 _135_
*205 _136_
*206 _137_
*207 _138_
*208 _139_
*209 _140_
*210 _141_
*211 _142_
*212 _143_
*213 _144_
*214 _145_
*215 _146_
*216 _147_
*217 _148_
*218 _149_
*219 _150_
*220 _151_
*221 _152_
*222 _153_
*223 _154_
*224 _155_
*225 _156_
*226 _157_
*227 _158_
*228 _159_
*229 _160_
*230 _161_
*231 _162_
*232 _163_
*233 _164_
*234 _165_
*235 _166_
*236 _167_
*237 _168_
*238 _169_
*239 _170_
*240 _171_
*241 _172_
*242 _173_
*243 _174_
*244 _175_
*245 _176_
*246 _177_
*247 _178_
*248 _179_
*249 _180_
*250 _181_
*251 _182_
*252 _183_
*253 _184_
*254 _185_
*255 _186_
*256 _187_
*257 _188_
*258 _189_
*259 _190_
*260 _191_
*261 _192_
*262 _193_
*263 _194_
*264 _195_
*265 _196_
*266 _197_
*267 _198_
*268 _199_
*269 adder\.cla_blocks\[0\]\.block\.p\[0\]
*270 adder\.cla_blocks\[0\]\.block\.sum\[1\]
*271 adder\.cla_blocks\[0\]\.block\.sum\[2\]
*272 adder\.cla_blocks\[0\]\.block\.sum\[3\]
*273 adder\.cla_blocks\[1\]\.block\.sum\[0\]
*274 adder\.cla_blocks\[1\]\.block\.sum\[1\]
*275 adder\.cla_blocks\[1\]\.block\.sum\[2\]
*276 adder\.cla_blocks\[1\]\.block\.sum\[3\]
*277 adder\.cla_blocks\[2\]\.block\.sum\[0\]
*278 adder\.cla_blocks\[2\]\.block\.sum\[1\]
*279 adder\.cla_blocks\[2\]\.block\.sum\[2\]
*280 adder\.cla_blocks\[2\]\.block\.sum\[3\]
*281 adder\.cla_blocks\[3\]\.block\.sum\[0\]
*282 adder\.cla_blocks\[3\]\.block\.sum\[1\]
*283 adder\.cla_blocks\[3\]\.block\.sum\[2\]
*284 adder\.cla_blocks\[3\]\.block\.sum\[3\]
*285 adder\.cla_blocks\[4\]\.block\.sum\[0\]
*286 adder\.cla_blocks\[4\]\.block\.sum\[1\]
*287 adder\.cla_blocks\[4\]\.block\.sum\[2\]
*288 adder\.cla_blocks\[4\]\.block\.sum\[3\]
*289 adder\.cla_blocks\[5\]\.block\.sum\[0\]
*290 adder\.cla_blocks\[5\]\.block\.sum\[1\]
*291 adder\.cla_blocks\[5\]\.block\.sum\[2\]
*292 adder\.cla_blocks\[5\]\.block\.sum\[3\]
*293 adder\.cla_blocks\[6\]\.block\.sum\[0\]
*294 adder\.cla_blocks\[6\]\.block\.sum\[1\]
*295 adder\.cla_blocks\[6\]\.block\.sum\[2\]
*296 adder\.cla_blocks\[6\]\.block\.sum\[3\]
*297 adder\.cla_blocks\[7\]\.block\.sum\[0\]
*298 adder\.cla_blocks\[7\]\.block\.sum\[1\]
*299 adder\.cla_blocks\[7\]\.block\.sum\[2\]
*300 adder\.cla_blocks\[7\]\.block\.sum\[3\]
*301 clknet_0_clk
*302 clknet_2_0__leaf_clk
*303 clknet_2_1__leaf_clk
*304 clknet_2_2__leaf_clk
*305 clknet_2_3__leaf_clk
*306 net1
*307 net10
*308 net11
*309 net12
*310 net13
*311 net14
*312 net15
*313 net16
*314 net17
*315 net18
*316 net19
*317 net2
*318 net20
*319 net21
*320 net22
*321 net23
*322 net24
*323 net25
*324 net26
*325 net27
*326 net28
*327 net29
*328 net3
*329 net30
*330 net31
*331 net32
*332 net33
*333 net34
*334 net35
*335 net36
*336 net37
*337 net38
*338 net39
*339 net4
*340 net40
*341 net41
*342 net42
*343 net43
*344 net44
*345 net45
*346 net46
*347 net47
*348 net48
*349 net49
*350 net5
*351 net50
*352 net51
*353 net52
*354 net53
*355 net54
*356 net55
*357 net56
*358 net57
*359 net58
*360 net59
*361 net6
*362 net60
*363 net61
*364 net62
*365 net63
*366 net64
*367 net65
*368 net66
*369 net67
*370 net68
*371 net69
*372 net7
*373 net8
*374 net9
*375 FILLER_0_106
*376 FILLER_0_113
*377 FILLER_0_118
*378 FILLER_0_126
*379 FILLER_0_133
*380 FILLER_0_139
*381 FILLER_0_141
*382 FILLER_0_15
*383 FILLER_0_156
*384 FILLER_0_169
*385 FILLER_0_175
*386 FILLER_0_27
*387 FILLER_0_29
*388 FILLER_0_3
*389 FILLER_0_33
*390 FILLER_0_37
*391 FILLER_0_49
*392 FILLER_0_55
*393 FILLER_0_57
*394 FILLER_0_62
*395 FILLER_0_70
*396 FILLER_0_82
*397 FILLER_0_85
*398 FILLER_0_91
*399 FILLER_10_109
*400 FILLER_10_117
*401 FILLER_10_127
*402 FILLER_10_139
*403 FILLER_10_141
*404 FILLER_10_145
*405 FILLER_10_15
*406 FILLER_10_153
*407 FILLER_10_175
*408 FILLER_10_19
*409 FILLER_10_29
*410 FILLER_10_3
*411 FILLER_10_38
*412 FILLER_10_49
*413 FILLER_10_61
*414 FILLER_10_70
*415 FILLER_10_82
*416 FILLER_10_85
*417 FILLER_10_97
*418 FILLER_11_10
*419 FILLER_11_105
*420 FILLER_11_111
*421 FILLER_11_113
*422 FILLER_11_121
*423 FILLER_11_154
*424 FILLER_11_16
*425 FILLER_11_160
*426 FILLER_11_175
*427 FILLER_11_20
*428 FILLER_11_32
*429 FILLER_11_55
*430 FILLER_11_57
*431 FILLER_11_69
*432 FILLER_11_81
*433 FILLER_11_93
*434 FILLER_12_109
*435 FILLER_12_121
*436 FILLER_12_130
*437 FILLER_12_138
*438 FILLER_12_141
*439 FILLER_12_153
*440 FILLER_12_165
*441 FILLER_12_171
*442 FILLER_12_25
*443 FILLER_12_29
*444 FILLER_12_3
*445 FILLER_12_41
*446 FILLER_12_53
*447 FILLER_12_65
*448 FILLER_12_77
*449 FILLER_12_83
*450 FILLER_12_85
*451 FILLER_12_97
*452 FILLER_13_105
*453 FILLER_13_11
*454 FILLER_13_111
*455 FILLER_13_113
*456 FILLER_13_125
*457 FILLER_13_135
*458 FILLER_13_147
*459 FILLER_13_15
*460 FILLER_13_158
*461 FILLER_13_167
*462 FILLER_13_174
*463 FILLER_13_27
*464 FILLER_13_34
*465 FILLER_13_40
*466 FILLER_13_54
*467 FILLER_13_57
*468 FILLER_13_69
*469 FILLER_13_7
*470 FILLER_13_81
*471 FILLER_13_93
*472 FILLER_14_109
*473 FILLER_14_121
*474 FILLER_14_137
*475 FILLER_14_141
*476 FILLER_14_154
*477 FILLER_14_24
*478 FILLER_14_29
*479 FILLER_14_36
*480 FILLER_14_45
*481 FILLER_14_69
*482 FILLER_14_81
*483 FILLER_14_85
*484 FILLER_14_97
*485 FILLER_15_10
*486 FILLER_15_101
*487 FILLER_15_109
*488 FILLER_15_113
*489 FILLER_15_128
*490 FILLER_15_144
*491 FILLER_15_150
*492 FILLER_15_157
*493 FILLER_15_17
*494 FILLER_15_172
*495 FILLER_15_32
*496 FILLER_15_44
*497 FILLER_15_57
*498 FILLER_15_6
*499 FILLER_15_69
*500 FILLER_16_109
*501 FILLER_16_117
*502 FILLER_16_144
*503 FILLER_16_156
*504 FILLER_16_168
*505 FILLER_16_172
*506 FILLER_16_18
*507 FILLER_16_26
*508 FILLER_16_29
*509 FILLER_16_41
*510 FILLER_16_53
*511 FILLER_16_6
*512 FILLER_16_65
*513 FILLER_16_77
*514 FILLER_16_83
*515 FILLER_16_85
*516 FILLER_16_97
*517 FILLER_17_105
*518 FILLER_17_111
*519 FILLER_17_113
*520 FILLER_17_125
*521 FILLER_17_13
*522 FILLER_17_137
*523 FILLER_17_149
*524 FILLER_17_161
*525 FILLER_17_167
*526 FILLER_17_169
*527 FILLER_17_25
*528 FILLER_17_33
*529 FILLER_17_39
*530 FILLER_17_51
*531 FILLER_17_55
*532 FILLER_17_57
*533 FILLER_17_69
*534 FILLER_17_7
*535 FILLER_17_81
*536 FILLER_17_93
*537 FILLER_18_109
*538 FILLER_18_121
*539 FILLER_18_132
*540 FILLER_18_141
*541 FILLER_18_149
*542 FILLER_18_173
*543 FILLER_18_25
*544 FILLER_18_3
*545 FILLER_18_49
*546 FILLER_18_61
*547 FILLER_18_73
*548 FILLER_18_81
*549 FILLER_18_85
*550 FILLER_18_97
*551 FILLER_19_105
*552 FILLER_19_111
*553 FILLER_19_113
*554 FILLER_19_139
*555 FILLER_19_154
*556 FILLER_19_16
*557 FILLER_19_162
*558 FILLER_19_28
*559 FILLER_19_40
*560 FILLER_19_52
*561 FILLER_19_57
*562 FILLER_19_69
*563 FILLER_19_7
*564 FILLER_19_81
*565 FILLER_19_93
*566 FILLER_1_116
*567 FILLER_1_123
*568 FILLER_1_129
*569 FILLER_1_141
*570 FILLER_1_147
*571 FILLER_1_15
*572 FILLER_1_3
*573 FILLER_1_60
*574 FILLER_1_64
*575 FILLER_1_87
*576 FILLER_20_100
*577 FILLER_20_104
*578 FILLER_20_108
*579 FILLER_20_123
*580 FILLER_20_135
*581 FILLER_20_139
*582 FILLER_20_141
*583 FILLER_20_153
*584 FILLER_20_165
*585 FILLER_20_169
*586 FILLER_20_18
*587 FILLER_20_37
*588 FILLER_20_45
*589 FILLER_20_6
*590 FILLER_20_77
*591 FILLER_20_83
*592 FILLER_20_88
*593 FILLER_21_10
*594 FILLER_21_111
*595 FILLER_21_133
*596 FILLER_21_137
*597 FILLER_21_14
*598 FILLER_21_149
*599 FILLER_21_161
*600 FILLER_21_35
*601 FILLER_21_43
*602 FILLER_21_54
*603 FILLER_21_57
*604 FILLER_22_112
*605 FILLER_22_127
*606 FILLER_22_13
*607 FILLER_22_139
*608 FILLER_22_155
*609 FILLER_22_25
*610 FILLER_22_32
*611 FILLER_22_44
*612 FILLER_22_56
*613 FILLER_22_64
*614 FILLER_22_78
*615 FILLER_22_95
*616 FILLER_23_103
*617 FILLER_23_111
*618 FILLER_23_113
*619 FILLER_23_125
*620 FILLER_23_137
*621 FILLER_23_143
*622 FILLER_23_159
*623 FILLER_23_167
*624 FILLER_23_169
*625 FILLER_23_19
*626 FILLER_23_31
*627 FILLER_23_43
*628 FILLER_23_55
*629 FILLER_23_60
*630 FILLER_23_7
*631 FILLER_23_72
*632 FILLER_23_94
*633 FILLER_24_103
*634 FILLER_24_115
*635 FILLER_24_131
*636 FILLER_24_139
*637 FILLER_24_141
*638 FILLER_24_155
*639 FILLER_24_167
*640 FILLER_24_19
*641 FILLER_24_23
*642 FILLER_24_27
*643 FILLER_24_29
*644 FILLER_24_42
*645 FILLER_24_57
*646 FILLER_24_66
*647 FILLER_24_7
*648 FILLER_24_78
*649 FILLER_24_88
*650 FILLER_25_103
*651 FILLER_25_111
*652 FILLER_25_118
*653 FILLER_25_130
*654 FILLER_25_142
*655 FILLER_25_151
*656 FILLER_25_163
*657 FILLER_25_167
*658 FILLER_25_175
*659 FILLER_25_29
*660 FILLER_25_3
*661 FILLER_25_47
*662 FILLER_25_52
*663 FILLER_25_62
*664 FILLER_25_66
*665 FILLER_25_74
*666 FILLER_25_86
*667 FILLER_25_98
*668 FILLER_26_106
*669 FILLER_26_114
*670 FILLER_26_118
*671 FILLER_26_124
*672 FILLER_26_135
*673 FILLER_26_139
*674 FILLER_26_141
*675 FILLER_26_15
*676 FILLER_26_150
*677 FILLER_26_27
*678 FILLER_26_29
*679 FILLER_26_3
*680 FILLER_26_37
*681 FILLER_26_42
*682 FILLER_26_50
*683 FILLER_26_54
*684 FILLER_26_66
*685 FILLER_26_78
*686 FILLER_26_85
*687 FILLER_26_89
*688 FILLER_27_107
*689 FILLER_27_111
*690 FILLER_27_113
*691 FILLER_27_117
*692 FILLER_27_123
*693 FILLER_27_134
*694 FILLER_27_146
*695 FILLER_27_15
*696 FILLER_27_150
*697 FILLER_27_154
*698 FILLER_27_162
*699 FILLER_27_169
*700 FILLER_27_27
*701 FILLER_27_3
*702 FILLER_27_33
*703 FILLER_27_37
*704 FILLER_27_45
*705 FILLER_27_64
*706 FILLER_27_73
*707 FILLER_27_80
*708 FILLER_27_92
*709 FILLER_28_113
*710 FILLER_28_123
*711 FILLER_28_139
*712 FILLER_28_15
*713 FILLER_28_161
*714 FILLER_28_173
*715 FILLER_28_3
*716 FILLER_28_49
*717 FILLER_28_59
*718 FILLER_28_83
*719 FILLER_28_85
*720 FILLER_29_104
*721 FILLER_29_113
*722 FILLER_29_118
*723 FILLER_29_125
*724 FILLER_29_132
*725 FILLER_29_141
*726 FILLER_29_149
*727 FILLER_29_15
*728 FILLER_29_161
*729 FILLER_29_167
*730 FILLER_29_169
*731 FILLER_29_27
*732 FILLER_29_29
*733 FILLER_29_3
*734 FILLER_29_41
*735 FILLER_29_48
*736 FILLER_29_57
*737 FILLER_29_62
*738 FILLER_29_70
*739 FILLER_29_83
*740 FILLER_29_85
*741 FILLER_29_91
*742 FILLER_29_98
*743 FILLER_2_100
*744 FILLER_2_108
*745 FILLER_2_130
*746 FILLER_2_138
*747 FILLER_2_144
*748 FILLER_2_15
*749 FILLER_2_163
*750 FILLER_2_171
*751 FILLER_2_27
*752 FILLER_2_29
*753 FILLER_2_3
*754 FILLER_2_41
*755 FILLER_2_51
*756 FILLER_2_59
*757 FILLER_2_73
*758 FILLER_2_77
*759 FILLER_2_81
*760 FILLER_2_85
*761 FILLER_3_111
*762 FILLER_3_113
*763 FILLER_3_125
*764 FILLER_3_133
*765 FILLER_3_149
*766 FILLER_3_15
*767 FILLER_3_161
*768 FILLER_3_167
*769 FILLER_3_169
*770 FILLER_3_175
*771 FILLER_3_27
*772 FILLER_3_3
*773 FILLER_3_39
*774 FILLER_3_51
*775 FILLER_3_55
*776 FILLER_3_57
*777 FILLER_3_69
*778 FILLER_3_77
*779 FILLER_3_89
*780 FILLER_3_99
*781 FILLER_4_109
*782 FILLER_4_120
*783 FILLER_4_132
*784 FILLER_4_148
*785 FILLER_4_15
*786 FILLER_4_160
*787 FILLER_4_27
*788 FILLER_4_3
*789 FILLER_4_36
*790 FILLER_4_48
*791 FILLER_4_63
*792 FILLER_4_71
*793 FILLER_4_75
*794 FILLER_4_83
*795 FILLER_4_85
*796 FILLER_4_97
*797 FILLER_5_11
*798 FILLER_5_110
*799 FILLER_5_113
*800 FILLER_5_125
*801 FILLER_5_131
*802 FILLER_5_136
*803 FILLER_5_146
*804 FILLER_5_17
*805 FILLER_5_174
*806 FILLER_5_25
*807 FILLER_5_3
*808 FILLER_5_39
*809 FILLER_5_51
*810 FILLER_5_55
*811 FILLER_5_57
*812 FILLER_5_87
*813 FILLER_5_95
*814 FILLER_5_99
*815 FILLER_6_127
*816 FILLER_6_137
*817 FILLER_6_152
*818 FILLER_6_167
*819 FILLER_6_23
*820 FILLER_6_27
*821 FILLER_6_34
*822 FILLER_6_46
*823 FILLER_6_50
*824 FILLER_6_61
*825 FILLER_6_73
*826 FILLER_6_81
*827 FILLER_6_85
*828 FILLER_6_97
*829 FILLER_7_108
*830 FILLER_7_113
*831 FILLER_7_142
*832 FILLER_7_15
*833 FILLER_7_154
*834 FILLER_7_166
*835 FILLER_7_169
*836 FILLER_7_22
*837 FILLER_7_32
*838 FILLER_7_44
*839 FILLER_7_55
*840 FILLER_7_70
*841 FILLER_7_78
*842 FILLER_7_83
*843 FILLER_7_91
*844 FILLER_8_109
*845 FILLER_8_121
*846 FILLER_8_125
*847 FILLER_8_131
*848 FILLER_8_139
*849 FILLER_8_141
*850 FILLER_8_15
*851 FILLER_8_155
*852 FILLER_8_167
*853 FILLER_8_27
*854 FILLER_8_29
*855 FILLER_8_3
*856 FILLER_8_33
*857 FILLER_8_37
*858 FILLER_8_45
*859 FILLER_8_56
*860 FILLER_8_85
*861 FILLER_8_97
*862 FILLER_9_108
*863 FILLER_9_139
*864 FILLER_9_147
*865 FILLER_9_18
*866 FILLER_9_26
*867 FILLER_9_38
*868 FILLER_9_50
*869 FILLER_9_57
*870 FILLER_9_6
*871 FILLER_9_63
*872 FILLER_9_84
*873 FILLER_9_96
*874 PHY_EDGE_ROW_0_Left_30
*875 PHY_EDGE_ROW_0_Right_0
*876 PHY_EDGE_ROW_10_Left_40
*877 PHY_EDGE_ROW_10_Right_10
*878 PHY_EDGE_ROW_11_Left_41
*879 PHY_EDGE_ROW_11_Right_11
*880 PHY_EDGE_ROW_12_Left_42
*881 PHY_EDGE_ROW_12_Right_12
*882 PHY_EDGE_ROW_13_Left_43
*883 PHY_EDGE_ROW_13_Right_13
*884 PHY_EDGE_ROW_14_Left_44
*885 PHY_EDGE_ROW_14_Right_14
*886 PHY_EDGE_ROW_15_Left_45
*887 PHY_EDGE_ROW_15_Right_15
*888 PHY_EDGE_ROW_16_Left_46
*889 PHY_EDGE_ROW_16_Right_16
*890 PHY_EDGE_ROW_17_Left_47
*891 PHY_EDGE_ROW_17_Right_17
*892 PHY_EDGE_ROW_18_Left_48
*893 PHY_EDGE_ROW_18_Right_18
*894 PHY_EDGE_ROW_19_Left_49
*895 PHY_EDGE_ROW_19_Right_19
*896 PHY_EDGE_ROW_1_Left_31
*897 PHY_EDGE_ROW_1_Right_1
*898 PHY_EDGE_ROW_20_Left_50
*899 PHY_EDGE_ROW_20_Right_20
*900 PHY_EDGE_ROW_21_Left_51
*901 PHY_EDGE_ROW_21_Right_21
*902 PHY_EDGE_ROW_22_Left_52
*903 PHY_EDGE_ROW_22_Right_22
*904 PHY_EDGE_ROW_23_Left_53
*905 PHY_EDGE_ROW_23_Right_23
*906 PHY_EDGE_ROW_24_Left_54
*907 PHY_EDGE_ROW_24_Right_24
*908 PHY_EDGE_ROW_25_Left_55
*909 PHY_EDGE_ROW_25_Right_25
*910 PHY_EDGE_ROW_26_Left_56
*911 PHY_EDGE_ROW_26_Right_26
*912 PHY_EDGE_ROW_27_Left_57
*913 PHY_EDGE_ROW_27_Right_27
*914 PHY_EDGE_ROW_28_Left_58
*915 PHY_EDGE_ROW_28_Right_28
*916 PHY_EDGE_ROW_29_Left_59
*917 PHY_EDGE_ROW_29_Right_29
*918 PHY_EDGE_ROW_2_Left_32
*919 PHY_EDGE_ROW_2_Right_2
*920 PHY_EDGE_ROW_3_Left_33
*921 PHY_EDGE_ROW_3_Right_3
*922 PHY_EDGE_ROW_4_Left_34
*923 PHY_EDGE_ROW_4_Right_4
*924 PHY_EDGE_ROW_5_Left_35
*925 PHY_EDGE_ROW_5_Right_5
*926 PHY_EDGE_ROW_6_Left_36
*927 PHY_EDGE_ROW_6_Right_6
*928 PHY_EDGE_ROW_7_Left_37
*929 PHY_EDGE_ROW_7_Right_7
*930 PHY_EDGE_ROW_8_Left_38
*931 PHY_EDGE_ROW_8_Right_8
*932 PHY_EDGE_ROW_9_Left_39
*933 PHY_EDGE_ROW_9_Right_9
*934 TAP_TAPCELL_ROW_0_60
*935 TAP_TAPCELL_ROW_0_61
*936 TAP_TAPCELL_ROW_0_62
*937 TAP_TAPCELL_ROW_0_63
*938 TAP_TAPCELL_ROW_0_64
*939 TAP_TAPCELL_ROW_0_65
*940 TAP_TAPCELL_ROW_10_93
*941 TAP_TAPCELL_ROW_10_94
*942 TAP_TAPCELL_ROW_10_95
*943 TAP_TAPCELL_ROW_11_96
*944 TAP_TAPCELL_ROW_11_97
*945 TAP_TAPCELL_ROW_11_98
*946 TAP_TAPCELL_ROW_12_100
*947 TAP_TAPCELL_ROW_12_101
*948 TAP_TAPCELL_ROW_12_99
*949 TAP_TAPCELL_ROW_13_102
*950 TAP_TAPCELL_ROW_13_103
*951 TAP_TAPCELL_ROW_13_104
*952 TAP_TAPCELL_ROW_14_105
*953 TAP_TAPCELL_ROW_14_106
*954 TAP_TAPCELL_ROW_14_107
*955 TAP_TAPCELL_ROW_15_108
*956 TAP_TAPCELL_ROW_15_109
*957 TAP_TAPCELL_ROW_15_110
*958 TAP_TAPCELL_ROW_16_111
*959 TAP_TAPCELL_ROW_16_112
*960 TAP_TAPCELL_ROW_16_113
*961 TAP_TAPCELL_ROW_17_114
*962 TAP_TAPCELL_ROW_17_115
*963 TAP_TAPCELL_ROW_17_116
*964 TAP_TAPCELL_ROW_18_117
*965 TAP_TAPCELL_ROW_18_118
*966 TAP_TAPCELL_ROW_18_119
*967 TAP_TAPCELL_ROW_19_120
*968 TAP_TAPCELL_ROW_19_121
*969 TAP_TAPCELL_ROW_19_122
*970 TAP_TAPCELL_ROW_1_66
*971 TAP_TAPCELL_ROW_1_67
*972 TAP_TAPCELL_ROW_1_68
*973 TAP_TAPCELL_ROW_20_123
*974 TAP_TAPCELL_ROW_20_124
*975 TAP_TAPCELL_ROW_20_125
*976 TAP_TAPCELL_ROW_21_126
*977 TAP_TAPCELL_ROW_21_127
*978 TAP_TAPCELL_ROW_21_128
*979 TAP_TAPCELL_ROW_22_129
*980 TAP_TAPCELL_ROW_22_130
*981 TAP_TAPCELL_ROW_22_131
*982 TAP_TAPCELL_ROW_23_132
*983 TAP_TAPCELL_ROW_23_133
*984 TAP_TAPCELL_ROW_23_134
*985 TAP_TAPCELL_ROW_24_135
*986 TAP_TAPCELL_ROW_24_136
*987 TAP_TAPCELL_ROW_24_137
*988 TAP_TAPCELL_ROW_25_138
*989 TAP_TAPCELL_ROW_25_139
*990 TAP_TAPCELL_ROW_25_140
*991 TAP_TAPCELL_ROW_26_141
*992 TAP_TAPCELL_ROW_26_142
*993 TAP_TAPCELL_ROW_26_143
*994 TAP_TAPCELL_ROW_27_144
*995 TAP_TAPCELL_ROW_27_145
*996 TAP_TAPCELL_ROW_27_146
*997 TAP_TAPCELL_ROW_28_147
*998 TAP_TAPCELL_ROW_28_148
*999 TAP_TAPCELL_ROW_28_149
*1000 TAP_TAPCELL_ROW_29_150
*1001 TAP_TAPCELL_ROW_29_151
*1002 TAP_TAPCELL_ROW_29_152
*1003 TAP_TAPCELL_ROW_29_153
*1004 TAP_TAPCELL_ROW_29_154
*1005 TAP_TAPCELL_ROW_29_155
*1006 TAP_TAPCELL_ROW_2_69
*1007 TAP_TAPCELL_ROW_2_70
*1008 TAP_TAPCELL_ROW_2_71
*1009 TAP_TAPCELL_ROW_3_72
*1010 TAP_TAPCELL_ROW_3_73
*1011 TAP_TAPCELL_ROW_3_74
*1012 TAP_TAPCELL_ROW_4_75
*1013 TAP_TAPCELL_ROW_4_76
*1014 TAP_TAPCELL_ROW_4_77
*1015 TAP_TAPCELL_ROW_5_78
*1016 TAP_TAPCELL_ROW_5_79
*1017 TAP_TAPCELL_ROW_5_80
*1018 TAP_TAPCELL_ROW_6_81
*1019 TAP_TAPCELL_ROW_6_82
*1020 TAP_TAPCELL_ROW_6_83
*1021 TAP_TAPCELL_ROW_7_84
*1022 TAP_TAPCELL_ROW_7_85
*1023 TAP_TAPCELL_ROW_7_86
*1024 TAP_TAPCELL_ROW_8_87
*1025 TAP_TAPCELL_ROW_8_88
*1026 TAP_TAPCELL_ROW_8_89
*1027 TAP_TAPCELL_ROW_9_90
*1028 TAP_TAPCELL_ROW_9_91
*1029 TAP_TAPCELL_ROW_9_92
*1030 _200_
*1031 _201_
*1032 _202_
*1033 _203_
*1034 _204_
*1035 _205_
*1036 _206_
*1037 _207_
*1038 _208_
*1039 _209_
*1040 _210_
*1041 _211_
*1042 _212_
*1043 _213_
*1044 _214_
*1045 _215_
*1046 _216_
*1047 _217_
*1048 _218_
*1049 _219_
*1050 _220_
*1051 _221_
*1052 _222_
*1053 _223_
*1054 _224_
*1055 _225_
*1056 _226_
*1057 _227_
*1058 _228_
*1059 _229_
*1060 _230_
*1061 _231_
*1062 _232_
*1063 _233_
*1064 _234_
*1065 _235_
*1066 _236_
*1067 _237_
*1068 _238_
*1069 _239_
*1070 _240_
*1071 _241_
*1072 _242_
*1073 _243_
*1074 _244_
*1075 _245_
*1076 _246_
*1077 _247_
*1078 _248_
*1079 _249_
*1080 _250_
*1081 _251_
*1082 _252_
*1083 _253_
*1084 _254_
*1085 _255_
*1086 _256_
*1087 _257_
*1088 _258_
*1089 _259_
*1090 _260_
*1091 _261_
*1092 _262_
*1093 _263_
*1094 _264_
*1095 _265_
*1096 _266_
*1097 _267_
*1098 _268_
*1099 _269_
*1100 _270_
*1101 _271_
*1102 _272_
*1103 _273_
*1104 _274_
*1105 _275_
*1106 _276_
*1107 _277_
*1108 _278_
*1109 _279_
*1110 _280_
*1111 _281_
*1112 _282_
*1113 _283_
*1114 _284_
*1115 _285_
*1116 _286_
*1117 _287_
*1118 _288_
*1119 _289_
*1120 _290_
*1121 _291_
*1122 _292_
*1123 _293_
*1124 _294_
*1125 _295_
*1126 _296_
*1127 _297_
*1128 _298_
*1129 _299_
*1130 _300_
*1131 _301_
*1132 _302_
*1133 _303_
*1134 _304_
*1135 _305_
*1136 _306_
*1137 _307_
*1138 _308_
*1139 _309_
*1140 _310_
*1141 _311_
*1142 _312_
*1143 _313_
*1144 _314_
*1145 _315_
*1146 _316_
*1147 _317_
*1148 _318_
*1149 _319_
*1150 _320_
*1151 _321_
*1152 _322_
*1153 _323_
*1154 _324_
*1155 _325_
*1156 _326_
*1157 _327_
*1158 _328_
*1159 _329_
*1160 _330_
*1161 _331_
*1162 _332_
*1163 _333_
*1164 _334_
*1165 _335_
*1166 _336_
*1167 _337_
*1168 _338_
*1169 _339_
*1170 _340_
*1171 _341_
*1172 _342_
*1173 _343_
*1174 _344_
*1175 _345_
*1176 _346_
*1177 _347_
*1178 _348_
*1179 _349_
*1180 _350_
*1181 _351_
*1182 _352_
*1183 _353_
*1184 _354_
*1185 _355_
*1186 _356_
*1187 _357_
*1188 _358_
*1189 _359_
*1190 _360_
*1191 _361_
*1192 _362_
*1193 _363_
*1194 _364_
*1195 _365_
*1196 _366_
*1197 _367_
*1198 _368_
*1199 _369_
*1200 _370_
*1201 _371_
*1202 _372_
*1203 _373_
*1204 _374_
*1205 _375_
*1206 _376_
*1207 _377_
*1208 _378_
*1209 _379_
*1210 _380_
*1211 _381_
*1212 _382_
*1213 _383_
*1214 _384_
*1215 _385_
*1216 _386_
*1217 _387_
*1218 _388_
*1219 _389_
*1220 _390_
*1221 _391_
*1222 _392_
*1223 _393_
*1224 _394_
*1225 _395_
*1226 _396_
*1227 _397_
*1228 _398_
*1229 _399_
*1230 _400_
*1231 _401_
*1232 _402_
*1233 _403_
*1234 _404_
*1235 _405_
*1236 _406_
*1237 _407_
*1238 _408_
*1239 _409_
*1240 _410_
*1241 _411_
*1242 _412_
*1243 _413_
*1244 _414_
*1245 _415_
*1246 _416_
*1247 _417_
*1248 _418_
*1249 _419_
*1250 _420_
*1251 _421_
*1252 _422_
*1253 _423_
*1254 _424_
*1255 _425_
*1256 _426_
*1257 _427_
*1258 _428_
*1259 _429_
*1260 _430_
*1261 _431_
*1262 _432_
*1263 _433_
*1264 _434_
*1265 _435_
*1266 _436_
*1267 _437_
*1268 _438_
*1269 _439_
*1270 _440_
*1271 _441_
*1272 _442_
*1273 _443_
*1274 _444_
*1275 _445_
*1276 _446_
*1277 _447_
*1278 _448_
*1279 _449_
*1280 _450_
*1281 _451_
*1282 _452_
*1283 _453_
*1284 _454_
*1285 _455_
*1286 _456_
*1287 _457_
*1288 _458_
*1289 _459_
*1290 _460_
*1291 _461_
*1292 _462_
*1293 _463_
*1294 clkbuf_0_clk
*1295 clkbuf_2_0__f_clk
*1296 clkbuf_2_1__f_clk
*1297 clkbuf_2_2__f_clk
*1298 clkbuf_2_3__f_clk
*1299 clkload0
*1300 clkload1
*1301 clkload2
*1302 fanout66
*1303 fanout67
*1304 fanout68
*1305 fanout69
*1306 input1
*1307 input10
*1308 input11
*1309 input12
*1310 input13
*1311 input14
*1312 input15
*1313 input16
*1314 input17
*1315 input18
*1316 input19
*1317 input2
*1318 input20
*1319 input21
*1320 input22
*1321 input23
*1322 input24
*1323 input25
*1324 input26
*1325 input27
*1326 input28
*1327 input29
*1328 input3
*1329 input30
*1330 input31
*1331 input32
*1332 input33
*1333 input4
*1334 input5
*1335 input6
*1336 input7
*1337 input8
*1338 input9
*1339 output34
*1340 output35
*1341 output36
*1342 output37
*1343 output38
*1344 output39
*1345 output40
*1346 output41
*1347 output42
*1348 output43
*1349 output44
*1350 output45
*1351 output46
*1352 output47
*1353 output48
*1354 output49
*1355 output50
*1356 output51
*1357 output52
*1358 output53
*1359 output54
*1360 output55
*1361 output56
*1362 output57
*1363 output58
*1364 output59
*1365 output60
*1366 output61
*1367 output62
*1368 output63
*1369 output64
*1370 output65

*PORTS
acc[0] O
acc[10] O
acc[11] O
acc[12] O
acc[13] O
acc[14] O
acc[15] O
acc[16] O
acc[17] O
acc[18] O
acc[19] O
acc[1] O
acc[20] O
acc[21] O
acc[22] O
acc[23] O
acc[24] O
acc[25] O
acc[26] O
acc[27] O
acc[28] O
acc[29] O
acc[2] O
acc[30] O
acc[31] O
acc[3] O
acc[4] O
acc[5] O
acc[6] O
acc[7] O
acc[8] O
acc[9] O
clk I
data_in[0] I
data_in[10] I
data_in[11] I
data_in[12] I
data_in[13] I
data_in[14] I
data_in[15] I
data_in[16] I
data_in[17] I
data_in[18] I
data_in[19] I
data_in[1] I
data_in[20] I
data_in[21] I
data_in[22] I
data_in[23] I
data_in[24] I
data_in[25] I
data_in[26] I
data_in[27] I
data_in[28] I
data_in[29] I
data_in[2] I
data_in[30] I
data_in[31] I
data_in[3] I
data_in[4] I
data_in[5] I
data_in[6] I
data_in[7] I
data_in[8] I
data_in[9] I
rst I

*D_NET *3 0.000555163
*CONN
*P acc[0] O
*I *1339:X O *D sky130_fd_sc_hd__buf_2
*CAP
1 acc[0] 0.000179275
2 *1339:X 0.000179275
3 acc[0] acc[1] 9.43968e-05
4 acc[0] *1306:A 0.000102216
5 acc[0] *332:32 0
*RES
1 *1339:X acc[0] 5.2183 
*END

*D_NET *4 0.000810725
*CONN
*P acc[10] O
*I *1340:X O *D sky130_fd_sc_hd__buf_2
*CAP
1 acc[10] 0.000405362
2 *1340:X 0.000405362
3 acc[10] *1317:A 0
4 acc[10] *1333:A 0
*RES
1 *1340:X acc[10] 10.185 
*END

*D_NET *5 0.000900772
*CONN
*P acc[11] O
*I *1341:X O *D sky130_fd_sc_hd__buf_2
*CAP
1 acc[11] 0.00042624
2 *1341:X 0.00042624
3 acc[11] acc[12] 0
4 acc[11] *1328:A 0
5 acc[11] *1341:A 4.82919e-05
*RES
1 *1341:X acc[11] 10.53 
*END

*D_NET *6 0.00161155
*CONN
*P acc[12] O
*I *1342:X O *D sky130_fd_sc_hd__buf_2
*CAP
1 acc[12] 0.000547394
2 *1342:X 0.000547394
3 acc[12] *1082:A 2.68721e-05
4 acc[12] *1331:A 0
5 acc[12] *1370:A 4.85494e-05
6 acc[12] *129:12 8.8266e-05
7 acc[12] *331:8 4.66108e-05
8 acc[12] *367:25 0.000306464
9 acc[11] acc[12] 0
*RES
1 *1342:X acc[12] 14.31 
*END

*D_NET *7 0.000707352
*CONN
*P acc[13] O
*I *1343:X O *D sky130_fd_sc_hd__buf_2
*CAP
1 acc[13] 0.000310798
2 *1343:X 0.000310798
3 acc[13] acc[16] 3.14094e-05
4 acc[13] *1334:A 5.43462e-05
*RES
1 *1343:X acc[13] 7.17697 
*END

*D_NET *8 0.000876086
*CONN
*P acc[14] O
*I *1344:X O *D sky130_fd_sc_hd__buf_2
*CAP
1 acc[14] 0.000420759
2 *1344:X 0.000420759
3 acc[14] *1035:A 3.45679e-05
4 acc[14] *1335:A 0
*RES
1 *1344:X acc[14] 10.74 
*END

*D_NET *9 0.000679074
*CONN
*P acc[15] O
*I *1345:X O *D sky130_fd_sc_hd__buf_2
*CAP
1 acc[15] 0.0003191
2 *1345:X 0.0003191
3 acc[15] *1336:A 2.24901e-05
4 acc[15] *340:12 1.83847e-05
*RES
1 *1345:X acc[15] 7.1793 
*END

*D_NET *10 0.000599734
*CONN
*P acc[16] O
*I *1346:X O *D sky130_fd_sc_hd__buf_2
*CAP
1 acc[16] 0.000272917
2 *1346:X 0.000272917
3 acc[16] *1338:A 2.24901e-05
4 acc[13] acc[16] 3.14094e-05
*RES
1 *1346:X acc[16] 7.1793 
*END

*D_NET *11 0.000670821
*CONN
*P acc[17] O
*I *1347:X O *D sky130_fd_sc_hd__buf_2
*CAP
1 acc[17] 0.000308461
2 *1347:X 0.000308461
3 acc[17] acc[18] 2.24901e-05
4 acc[17] *1337:A 3.14094e-05
*RES
1 *1347:X acc[17] 7.1793 
*END

*D_NET *12 0.000618225
*CONN
*P acc[18] O
*I *1348:X O *D sky130_fd_sc_hd__buf_2
*CAP
1 acc[18] 0.000243307
2 *1348:X 0.000243307
3 acc[18] *1220:B 2.87867e-05
4 acc[18] *1307:A 0
5 acc[18] *1308:A 2.24901e-05
6 acc[18] *1337:A 0
7 acc[18] *35:11 5.78448e-05
8 acc[18] *189:12 0
9 acc[17] acc[18] 2.24901e-05
*RES
1 *1348:X acc[18] 5.92503 
*END

*D_NET *13 0.000785384
*CONN
*P acc[19] O
*I *1349:X O *D sky130_fd_sc_hd__buf_2
*CAP
1 acc[19] 0.000367194
2 *1349:X 0.000367194
3 acc[19] acc[21] 2.85068e-05
4 acc[19] *1307:A 2.24901e-05
5 acc[19] *35:11 0
*RES
1 *1349:X acc[19] 8.1993 
*END

*D_NET *14 0.00134759
*CONN
*P acc[1] O
*I *1350:X O *D sky130_fd_sc_hd__buf_2
*CAP
1 acc[1] 0.000516186
2 *1350:X 0.000516186
3 acc[1] *1263:RESET_B 3.97211e-05
4 acc[1] *1303:A 0
5 acc[1] *1306:A 0
6 acc[1] *1324:A 0
7 acc[1] *1325:A 9.25475e-05
8 acc[1] *332:32 5.39961e-05
9 acc[1] *345:10 0
10 acc[1] *345:29 0
11 acc[1] *368:8 3.45588e-05
12 acc[0] acc[1] 9.43968e-05
*RES
1 *1350:X acc[1] 7.3829 
*END

*D_NET *15 0.00085605
*CONN
*P acc[20] O
*I *1351:X O *D sky130_fd_sc_hd__buf_2
*CAP
1 acc[20] 0.000428025
2 *1351:X 0.000428025
3 acc[20] *1310:A 0
4 acc[20] *1312:A 0
*RES
1 *1351:X acc[20] 11.205 
*END

*D_NET *16 0.000693128
*CONN
*P acc[21] O
*I *1352:X O *D sky130_fd_sc_hd__buf_2
*CAP
1 acc[21] 0.000303388
2 *1352:X 0.000303388
3 acc[21] *1307:A 0
4 acc[21] *35:11 5.78448e-05
5 acc[19] acc[21] 2.85068e-05
*RES
1 *1352:X acc[21] 5.92503 
*END

*D_NET *17 0.00085605
*CONN
*P acc[22] O
*I *1353:X O *D sky130_fd_sc_hd__buf_2
*CAP
1 acc[22] 0.000428025
2 *1353:X 0.000428025
3 acc[22] *1311:A 0
4 acc[22] *1312:A 0
*RES
1 *1353:X acc[22] 11.205 
*END

*D_NET *18 0.000894056
*CONN
*P acc[23] O
*I *1354:X O *D sky130_fd_sc_hd__buf_2
*CAP
1 acc[23] 0.000447028
2 *1354:X 0.000447028
3 acc[23] acc[25] 0
4 acc[23] *1313:A 0
*RES
1 *1354:X acc[23] 11.55 
*END

*D_NET *19 0.00110527
*CONN
*P acc[24] O
*I *1355:X O *D sky130_fd_sc_hd__buf_2
*CAP
1 acc[24] 0.000552157
2 *1355:X 0.000552157
3 acc[24] *1315:A 0
4 acc[24] *314:16 9.60582e-07
*RES
1 *1355:X acc[24] 12.345 
*END

*D_NET *20 0.00085605
*CONN
*P acc[25] O
*I *1356:X O *D sky130_fd_sc_hd__buf_2
*CAP
1 acc[25] 0.000428025
2 *1356:X 0.000428025
3 acc[25] *1315:A 0
4 acc[23] acc[25] 0
*RES
1 *1356:X acc[25] 11.205 
*END

*D_NET *21 0.000943302
*CONN
*P acc[26] O
*I *1357:X O *D sky130_fd_sc_hd__buf_2
*CAP
1 acc[26] 0.000471651
2 *1357:X 0.000471651
3 acc[26] *1318:A 0
*RES
1 *1357:X acc[26] 11.655 
*END

*D_NET *22 0.0013141
*CONN
*P acc[27] O
*I *1358:X O *D sky130_fd_sc_hd__buf_2
*CAP
1 acc[27] 0.000638403
2 *1358:X 0.000638403
3 acc[27] *1304:A 3.72916e-05
*RES
1 *1358:X acc[27] 13.725 
*END

*D_NET *23 0.00051442
*CONN
*P acc[28] O
*I *1359:X O *D sky130_fd_sc_hd__buf_2
*CAP
1 acc[28] 0.000156756
2 *1359:X 0.000156756
3 acc[28] acc[30] 9.36531e-05
4 acc[28] *1332:A 9.50048e-05
5 acc[28] *1359:A 1.22505e-05
*RES
1 *1359:X acc[28] 4.9633 
*END

*D_NET *24 0.000622913
*CONN
*P acc[29] O
*I *1360:X O *D sky130_fd_sc_hd__buf_2
*CAP
1 acc[29] 0.000212846
2 *1360:X 0.000212846
3 acc[29] acc[2] 0.000102216
4 acc[29] *1319:A 0
5 acc[29] *1320:A 9.50048e-05
6 acc[29] *332:32 0
7 acc[29] *356:10 0
*RES
1 *1360:X acc[29] 5.9833 
*END

*D_NET *25 0.000510264
*CONN
*P acc[2] O
*I *1361:X O *D sky130_fd_sc_hd__buf_2
*CAP
1 acc[2] 0.000160623
2 *1361:X 0.000160623
3 acc[2] *1053:A 0
4 acc[2] *1321:A 8.68024e-05
5 acc[29] acc[2] 0.000102216
*RES
1 *1361:X acc[2] 4.9633 
*END

*D_NET *26 0.000509271
*CONN
*P acc[30] O
*I *1362:X O *D sky130_fd_sc_hd__buf_2
*CAP
1 acc[30] 0.000149617
2 *1362:X 0.000149617
3 acc[30] *1322:A 0.000104673
4 acc[30] *1359:A 1.17114e-05
5 acc[28] acc[30] 9.36531e-05
*RES
1 *1362:X acc[30] 4.9633 
*END

*D_NET *27 0.000799283
*CONN
*P acc[31] O
*I *1363:X O *D sky130_fd_sc_hd__buf_2
*CAP
1 acc[31] 0.000228718
2 *1363:X 0.000228718
3 acc[31] *1194:A 0.000152445
4 acc[31] *1319:A 9.43968e-05
5 acc[31] *1322:A 0
6 acc[31] *1323:A 9.50048e-05
*RES
1 *1363:X acc[31] 6.4933 
*END

*D_NET *28 0.000878052
*CONN
*P acc[3] O
*I *1364:X O *D sky130_fd_sc_hd__buf_2
*CAP
1 acc[3] 0.000284864
2 *1364:X 0.000284864
3 acc[3] acc[5] 0.000104673
4 acc[3] *1260:A 0.000108647
5 acc[3] *1326:A 0
6 acc[3] *1329:A 9.50048e-05
*RES
1 *1364:X acc[3] 6.21637 
*END

*D_NET *29 0.00066081
*CONN
*P acc[4] O
*I *1365:X O *D sky130_fd_sc_hd__buf_2
*CAP
1 acc[4] 0.000202027
2 *1365:X 0.000202027
3 acc[4] *1324:A 0.000102216
4 acc[4] *1326:A 9.43968e-05
5 acc[4] *1365:A 6.0143e-05
*RES
1 *1365:X acc[4] 5.9833 
*END

*D_NET *30 0.000494192
*CONN
*P acc[5] O
*I *1366:X O *D sky130_fd_sc_hd__buf_2
*CAP
1 acc[5] 0.000139321
2 *1366:X 0.000139321
3 acc[5] *1107:A 8.66107e-06
4 acc[5] *1326:A 0.000102216
5 acc[3] acc[5] 0.000104673
*RES
1 *1366:X acc[5] 4.9633 
*END

*D_NET *31 0.000813966
*CONN
*P acc[6] O
*I *1367:X O *D sky130_fd_sc_hd__buf_2
*CAP
1 acc[6] 0.000406983
2 *1367:X 0.000406983
3 acc[6] acc[8] 0
4 acc[6] *1327:A 0
*RES
1 *1367:X acc[6] 10.185 
*END

*D_NET *32 0.000512009
*CONN
*P acc[7] O
*I *1368:X O *D sky130_fd_sc_hd__buf_2
*CAP
1 acc[7] 0.000212603
2 *1368:X 0.000212603
3 acc[7] *1329:A 8.68024e-05
*RES
1 *1368:X acc[7] 4.9633 
*END

*D_NET *33 0.00088404
*CONN
*P acc[8] O
*I *1369:X O *D sky130_fd_sc_hd__buf_2
*CAP
1 acc[8] 0.000428259
2 *1369:X 0.000428259
3 acc[8] *1330:A 0
4 acc[8] *1369:A 2.75229e-05
5 acc[6] acc[8] 0
*RES
1 *1369:X acc[8] 10.53 
*END

*D_NET *34 0.000900772
*CONN
*P acc[9] O
*I *1370:X O *D sky130_fd_sc_hd__buf_2
*CAP
1 acc[9] 0.00042624
2 *1370:X 0.00042624
3 acc[9] *1330:A 0
4 acc[9] *1331:A 0
5 acc[9] *1370:A 4.82919e-05
*RES
1 *1370:X acc[9] 10.53 
*END

*D_NET *35 0.00823252
*CONN
*P clk I
*I *1294:A I *D sky130_fd_sc_hd__clkbuf_16
*CAP
1 clk 0.00150725
2 *1294:A 0.00164072
3 *35:11 0.00314797
4 *1294:A *1147:A_N 2.75229e-05
5 *1294:A *1151:B1 0.000462321
6 *1294:A *1153:A 0.000113237
7 *1294:A *1153:B 8.37928e-05
8 *1294:A *1155:C1 4.99619e-05
9 *1294:A *1217:A2 8.8266e-05
10 *1294:A *1217:B1 6.90876e-05
11 *1294:A *1338:A 4.99619e-05
12 *1294:A *194:8 0.00012657
13 *1294:A *342:23 0.0001249
14 *1294:A *374:17 0.000275548
15 *35:11 *1141:A 1.22762e-05
16 *35:11 *1144:A 0
17 *35:11 *1145:A 2.8585e-05
18 *35:11 *1220:B 0
19 *35:11 *1307:A 0.00024439
20 *35:11 *1308:A 0
21 *35:11 *1337:A 6.44676e-05
22 *35:11 *1347:A 0
23 *35:11 *1349:A 0
24 *35:11 *1352:A 0
25 acc[18] *35:11 5.78448e-05
26 acc[19] *35:11 0
27 acc[21] *35:11 5.78448e-05
*RES
1 clk *35:11 26.9035 
2 *35:11 *1294:A 28.96 
*END

*D_NET *36 0.00174277
*CONN
*P data_in[0] I
*I *1306:A I *D sky130_fd_sc_hd__clkbuf_1
*CAP
1 data_in[0] 0.000459833
2 *1306:A 0.000459833
3 *1306:A *1262:RESET_B 0.000166346
4 *1306:A *1309:A 9.25475e-05
5 *1306:A *309:6 0.000237243
6 *1306:A *321:12 0.000138799
7 *1306:A *332:32 8.59553e-05
8 *1306:A *333:8 0
9 acc[0] *1306:A 0.000102216
10 acc[1] *1306:A 0
*RES
1 data_in[0] *1306:A 11.2431 
*END

*D_NET *37 0.00088246
*CONN
*P data_in[10] I
*I *1317:A I *D sky130_fd_sc_hd__clkbuf_1
*CAP
1 data_in[10] 0.000427482
2 *1317:A 0.000427482
3 *1317:A *1328:A 0
4 *1317:A *1340:A 4.18603e-06
5 *1317:A *317:12 1.83847e-05
6 *1317:A *328:10 4.9253e-06
7 acc[10] *1317:A 0
*RES
1 data_in[10] *1317:A 11.04 
*END

*D_NET *38 0.000812711
*CONN
*P data_in[11] I
*I *1328:A I *D sky130_fd_sc_hd__clkbuf_1
*CAP
1 data_in[11] 0.00040209
2 *1328:A 0.00040209
3 *1328:A *335:31 8.53113e-06
4 acc[11] *1328:A 0
5 *1317:A *1328:A 0
*RES
1 data_in[11] *1328:A 10.35 
*END

*D_NET *39 0.000903118
*CONN
*P data_in[12] I
*I *1333:A I *D sky130_fd_sc_hd__buf_1
*CAP
1 data_in[12] 0.000427413
2 *1333:A 0.000427413
3 *1333:A *1035:A 4.82919e-05
4 *1333:A *1335:A 0
5 acc[10] *1333:A 0
*RES
1 data_in[12] *1333:A 11.04 
*END

*D_NET *40 0.000745138
*CONN
*P data_in[13] I
*I *1334:A I *D sky130_fd_sc_hd__clkbuf_1
*CAP
1 data_in[13] 0.000345396
2 *1334:A 0.000345396
3 *1334:A *1336:A 0
4 acc[13] *1334:A 5.43462e-05
*RES
1 data_in[13] *1334:A 5.84483 
*END

*D_NET *41 0.000947842
*CONN
*P data_in[14] I
*I *1335:A I *D sky130_fd_sc_hd__clkbuf_1
*CAP
1 data_in[14] 0.000411471
2 *1335:A 0.000411471
3 *1335:A *1035:A 0.0001249
4 acc[14] *1335:A 0
5 *1333:A *1335:A 0
*RES
1 data_in[14] *1335:A 11.04 
*END

*D_NET *42 0.000627357
*CONN
*P data_in[15] I
*I *1336:A I *D sky130_fd_sc_hd__buf_1
*CAP
1 data_in[15] 0.000302433
2 *1336:A 0.000302433
3 *1336:A *372:10 0
4 acc[15] *1336:A 2.24901e-05
5 *1334:A *1336:A 0
*RES
1 data_in[15] *1336:A 6.63177 
*END

*D_NET *43 0.000566328
*CONN
*P data_in[16] I
*I *1337:A I *D sky130_fd_sc_hd__buf_1
*CAP
1 data_in[16] 0.000206695
2 *1337:A 0.000206695
3 *1337:A *1338:A 3.14094e-05
4 *1337:A *1347:A 2.56523e-05
5 acc[17] *1337:A 3.14094e-05
6 acc[18] *1337:A 0
7 *35:11 *1337:A 6.44676e-05
*RES
1 data_in[16] *1337:A 5.35677 
*END

*D_NET *44 0.000644567
*CONN
*P data_in[17] I
*I *1338:A I *D sky130_fd_sc_hd__buf_1
*CAP
1 data_in[17] 0.000270353
2 *1338:A 0.000270353
3 *1338:A *1141:A 0
4 acc[16] *1338:A 2.24901e-05
5 *1294:A *1338:A 4.99619e-05
6 *1337:A *1338:A 3.14094e-05
*RES
1 data_in[17] *1338:A 7.5993 
*END

*D_NET *45 0.0008953
*CONN
*P data_in[18] I
*I *1307:A I *D sky130_fd_sc_hd__buf_1
*CAP
1 data_in[18] 0.00024127
2 *1307:A 0.00024127
3 *1307:A *1145:A 4.92063e-05
4 *1307:A *1308:A 3.14094e-05
5 *1307:A *1349:A 6.5265e-05
6 acc[18] *1307:A 0
7 acc[19] *1307:A 2.24901e-05
8 acc[21] *1307:A 0
9 *35:11 *1307:A 0.00024439
*RES
1 data_in[18] *1307:A 7.39677 
*END

*D_NET *46 0.000599207
*CONN
*P data_in[19] I
*I *1308:A I *D sky130_fd_sc_hd__buf_1
*CAP
1 data_in[19] 0.000272654
2 *1308:A 0.000272654
3 acc[18] *1308:A 2.24901e-05
4 *1307:A *1308:A 3.14094e-05
5 *35:11 *1308:A 0
*RES
1 data_in[19] *1308:A 7.3443 
*END

*D_NET *47 0.000617583
*CONN
*P data_in[1] I
*I *1309:A I *D sky130_fd_sc_hd__clkbuf_1
*CAP
1 data_in[1] 0.000215015
2 *1309:A 0.000215015
3 *1309:A *1053:A 0
4 *1309:A *1321:A 9.50048e-05
5 *1309:A *332:32 0
6 *1306:A *1309:A 9.25475e-05
*RES
1 data_in[1] *1309:A 6.18003 
*END

*D_NET *48 0.000885085
*CONN
*P data_in[20] I
*I *1310:A I *D sky130_fd_sc_hd__clkbuf_1
*CAP
1 data_in[20] 0.000442543
2 *1310:A 0.000442543
3 *1310:A *1313:A 0
4 acc[20] *1310:A 0
*RES
1 data_in[20] *1310:A 11.37 
*END

*D_NET *49 0.000950239
*CONN
*P data_in[21] I
*I *1311:A I *D sky130_fd_sc_hd__clkbuf_1
*CAP
1 data_in[21] 0.00047512
2 *1311:A 0.00047512
3 *1311:A *1353:A 0
4 acc[22] *1311:A 0
*RES
1 data_in[21] *1311:A 12.06 
*END

*D_NET *50 0.000950239
*CONN
*P data_in[22] I
*I *1312:A I *D sky130_fd_sc_hd__clkbuf_1
*CAP
1 data_in[22] 0.00047512
2 *1312:A 0.00047512
3 *1312:A *1351:A 0
4 *1312:A *1353:A 0
5 acc[20] *1312:A 0
6 acc[22] *1312:A 0
*RES
1 data_in[22] *1312:A 12.06 
*END

*D_NET *51 0.000954799
*CONN
*P data_in[23] I
*I *1313:A I *D sky130_fd_sc_hd__clkbuf_1
*CAP
1 data_in[23] 0.000477399
2 *1313:A 0.000477399
3 *1313:A *349:25 0
4 acc[23] *1313:A 0
5 *1310:A *1313:A 0
*RES
1 data_in[23] *1313:A 12.06 
*END

*D_NET *52 0.000950239
*CONN
*P data_in[24] I
*I *1314:A I *D sky130_fd_sc_hd__clkbuf_1
*CAP
1 data_in[24] 0.00047512
2 *1314:A 0.00047512
3 *1314:A *1316:A 0
4 *1314:A *1355:A 0
*RES
1 data_in[24] *1314:A 12.06 
*END

*D_NET *53 0.000874227
*CONN
*P data_in[25] I
*I *1315:A I *D sky130_fd_sc_hd__clkbuf_1
*CAP
1 data_in[25] 0.000437114
2 *1315:A 0.000437114
3 *1315:A *1355:A 0
4 *1315:A *1356:A 0
5 acc[24] *1315:A 0
6 acc[25] *1315:A 0
*RES
1 data_in[25] *1315:A 11.37 
*END

*D_NET *54 0.000874227
*CONN
*P data_in[26] I
*I *1316:A I *D sky130_fd_sc_hd__buf_1
*CAP
1 data_in[26] 0.000437114
2 *1316:A 0.000437114
3 *1316:A *1318:A 0
4 *1314:A *1316:A 0
*RES
1 data_in[26] *1316:A 11.37 
*END

*D_NET *55 0.000875857
*CONN
*P data_in[27] I
*I *1318:A I *D sky130_fd_sc_hd__buf_1
*CAP
1 data_in[27] 0.000435162
2 *1318:A 0.000435162
3 *1318:A *1357:A 5.53249e-06
4 acc[26] *1318:A 0
5 *1316:A *1318:A 0
*RES
1 data_in[27] *1318:A 11.37 
*END

*D_NET *56 0.000772809
*CONN
*P data_in[28] I
*I *1319:A I *D sky130_fd_sc_hd__clkbuf_1
*CAP
1 data_in[28] 0.000271611
2 *1319:A 0.000271611
3 *1319:A *1320:A 9.91908e-05
4 *1319:A *332:32 3.59997e-05
5 acc[29] *1319:A 0
6 acc[31] *1319:A 9.43968e-05
*RES
1 data_in[28] *1319:A 6.35483 
*END

*D_NET *57 0.000577079
*CONN
*P data_in[29] I
*I *1320:A I *D sky130_fd_sc_hd__clkbuf_1
*CAP
1 data_in[29] 0.000191442
2 *1320:A 0.000191442
3 *1320:A *320:12 0
4 *1320:A *332:32 0
5 acc[29] *1320:A 9.50048e-05
6 *1319:A *1320:A 9.91908e-05
*RES
1 data_in[29] *1320:A 5.92503 
*END

*D_NET *58 0.000516638
*CONN
*P data_in[2] I
*I *1321:A I *D sky130_fd_sc_hd__clkbuf_1
*CAP
1 data_in[2] 0.00016156
2 *1321:A 0.00016156
3 *1321:A *1053:A 0
4 *1321:A *321:12 1.17114e-05
5 acc[2] *1321:A 8.68024e-05
6 *1309:A *1321:A 9.50048e-05
*RES
1 data_in[2] *1321:A 5.41503 
*END

*D_NET *59 0.000762959
*CONN
*P data_in[30] I
*I *1322:A I *D sky130_fd_sc_hd__clkbuf_1
*CAP
1 data_in[30] 0.000234649
2 *1322:A 0.000234649
3 *1322:A *1323:A 9.91908e-05
4 *1322:A *1359:A 8.97963e-05
5 acc[30] *1322:A 0.000104673
6 acc[31] *1322:A 0
*RES
1 data_in[30] *1322:A 5.84483 
*END

*D_NET *60 0.000647399
*CONN
*P data_in[31] I
*I *1323:A I *D sky130_fd_sc_hd__clkbuf_1
*CAP
1 data_in[31] 0.000196257
2 *1323:A 0.000196257
3 *1323:A *1194:A 6.06899e-05
4 *1323:A *1359:A 0
5 acc[31] *1323:A 9.50048e-05
6 *1322:A *1323:A 9.91908e-05
*RES
1 data_in[31] *1323:A 6.43503 
*END

*D_NET *61 0.000803468
*CONN
*P data_in[3] I
*I *1324:A I *D sky130_fd_sc_hd__clkbuf_2
*CAP
1 data_in[3] 0.000250306
2 *1324:A 0.000250306
3 *1324:A *1325:A 9.50048e-05
4 *1324:A *1365:A 6.55328e-05
5 *1324:A *325:10 4.01019e-05
6 *1324:A *362:14 0
7 acc[1] *1324:A 0
8 acc[4] *1324:A 0.000102216
*RES
1 data_in[3] *1324:A 6.7483 
*END

*D_NET *62 0.000512268
*CONN
*P data_in[4] I
*I *1325:A I *D sky130_fd_sc_hd__clkbuf_1
*CAP
1 data_in[4] 0.000147861
2 *1325:A 0.000147861
3 *1325:A *1303:A 2.89932e-05
4 acc[1] *1325:A 9.25475e-05
5 *1324:A *1325:A 9.50048e-05
*RES
1 data_in[4] *1325:A 5.41503 
*END

*D_NET *63 0.000739095
*CONN
*P data_in[5] I
*I *1326:A I *D sky130_fd_sc_hd__clkbuf_1
*CAP
1 data_in[5] 0.000244932
2 *1326:A 0.000244932
3 *1326:A *1109:B 2.42236e-05
4 *1326:A *1365:A 9.50342e-06
5 *1326:A *326:14 1.88904e-05
6 acc[3] *1326:A 0
7 acc[4] *1326:A 9.43968e-05
8 acc[5] *1326:A 0.000102216
*RES
1 data_in[5] *1326:A 5.6481 
*END

*D_NET *64 0.000793571
*CONN
*P data_in[6] I
*I *1327:A I *D sky130_fd_sc_hd__buf_1
*CAP
1 data_in[6] 0.00039252
2 *1327:A 0.00039252
3 *1327:A *1367:A 8.53113e-06
4 acc[6] *1327:A 0
*RES
1 data_in[6] *1327:A 10.35 
*END

*D_NET *65 0.000463158
*CONN
*P data_in[7] I
*I *1329:A I *D sky130_fd_sc_hd__clkbuf_1
*CAP
1 data_in[7] 0.000140676
2 *1329:A 0.000140676
3 *1329:A *1260:A 0
4 acc[3] *1329:A 9.50048e-05
5 acc[7] *1329:A 8.68024e-05
*RES
1 data_in[7] *1329:A 4.90503 
*END

*D_NET *66 0.000789477
*CONN
*P data_in[8] I
*I *1330:A I *D sky130_fd_sc_hd__clkbuf_1
*CAP
1 data_in[8] 0.000394738
2 *1330:A 0.000394738
3 acc[8] *1330:A 0
4 acc[9] *1330:A 0
*RES
1 data_in[8] *1330:A 10.35 
*END

*D_NET *67 0.00109298
*CONN
*P data_in[9] I
*I *1331:A I *D sky130_fd_sc_hd__clkbuf_1
*CAP
1 data_in[9] 0.000399388
2 *1331:A 0.000399388
3 *1331:A *1082:A 0.00012657
4 *1331:A *1342:A 4.43871e-06
5 *1331:A *367:25 0.000163199
6 acc[12] *1331:A 0
7 acc[9] *1331:A 0
*RES
1 data_in[9] *1331:A 11.385 
*END

*D_NET *68 0.000653573
*CONN
*P rst I
*I *1332:A I *D sky130_fd_sc_hd__buf_1
*CAP
1 rst 0.000279284
2 *1332:A 0.000279284
3 *1332:A *332:10 0
4 acc[28] *1332:A 9.50048e-05
*RES
1 rst *1332:A 6.69003 
*END

*D_NET *69 0.00040072
*CONN
*I *1262:RESET_B I *D sky130_fd_sc_hd__dfrtp_1
*I *1053:Y O *D sky130_fd_sc_hd__inv_2
*CAP
1 *1262:RESET_B 3.40143e-05
2 *1053:Y 3.40143e-05
3 *1262:RESET_B *332:32 0.000166346
4 *1306:A *1262:RESET_B 0.000166346
*RES
1 *1053:Y *1262:RESET_B 7.49 
*END

*D_NET *70 0.000852008
*CONN
*I *1263:RESET_B I *D sky130_fd_sc_hd__dfrtp_1
*I *1254:Y O *D sky130_fd_sc_hd__inv_2
*CAP
1 *1263:RESET_B 0.000234888
2 *1254:Y 0.000234888
3 *1263:RESET_B *1303:A 6.95318e-05
4 *1263:RESET_B *368:8 0.000272978
5 acc[1] *1263:RESET_B 3.97211e-05
*RES
1 *1254:Y *1263:RESET_B 10.265 
*END

*D_NET *71 0.000317348
*CONN
*I *1264:RESET_B I *D sky130_fd_sc_hd__dfrtp_1
*I *1255:Y O *D sky130_fd_sc_hd__inv_2
*CAP
1 *1264:RESET_B 0.000158674
2 *1255:Y 0.000158674
*RES
1 *1255:Y *1264:RESET_B 3.7225 
*END

*D_NET *72 0.000327887
*CONN
*I *1265:RESET_B I *D sky130_fd_sc_hd__dfrtp_4
*I *1256:Y O *D sky130_fd_sc_hd__inv_2
*CAP
1 *1265:RESET_B 0.000153389
2 *1256:Y 0.000153389
3 *1265:RESET_B *1099:B1 0
4 *1265:RESET_B *1256:A 2.11084e-05
5 *1265:RESET_B *360:10 0
*RES
1 *1256:Y *1265:RESET_B 7.94 
*END

*D_NET *73 0.000360584
*CONN
*I *1266:RESET_B I *D sky130_fd_sc_hd__dfrtp_1
*I *1257:Y O *D sky130_fd_sc_hd__inv_2
*CAP
1 *1266:RESET_B 0.000108659
2 *1257:Y 0.000108659
3 *1266:RESET_B *1256:A 0
4 *1266:RESET_B *1303:A 0
5 *1266:RESET_B *369:12 0.000143266
*RES
1 *1257:Y *1266:RESET_B 8 
*END

*D_NET *74 0.000273082
*CONN
*I *1267:RESET_B I *D sky130_fd_sc_hd__dfrtp_1
*I *1258:Y O *D sky130_fd_sc_hd__inv_2
*CAP
1 *1267:RESET_B 6.49078e-05
2 *1258:Y 6.49078e-05
3 *1267:RESET_B *1109:A 0.000143266
4 *1267:RESET_B *369:56 0
*RES
1 *1258:Y *1267:RESET_B 7.235 
*END

*D_NET *75 0.000157282
*CONN
*I *1268:RESET_B I *D sky130_fd_sc_hd__dfrtp_1
*I *1259:Y O *D sky130_fd_sc_hd__inv_2
*CAP
1 *1268:RESET_B 5.16549e-05
2 *1259:Y 5.16549e-05
3 *1268:RESET_B *1259:A 0
4 *1268:RESET_B *1369:A 5.39718e-05
*RES
1 *1259:Y *1268:RESET_B 6.725 
*END

*D_NET *76 0.000391925
*CONN
*I *1269:RESET_B I *D sky130_fd_sc_hd__dfrtp_1
*I *1260:Y O *D sky130_fd_sc_hd__inv_2
*CAP
1 *1269:RESET_B 7.94175e-05
2 *1260:Y 7.94175e-05
3 *1269:RESET_B *1368:A 0.000112349
4 *1269:RESET_B *365:12 0.000120741
*RES
1 *1260:Y *1269:RESET_B 3.7225 
*END

*D_NET *77 0.000306724
*CONN
*I *1270:RESET_B I *D sky130_fd_sc_hd__dfrtp_1
*I *1261:Y O *D sky130_fd_sc_hd__inv_2
*CAP
1 *1270:RESET_B 9.40369e-05
2 *1261:Y 9.40369e-05
3 *1270:RESET_B *1270:CLK 0.000118651
*RES
1 *1261:Y *1270:RESET_B 3.3775 
*END

*D_NET *78 0.00127051
*CONN
*I *1271:RESET_B I *D sky130_fd_sc_hd__dfrtp_1
*I *1030:Y O *D sky130_fd_sc_hd__inv_2
*CAP
1 *1271:RESET_B 0.000610702
2 *1030:Y 0.000610702
3 *1271:RESET_B *1081:B 0
4 *1271:RESET_B *1268:CLK 5.062e-06
5 *1271:RESET_B *303:55 4.40446e-05
*RES
1 *1030:Y *1271:RESET_B 8.7325 
*END

*D_NET *79 0.000428441
*CONN
*I *1272:RESET_B I *D sky130_fd_sc_hd__dfrtp_1
*I *1031:Y O *D sky130_fd_sc_hd__inv_2
*CAP
1 *1272:RESET_B 6.10846e-05
2 *1031:Y 6.10846e-05
3 *1272:RESET_B *302:22 0.000232699
4 *1272:RESET_B *334:8 7.35729e-05
*RES
1 *1031:Y *1272:RESET_B 3.7225 
*END

*D_NET *80 0.000329242
*CONN
*I *1273:RESET_B I *D sky130_fd_sc_hd__dfrtp_1
*I *1032:Y O *D sky130_fd_sc_hd__inv_2
*CAP
1 *1273:RESET_B 0.000151604
2 *1032:Y 0.000151604
3 *1273:RESET_B *1273:D 0
4 *1273:RESET_B *368:90 2.11084e-05
5 *1273:RESET_B *368:100 4.9253e-06
*RES
1 *1032:Y *1273:RESET_B 7.94 
*END

*D_NET *81 0.000234101
*CONN
*I *1274:RESET_B I *D sky130_fd_sc_hd__dfrtp_1
*I *1033:Y O *D sky130_fd_sc_hd__inv_2
*CAP
1 *1274:RESET_B 9.58219e-05
2 *1033:Y 9.58219e-05
3 *1274:RESET_B *336:10 4.24575e-05
4 *1274:RESET_B *368:84 0
*RES
1 *1033:Y *1274:RESET_B 7.1225 
*END

*D_NET *82 0.000426675
*CONN
*I *1275:RESET_B I *D sky130_fd_sc_hd__dfrtp_1
*I *1034:Y O *D sky130_fd_sc_hd__inv_2
*CAP
1 *1275:RESET_B 0.000117719
2 *1034:Y 0.000117719
3 *1275:RESET_B *1034:A 7.23602e-05
4 *1275:RESET_B *1275:D 4.82863e-05
5 *1275:RESET_B *186:12 2.60986e-05
6 *1275:RESET_B *368:49 4.44927e-05
*RES
1 *1034:Y *1275:RESET_B 7.94 
*END

*D_NET *83 0.000997427
*CONN
*I *1276:RESET_B I *D sky130_fd_sc_hd__dfrtp_1
*I *1035:Y O *D sky130_fd_sc_hd__inv_2
*CAP
1 *1276:RESET_B 0.000334847
2 *1035:Y 0.000334847
3 *1276:RESET_B *1035:A 7.44006e-05
4 *1276:RESET_B *1272:CLK 9.13949e-06
5 *1276:RESET_B *302:22 4.4541e-05
6 *1276:RESET_B *302:24 0.000107103
7 *1276:RESET_B *338:8 9.25496e-05
8 *1276:RESET_B *338:21 0
*RES
1 *1035:Y *1276:RESET_B 11.7425 
*END

*D_NET *84 0.000232677
*CONN
*I *1277:RESET_B I *D sky130_fd_sc_hd__dfrtp_1
*I *1036:Y O *D sky130_fd_sc_hd__inv_2
*CAP
1 *1277:RESET_B 0.000116339
2 *1036:Y 0.000116339
3 *1277:RESET_B *1036:A 0
*RES
1 *1036:Y *1277:RESET_B 7.175 
*END

*D_NET *85 0.00029845
*CONN
*I *1278:RESET_B I *D sky130_fd_sc_hd__dfrtp_1
*I *1037:Y O *D sky130_fd_sc_hd__inv_2
*CAP
1 *1278:RESET_B 8.88546e-05
2 *1037:Y 8.88546e-05
3 *1278:RESET_B *341:10 0.000120741
*RES
1 *1037:Y *1278:RESET_B 3.3775 
*END

*D_NET *86 0.000263187
*CONN
*I *1279:RESET_B I *D sky130_fd_sc_hd__dfrtp_1
*I *1038:Y O *D sky130_fd_sc_hd__inv_2
*CAP
1 *1279:RESET_B 0.000131594
2 *1038:Y 0.000131594
3 *1279:RESET_B *302:52 0
*RES
1 *1038:Y *1279:RESET_B 7.4675 
*END

*D_NET *87 0.000146772
*CONN
*I *1280:RESET_B I *D sky130_fd_sc_hd__dfrtp_1
*I *1039:Y O *D sky130_fd_sc_hd__inv_2
*CAP
1 *1280:RESET_B 7.33861e-05
2 *1039:Y 7.33861e-05
*RES
1 *1039:Y *1280:RESET_B 6.725 
*END

*D_NET *88 0.000185147
*CONN
*I *1281:RESET_B I *D sky130_fd_sc_hd__dfrtp_1
*I *1040:Y O *D sky130_fd_sc_hd__inv_2
*CAP
1 *1281:RESET_B 7.32429e-05
2 *1040:Y 7.32429e-05
3 *1281:RESET_B *1220:A 0
4 *1281:RESET_B *1281:CLK 3.86607e-05
*RES
1 *1040:Y *1281:RESET_B 6.98 
*END

*D_NET *89 0.000330313
*CONN
*I *1282:RESET_B I *D sky130_fd_sc_hd__dfrtp_1
*I *1041:Y O *D sky130_fd_sc_hd__inv_2
*CAP
1 *1282:RESET_B 4.54736e-05
2 *1041:Y 4.54736e-05
3 *1282:RESET_B *218:14 0.00019735
4 *1282:RESET_B *346:10 4.20162e-05
*RES
1 *1041:Y *1282:RESET_B 3.3775 
*END

*D_NET *90 0.000326098
*CONN
*I *1283:RESET_B I *D sky130_fd_sc_hd__dfrtp_1
*I *1042:Y O *D sky130_fd_sc_hd__inv_2
*CAP
1 *1283:RESET_B 0.000163049
2 *1042:Y 0.000163049
3 *1283:RESET_B *1283:D 0
4 *1283:RESET_B *304:72 0
*RES
1 *1042:Y *1283:RESET_B 7.94 
*END

*D_NET *91 0.000284851
*CONN
*I *1284:RESET_B I *D sky130_fd_sc_hd__dfrtp_1
*I *1043:Y O *D sky130_fd_sc_hd__inv_2
*CAP
1 *1284:RESET_B 0.000119672
2 *1043:Y 0.000119672
3 *1284:RESET_B *304:64 4.5506e-05
4 *1284:RESET_B *304:72 0
*RES
1 *1043:Y *1284:RESET_B 7.4675 
*END

*D_NET *92 0.000315467
*CONN
*I *1285:RESET_B I *D sky130_fd_sc_hd__dfrtp_1
*I *1044:Y O *D sky130_fd_sc_hd__inv_2
*CAP
1 *1285:RESET_B 4.6729e-05
2 *1044:Y 4.6729e-05
3 *1285:RESET_B *1044:A 0
4 *1285:RESET_B *1164:A 0.000143266
5 *1285:RESET_B *1164:B 7.87426e-05
*RES
1 *1044:Y *1285:RESET_B 7.235 
*END

*D_NET *93 0.000742426
*CONN
*I *1286:RESET_B I *D sky130_fd_sc_hd__dfrtp_1
*I *1045:Y O *D sky130_fd_sc_hd__inv_2
*CAP
1 *1286:RESET_B 0.000153074
2 *1045:Y 0.000153074
3 *1286:RESET_B *1297:A 0.00015737
4 *1286:RESET_B *305:12 9.30977e-05
5 *1286:RESET_B *370:120 0.000158297
6 *1286:RESET_B *370:126 2.75145e-05
*RES
1 *1045:Y *1286:RESET_B 9.3725 
*END

*D_NET *94 0.000234115
*CONN
*I *1287:RESET_B I *D sky130_fd_sc_hd__dfrtp_1
*I *1046:Y O *D sky130_fd_sc_hd__inv_2
*CAP
1 *1287:RESET_B 0.000117058
2 *1046:Y 0.000117058
3 *1287:RESET_B *1288:CLK 0
4 *1287:RESET_B *222:14 0
*RES
1 *1046:Y *1287:RESET_B 7.175 
*END

*D_NET *95 0.000291594
*CONN
*I *1288:RESET_B I *D sky130_fd_sc_hd__dfrtp_1
*I *1047:Y O *D sky130_fd_sc_hd__inv_2
*CAP
1 *1288:RESET_B 8.42268e-05
2 *1047:Y 8.42268e-05
3 *1288:RESET_B *1355:A 0
4 *1288:RESET_B *315:8 9.71067e-05
5 *1288:RESET_B *370:26 2.11084e-05
6 *1288:RESET_B *370:30 4.9253e-06
*RES
1 *1047:Y *1288:RESET_B 7.175 
*END

*D_NET *96 0.000298311
*CONN
*I *1289:RESET_B I *D sky130_fd_sc_hd__dfrtp_1
*I *1048:Y O *D sky130_fd_sc_hd__inv_2
*CAP
1 *1289:RESET_B 8.76782e-05
2 *1048:Y 8.76782e-05
3 *1289:RESET_B *1289:CLK 9.54399e-05
4 *1289:RESET_B *370:12 2.75145e-05
*RES
1 *1048:Y *1289:RESET_B 7.175 
*END

*D_NET *97 0.000226472
*CONN
*I *1290:RESET_B I *D sky130_fd_sc_hd__dfrtp_1
*I *1049:Y O *D sky130_fd_sc_hd__inv_2
*CAP
1 *1290:RESET_B 0.000113236
2 *1049:Y 0.000113236
3 *1290:RESET_B *1290:D 0
*RES
1 *1049:Y *1290:RESET_B 7.49 
*END

*D_NET *98 0.000311842
*CONN
*I *1291:RESET_B I *D sky130_fd_sc_hd__dfrtp_1
*I *1050:Y O *D sky130_fd_sc_hd__inv_2
*CAP
1 *1291:RESET_B 0.000111976
2 *1050:Y 0.000111976
3 *1291:RESET_B *1050:A 2.16917e-05
4 *1291:RESET_B *371:42 6.6199e-05
*RES
1 *1050:Y *1291:RESET_B 3.3775 
*END

*D_NET *99 0.000329275
*CONN
*I *1292:RESET_B I *D sky130_fd_sc_hd__dfrtp_1
*I *1051:Y O *D sky130_fd_sc_hd__inv_2
*CAP
1 *1292:RESET_B 6.67232e-05
2 *1051:Y 6.67232e-05
3 *1292:RESET_B *231:6 4.82919e-05
4 *1292:RESET_B *332:32 5.20968e-05
5 *1292:RESET_B *371:8 9.54399e-05
*RES
1 *1051:Y *1292:RESET_B 7.175 
*END

*D_NET *100 0.000197412
*CONN
*I *1293:RESET_B I *D sky130_fd_sc_hd__dfrtp_1
*I *1052:Y O *D sky130_fd_sc_hd__inv_2
*CAP
1 *1293:RESET_B 3.06762e-05
2 *1052:Y 3.06762e-05
3 *1293:RESET_B *332:32 3.89528e-05
4 *1293:RESET_B *371:10 9.71067e-05
*RES
1 *1052:Y *1293:RESET_B 6.725 
*END

*D_NET *101 0.00230349
*CONN
*I *1189:A1 I *D sky130_fd_sc_hd__a31o_1
*I *1191:C1 I *D sky130_fd_sc_hd__o211a_1
*I *1184:A I *D sky130_fd_sc_hd__nand2_1
*I *1056:A I *D sky130_fd_sc_hd__nand2_1
*I *1054:Y O *D sky130_fd_sc_hd__nand2_1
*CAP
1 *1189:A1 6.42378e-05
2 *1191:C1 4.44923e-05
3 *1184:A 0.000125168
4 *1056:A 3.36922e-05
5 *1054:Y 0
6 *101:40 0.00036226
7 *101:8 0.000216332
8 *101:4 0.000311002
9 *1056:A *1185:B 2.59981e-05
10 *1056:A *228:21 0
11 *1056:A *355:25 4.18603e-06
12 *1184:A *1184:B 5.4155e-06
13 *1184:A *1185:B 3.4222e-05
14 *1184:A *1193:A1 5.4155e-06
15 *1184:A *226:17 5.30673e-05
16 *1184:A *305:82 0
17 *1189:A1 *1189:A2 4.08514e-05
18 *1191:C1 *1189:A2 1.91597e-05
19 *1191:C1 *1190:B 4.82863e-05
20 *101:8 *305:82 8.65961e-05
21 *101:40 *1189:A3 4.31106e-05
22 *101:40 *1192:A1 0
23 *101:40 *1359:A 2.76781e-05
24 *101:40 *228:21 0.000245893
25 *101:40 *305:82 0.000306698
26 *101:40 *305:93 0.000199727
*RES
1 *1054:Y *101:4 1.6 
2 *101:4 *101:8 2.795 
3 *101:8 *1056:A 4.215 
4 *101:8 *1184:A 5.985 
5 *101:4 *101:40 9.85 
6 *101:40 *1191:C1 2.395 
7 *101:40 *1189:A1 2.74 
*END

*D_NET *102 0.000116037
*CONN
*I *1056:B I *D sky130_fd_sc_hd__nand2_1
*I *1055:X O *D sky130_fd_sc_hd__or2_1
*CAP
1 *1056:B 9.73191e-06
2 *1055:X 9.73191e-06
3 *1056:B *1055:A 4.82863e-05
4 *1056:B *305:82 4.82863e-05
*RES
1 *1055:X *1056:B 3.65 
*END

*D_NET *103 0.00292067
*CONN
*I *1179:C1 I *D sky130_fd_sc_hd__a311o_1
*I *1180:A I *D sky130_fd_sc_hd__xnor2_1
*I *1056:Y O *D sky130_fd_sc_hd__nand2_1
*CAP
1 *1179:C1 7.0092e-05
2 *1180:A 9.10243e-05
3 *1056:Y 0.000627179
4 *103:10 0.000788295
5 *1179:C1 *1179:A2 4.54917e-05
6 *1179:C1 *1180:B 2.32997e-05
7 *1179:C1 *117:12 9.50342e-06
8 *1179:C1 *118:47 4.43871e-06
9 *1180:A *1179:A2 4.23502e-06
10 *1180:A *1180:B 0.000244284
11 *1180:A *301:30 0
12 *1180:A *305:45 0.000210839
13 *103:10 *305:6 0.000250806
14 *103:10 *305:8 5.83121e-06
15 *103:10 *305:82 0.000545352
*RES
1 *1056:Y *103:10 12.5625 
2 *103:10 *1180:A 7.0875 
3 *103:10 *1179:C1 4.8525 
*END

*D_NET *104 0.00180244
*CONN
*I *1065:A I *D sky130_fd_sc_hd__or2_1
*I *1200:B1_N I *D sky130_fd_sc_hd__a21bo_1
*I *1059:A I *D sky130_fd_sc_hd__nand2_1
*I *1057:Y O *D sky130_fd_sc_hd__nand2_1
*CAP
1 *1065:A 0.000247287
2 *1200:B1_N 0
3 *1059:A 7.03133e-05
4 *1057:Y 0.000105817
5 *104:21 0.000274437
6 *104:8 0.00020328
7 *1059:A *1058:A 2.97004e-06
8 *1059:A *1059:B 6.5525e-05
9 *1059:A *1200:A2 0
10 *1059:A *352:18 3.18219e-05
11 *1065:A *1057:A 0.000123225
12 *1065:A *1058:B 4.82919e-05
13 *1065:A *1200:A1 1.34503e-05
14 *1065:A *105:6 6.65267e-05
15 *104:8 *1057:A 0.0001081
16 *104:8 *1057:B 0.000122325
17 *104:8 *1058:B 0.000123225
18 *104:8 *1200:A1 0.00015896
19 *104:21 *1058:A 1.7396e-05
20 *104:21 *1356:A 1.22762e-05
21 *104:21 *352:18 7.21296e-06
*RES
1 *1057:Y *104:8 6.81 
2 *104:8 *1059:A 5.235 
3 *104:8 *104:21 2.615 
4 *104:21 *1200:B1_N 1.6 
5 *104:21 *1065:A 5.965 
*END

*D_NET *105 0.00108205
*CONN
*I *1059:B I *D sky130_fd_sc_hd__nand2_1
*I *1200:A1 I *D sky130_fd_sc_hd__a21bo_1
*I *1058:X O *D sky130_fd_sc_hd__or2_1
*CAP
1 *1059:B 6.47223e-05
2 *1200:A1 0.000181722
3 *1058:X 7.90269e-05
4 *105:6 0.000325471
5 *1059:B *370:120 0
6 *1200:A1 *1058:B 2.16917e-05
7 *1200:A1 *1200:A2 5.33085e-05
8 *1200:A1 *352:18 5.16418e-05
9 *1059:A *1059:B 6.5525e-05
10 *1065:A *1200:A1 1.34503e-05
11 *1065:A *105:6 6.65267e-05
12 *104:8 *1200:A1 0.00015896
*RES
1 *1058:X *105:6 2.74 
2 *105:6 *1200:A1 8.39 
3 *105:6 *1059:B 6.98 
*END

*D_NET *106 0.00110713
*CONN
*I *1064:A I *D sky130_fd_sc_hd__or2_1
*I *1199:A I *D sky130_fd_sc_hd__xnor2_1
*I *1059:Y O *D sky130_fd_sc_hd__nand2_1
*CAP
1 *1064:A 0.000337444
2 *1199:A 0.00016849
3 *1059:Y 0
4 *106:4 0.000505934
5 *1064:A *1064:B 9.52646e-05
6 *1199:A *1200:A2 0
7 *1199:A *240:10 0
8 *1199:A *370:120 0
*RES
1 *1059:Y *106:4 1.6 
2 *106:4 *1199:A 8.195 
3 *106:4 *1064:A 6.895 
*END

*D_NET *107 0.0015836
*CONN
*I *1066:A I *D sky130_fd_sc_hd__nor2_1
*I *1204:A I *D sky130_fd_sc_hd__xor2_1
*I *1070:A1 I *D sky130_fd_sc_hd__o21a_1
*I *1060:Y O *D sky130_fd_sc_hd__xnor2_1
*CAP
1 *1066:A 0
2 *1204:A 0
3 *1070:A1 0.000240063
4 *1060:Y 9.27459e-05
5 *107:16 0.000386509
6 *107:10 0.000239192
7 *1070:A1 *1066:B 1.34503e-05
8 *1070:A1 *1069:A 0.000142798
9 *1070:A1 *1203:A 0
10 *1070:A1 *1203:C 0
11 *1070:A1 *1204:B 5.05521e-05
12 *1070:A1 *111:12 0
13 *107:10 *1060:A 3.21634e-05
14 *107:10 *1068:A2 0
15 *107:10 *1289:D 0.000118513
16 *107:10 *353:32 4.43871e-06
17 *107:16 *1066:B 9.47051e-05
18 *107:16 *1069:A 2.75538e-05
19 *107:16 *1289:D 0.000140912
*RES
1 *1060:Y *107:10 5.43 
2 *107:10 *107:16 5.54 
3 *107:16 *1070:A1 10.67 
4 *107:16 *1204:A 1.6 
5 *107:10 *1066:A 3.6 
*END

*D_NET *108 0.00100389
*CONN
*I *1063:A I *D sky130_fd_sc_hd__nand2_1
*I *1203:A I *D sky130_fd_sc_hd__and3_1
*I *1061:Y O *D sky130_fd_sc_hd__nand2_1
*CAP
1 *1063:A 0.00013967
2 *1203:A 0.000211648
3 *1061:Y 7.2101e-05
4 *108:8 0.00042342
5 *1063:A *370:24 0.000142661
6 *1203:A *1063:B 0
7 *1203:A *1068:C1 0
8 *1203:A *1069:A 0
9 *1203:A *112:6 1.4389e-05
10 *1203:A *314:16 0
11 *108:8 *1063:B 0
12 *108:8 *1068:C1 0
13 *1070:A1 *1203:A 0
*RES
1 *1061:Y *108:8 4.725 
2 *108:8 *1203:A 6.96 
3 *108:8 *1063:A 6.135 
*END

*D_NET *109 0.000305252
*CONN
*I *1063:B I *D sky130_fd_sc_hd__nand2_1
*I *1062:X O *D sky130_fd_sc_hd__or2_1
*CAP
1 *1063:B 0.000108215
2 *1062:X 0.000108215
3 *1063:B *110:12 4.05358e-05
4 *1063:B *314:16 0
5 *1063:B *353:8 4.82863e-05
6 *1203:A *1063:B 0
7 *108:8 *1063:B 0
*RES
1 *1062:X *1063:B 9.03 
*END

*D_NET *110 0.00317154
*CONN
*I *1065:B I *D sky130_fd_sc_hd__or2_1
*I *1064:B I *D sky130_fd_sc_hd__or2_1
*I *1202:A I *D sky130_fd_sc_hd__xnor2_1
*I *1063:Y O *D sky130_fd_sc_hd__nand2_1
*CAP
1 *1065:B 0
2 *1064:B 0.000113543
3 *1202:A 0.000510247
4 *1063:Y 0.000203597
5 *110:27 0.000205061
6 *110:12 0.000805361
7 *1064:B *1355:A 0.000120186
8 *1064:B *314:16 0.000118527
9 *1202:A *1288:D 9.99135e-05
10 *110:12 *314:16 0
11 *110:12 *353:8 5.05437e-05
12 *110:27 *1355:A 0.000399628
13 *110:27 *314:16 0.000409132
14 *1063:B *110:12 4.05358e-05
15 *1064:A *1064:B 9.52646e-05
*RES
1 *1063:Y *110:12 9.065 
2 *110:12 *1202:A 9.415 
3 *110:12 *110:27 6.695 
4 *110:27 *1064:B 6.465 
5 *110:27 *1065:B 3.6 
*END

*D_NET *111 0.000836008
*CONN
*I *1070:A2 I *D sky130_fd_sc_hd__o21a_1
*I *1201:B1 I *D sky130_fd_sc_hd__a21o_1
*I *1064:X O *D sky130_fd_sc_hd__or2_1
*CAP
1 *1070:A2 0.000153595
2 *1201:B1 0
3 *1064:X 0.000180624
4 *111:12 0.000334219
5 *1070:A2 *116:8 4.60584e-05
6 *1070:A2 *116:18 4.82919e-05
7 *1070:A2 *117:12 3.45679e-05
8 *111:12 *1203:C 3.86529e-05
9 *111:12 *116:18 0
10 *111:12 *314:16 0
11 *1070:A1 *111:12 0
*RES
1 *1064:X *111:12 8.03 
2 *111:12 *1201:B1 1.6 
3 *111:12 *1070:A2 4.48 
*END

*D_NET *112 0.00162135
*CONN
*I *1066:B I *D sky130_fd_sc_hd__nor2_1
*I *1203:B I *D sky130_fd_sc_hd__and3_1
*I *1065:X O *D sky130_fd_sc_hd__or2_1
*CAP
1 *1066:B 0.000329535
2 *1203:B 0
3 *1065:X 0.000260097
4 *112:6 0.000589633
5 *1066:B *1068:A2 4.18603e-06
6 *1066:B *1069:A 7.23602e-05
7 *1066:B *1203:C 5.48904e-07
8 *1066:B *1204:B 0.000241483
9 *112:6 *1203:C 9.60582e-07
10 *1070:A1 *1066:B 1.34503e-05
11 *1203:A *112:6 1.4389e-05
12 *107:16 *1066:B 9.47051e-05
*RES
1 *1065:X *112:6 4.465 
2 *112:6 *1203:B 1.6 
3 *112:6 *1066:B 10.79 
*END

*D_NET *113 0.000487188
*CONN
*I *1068:B1 I *D sky130_fd_sc_hd__a211o_1
*I *1066:Y O *D sky130_fd_sc_hd__nor2_1
*CAP
1 *1068:B1 0.000153534
2 *1066:Y 0.000153534
3 *1068:B1 *370:24 0.00018012
*RES
1 *1066:Y *1068:B1 6.08 
*END

*D_NET *114 0.000202052
*CONN
*I *1068:C1 I *D sky130_fd_sc_hd__a211o_1
*I *1067:X O *D sky130_fd_sc_hd__o211a_1
*CAP
1 *1068:C1 7.64663e-05
2 *1067:X 7.64663e-05
3 *1068:C1 *1068:A1 4.91189e-05
4 *1203:A *1068:C1 0
5 *108:8 *1068:C1 0
*RES
1 *1067:X *1068:C1 8.58 
*END

*D_NET *115 0.000788274
*CONN
*I *1069:A I *D sky130_fd_sc_hd__inv_2
*I *1068:X O *D sky130_fd_sc_hd__a211o_1
*CAP
1 *1069:A 0.000272781
2 *1068:X 0.000272781
3 *1066:B *1069:A 7.23602e-05
4 *1070:A1 *1069:A 0.000142798
5 *1203:A *1069:A 0
6 *107:16 *1069:A 2.75538e-05
*RES
1 *1068:X *1069:A 12.915 
*END

*D_NET *116 0.00156704
*CONN
*I *1070:B1 I *D sky130_fd_sc_hd__o21a_1
*I *1179:A1 I *D sky130_fd_sc_hd__a311o_1
*I *1178:A1 I *D sky130_fd_sc_hd__a31oi_1
*I *1069:Y O *D sky130_fd_sc_hd__inv_2
*CAP
1 *1070:B1 0
2 *1179:A1 1.22663e-05
3 *1178:A1 5.66266e-05
4 *1069:Y 0.000136096
5 *116:18 0.000315463
6 *116:8 0.000382666
7 *1178:A1 *1178:B1 4.66826e-05
8 *1178:A1 *1179:A2 3.23663e-05
9 *1178:A1 *1179:A3 0.000236355
10 *1178:A1 *118:28 4.82863e-05
11 *1179:A1 *1178:B1 5.4155e-06
12 *1179:A1 *1179:A3 1.85674e-05
13 *1179:A1 *118:19 0
14 *116:18 *1179:A2 1.61831e-05
15 *116:18 *1179:A3 4.82863e-05
16 *116:18 *1201:A2 0
17 *116:18 *117:12 0.000117428
18 *1070:A2 *116:8 4.60584e-05
19 *1070:A2 *116:18 4.82919e-05
20 *111:12 *116:18 0
*RES
1 *1069:Y *116:8 3.79 
2 *116:8 *116:18 8.83 
3 *116:18 *1178:A1 3.775 
4 *116:18 *1179:A1 1.96 
5 *116:8 *1070:B1 1.6 
*END

*D_NET *117 0.000926517
*CONN
*I *1179:B1 I *D sky130_fd_sc_hd__a311o_1
*I *1178:B1 I *D sky130_fd_sc_hd__a31oi_1
*I *1070:X O *D sky130_fd_sc_hd__o21a_1
*CAP
1 *1179:B1 0
2 *1178:B1 4.87306e-05
3 *1070:X 0.000199816
4 *117:12 0.000248547
5 *1178:B1 *1179:A2 8.80323e-05
6 *1178:B1 *118:19 4.00541e-06
7 *117:12 *1201:A1 4.7043e-05
8 *117:12 *118:47 7.67465e-05
9 *1070:A2 *117:12 3.45679e-05
10 *1178:A1 *1178:B1 4.66826e-05
11 *1179:A1 *1178:B1 5.4155e-06
12 *1179:C1 *117:12 9.50342e-06
13 *116:18 *117:12 0.000117428
*RES
1 *1070:X *117:12 10.07 
2 *117:12 *1178:B1 3.115 
3 *117:12 *1179:B1 1.6 
*END

*D_NET *118 0.00340425
*CONN
*I *1201:A1 I *D sky130_fd_sc_hd__a21o_1
*I *1198:A I *D sky130_fd_sc_hd__nand2_1
*I *1179:A2 I *D sky130_fd_sc_hd__a311o_1
*I *1178:A2 I *D sky130_fd_sc_hd__a31oi_1
*I *1073:A I *D sky130_fd_sc_hd__nand2_1
*I *1071:Y O *D sky130_fd_sc_hd__nand2_1
*CAP
1 *1201:A1 4.52038e-05
2 *1198:A 0.000270022
3 *1179:A2 0.000216473
4 *1178:A2 0
5 *1073:A 2.08101e-05
6 *1071:Y 0.000273082
7 *118:47 0.000407736
8 *118:28 0.000346031
9 *118:19 0.000128583
10 *118:8 0.000385427
11 *1073:A *314:16 0
12 *1179:A2 *1178:A3 4.18603e-06
13 *1179:A2 *1180:B 9.50342e-06
14 *1179:A2 *351:27 0
15 *1198:A *224:20 0.000461941
16 *1201:A1 *1201:A2 4.4073e-05
17 *118:8 *1071:B 0.000237243
18 *118:8 *314:16 4.21973e-05
19 *118:19 *1179:A3 4.82919e-05
20 *118:28 *1179:A3 1.60203e-05
21 *118:47 *1178:A3 1.52945e-05
22 *118:47 *1201:A2 1.0183e-05
23 *118:47 *224:22 5.51245e-05
24 *1178:A1 *1179:A2 3.23663e-05
25 *1178:A1 *118:28 4.82863e-05
26 *1178:B1 *1179:A2 8.80323e-05
27 *1178:B1 *118:19 4.00541e-06
28 *1179:A1 *118:19 0
29 *1179:C1 *1179:A2 4.54917e-05
30 *1179:C1 *118:47 4.43871e-06
31 *1180:A *1179:A2 4.23502e-06
32 *116:18 *1179:A2 1.61831e-05
33 *117:12 *1201:A1 4.7043e-05
34 *117:12 *118:47 7.67465e-05
*RES
1 *1071:Y *118:8 5.425 
2 *118:8 *1073:A 1.96 
3 *118:8 *118:19 1.845 
4 *118:19 *1178:A2 1.6 
5 *118:19 *118:28 2.795 
6 *118:28 *1179:A2 6.96 
7 *118:28 *118:47 2.4 
8 *118:47 *1198:A 8.88 
9 *118:47 *1201:A1 4.98 
*END

*D_NET *119 9.6245e-05
*CONN
*I *1073:B I *D sky130_fd_sc_hd__nand2_1
*I *1072:X O *D sky130_fd_sc_hd__or2_1
*CAP
1 *1073:B 8.95747e-06
2 *1072:X 8.95747e-06
3 *1073:B *120:10 3.00381e-05
4 *1073:B *314:16 4.82919e-05
*RES
1 *1072:X *1073:B 3.65 
*END

*D_NET *120 0.00218294
*CONN
*I *1177:B1 I *D sky130_fd_sc_hd__a21o_1
*I *1196:A I *D sky130_fd_sc_hd__and3_1
*I *1176:B1 I *D sky130_fd_sc_hd__a21oi_1
*I *1073:Y O *D sky130_fd_sc_hd__nand2_1
*CAP
1 *1177:B1 1.73867e-05
2 *1196:A 0.000139876
3 *1176:B1 0
4 *1073:Y 0.000420205
5 *120:19 0.000268619
6 *120:10 0.000531562
7 *1177:B1 *1176:A2 4.00541e-06
8 *1177:B1 *1177:A2 4.00541e-06
9 *1196:A *1176:A1 4.47209e-05
10 *1196:A *1176:A2 7.60965e-05
11 *1196:A *1177:A2 0
12 *1196:A *218:14 2.49909e-05
13 *1196:A *218:21 0.000111285
14 *1196:A *222:14 9.16333e-06
15 *1196:A *222:21 9.32784e-05
16 *120:10 *1071:A 2.76781e-05
17 *120:10 *1071:B 3.23663e-05
18 *120:10 *1072:B 0.000122325
19 *120:10 *314:16 2.59926e-05
20 *120:19 *1071:B 0
21 *120:19 *1176:A1 6.6564e-05
22 *120:19 *1176:A2 8.28205e-05
23 *120:19 *224:14 4.99619e-05
24 *1073:B *120:10 3.00381e-05
*RES
1 *1073:Y *120:10 7.69 
2 *120:10 *1176:B1 1.6 
3 *120:10 *120:19 2.79 
4 *120:19 *1196:A 5.425 
5 *120:19 *1177:B1 1.96 
*END

*D_NET *121 0.000737553
*CONN
*I *1086:B1 I *D sky130_fd_sc_hd__o21a_1
*I *1077:A I *D sky130_fd_sc_hd__nand2_1
*I *1074:Y O *D sky130_fd_sc_hd__nand2_1
*CAP
1 *1086:B1 4.91267e-05
2 *1077:A 0.000101335
3 *1074:Y 3.4178e-05
4 *121:6 0.00018464
5 *1077:A *1077:B 0
6 *1077:A *125:14 0
7 *1077:A *335:31 1.52184e-05
8 *1086:B1 *1074:B 8.49205e-05
9 *1086:B1 *1076:A 2.62068e-05
10 *1086:B1 *335:16 0
11 *121:6 *1074:B 0.000163199
12 *121:6 *1086:A1 5.05437e-05
13 *121:6 *1086:A2 2.8185e-05
*RES
1 *1074:Y *121:6 3.085 
2 *121:6 *1077:A 7.235 
3 *121:6 *1086:B1 3.325 
*END

*D_NET *122 0.000477996
*CONN
*I *1086:A1 I *D sky130_fd_sc_hd__o21a_1
*I *1075:Y O *D sky130_fd_sc_hd__nor2_1
*CAP
1 *1086:A1 0.000110924
2 *1075:Y 0.000110924
3 *1086:A1 *1074:A 1.94892e-05
4 *1086:A1 *1075:A 3.00381e-05
5 *1086:A1 *1076:A 2.05056e-05
6 *1086:A1 *1086:A2 4.99619e-05
7 *1086:A1 *328:10 2.46089e-05
8 *1086:A1 *335:31 6.10014e-05
9 *121:6 *1086:A1 5.05437e-05
*RES
1 *1075:Y *1086:A1 9.825 
*END

*D_NET *123 0.000535093
*CONN
*I *1077:B I *D sky130_fd_sc_hd__nand2_1
*I *1076:X O *D sky130_fd_sc_hd__or2_1
*CAP
1 *1077:B 0.000136139
2 *1076:X 0.000136139
3 *1077:B *1120:B1 0.000137571
4 *1077:B *257:6 8.65905e-05
5 *1077:B *335:31 3.86529e-05
6 *1077:A *1077:B 0
*RES
1 *1076:X *1077:B 10.14 
*END

*D_NET *124 0.00245499
*CONN
*I *1235:A I *D sky130_fd_sc_hd__xnor2_1
*I *1084:A I *D sky130_fd_sc_hd__or3_1
*I *1085:A I *D sky130_fd_sc_hd__or3_1
*I *1077:Y O *D sky130_fd_sc_hd__nand2_1
*CAP
1 *1235:A 0.0005863
2 *1084:A 7.53596e-05
3 *1085:A 0
4 *1077:Y 0.000137441
5 *124:12 7.53596e-05
6 *124:10 0.000723741
7 *1084:A *1085:C 0.000234685
8 *1084:A *1120:C1 2.75145e-05
9 *1084:A *131:10 4.92062e-05
10 *1235:A *1120:B1 1.82563e-05
11 *1235:A *1120:C1 5.20968e-05
12 *1235:A *1273:D 4.10576e-05
13 *1235:A *368:90 0.000191521
14 *1235:A *368:100 0.000163204
15 *124:10 *1120:B1 4.92096e-05
16 *124:10 *127:23 0
17 *124:10 *257:6 3.00381e-05
*RES
1 *1077:Y *124:10 5.685 
2 *124:10 *124:12 2 
3 *124:12 *1085:A 1.6 
4 *124:12 *1084:A 3.775 
5 *124:10 *1235:A 13.29 
*END

*D_NET *125 0.00117545
*CONN
*I *1086:A2 I *D sky130_fd_sc_hd__o21a_1
*I *1080:A I *D sky130_fd_sc_hd__nand2_1
*I *1234:B1_N I *D sky130_fd_sc_hd__a21bo_1
*I *1078:Y O *D sky130_fd_sc_hd__nand2_1
*CAP
1 *1086:A2 5.6085e-05
2 *1080:A 0
3 *1234:B1_N 7.81506e-05
4 *1078:Y 5.67909e-05
5 *125:14 0.000265873
6 *125:6 0.000300598
7 *1086:A2 *1074:B 1.03423e-05
8 *1086:A2 *1076:A 8.65961e-05
9 *1234:B1_N *1080:B 4.99619e-05
10 *1234:B1_N *257:6 3.90495e-05
11 *125:6 *1074:B 2.65814e-06
12 *125:6 *1079:A 1.83756e-05
13 *125:14 *1074:A 3.05373e-05
14 *125:14 *257:6 4.82863e-05
15 *125:14 *317:12 5.4003e-05
16 *125:14 *335:31 0
17 *125:14 *368:100 0
18 *1077:A *125:14 0
19 *1086:A1 *1086:A2 4.99619e-05
20 *121:6 *1086:A2 2.8185e-05
*RES
1 *1078:Y *125:6 2.395 
2 *125:6 *125:14 6.85 
3 *125:14 *1234:B1_N 3.1 
4 *125:14 *1080:A 1.6 
5 *125:6 *1086:A2 3.085 
*END

*D_NET *126 0.000576175
*CONN
*I *1080:B I *D sky130_fd_sc_hd__nand2_1
*I *1234:A1 I *D sky130_fd_sc_hd__a21bo_1
*I *1079:X O *D sky130_fd_sc_hd__or2_1
*CAP
1 *1080:B 7.20556e-05
2 *1234:A1 0
3 *1079:X 6.80614e-05
4 *126:10 0.000140117
5 *1080:B *257:6 0.000198945
6 *126:10 *302:22 0
7 *126:10 *368:100 4.70343e-05
8 *1234:B1_N *1080:B 4.99619e-05
*RES
1 *1079:X *126:10 6.98 
2 *126:10 *1234:A1 1.6 
3 *126:10 *1080:B 3.43 
*END

*D_NET *127 0.00305677
*CONN
*I *1084:B I *D sky130_fd_sc_hd__or3_1
*I *1085:B I *D sky130_fd_sc_hd__or3_1
*I *1233:A I *D sky130_fd_sc_hd__xnor2_1
*I *1080:Y O *D sky130_fd_sc_hd__nand2_1
*CAP
1 *1084:B 0.000135534
2 *1085:B 0
3 *1233:A 0.000439411
4 *1080:Y 0
5 *127:23 0.000502883
6 *127:4 0.00080676
7 *1084:B *1085:C 0.000114433
8 *1233:A *1233:B 0.000578529
9 *1233:A *1235:B 0.000124007
10 *1233:A *257:6 0.000277223
11 *127:23 *1085:C 4.92062e-05
12 *127:23 *368:100 2.87867e-05
13 *124:10 *127:23 0
*RES
1 *1080:Y *127:4 1.6 
2 *127:4 *1233:A 10.615 
3 *127:4 *127:23 8.425 
4 *127:23 *1085:B 1.6 
5 *127:23 *1084:B 3.43 
*END

*D_NET *128 0.00174499
*CONN
*I *1085:C I *D sky130_fd_sc_hd__or3_1
*I *1083:A I *D sky130_fd_sc_hd__nand2_1
*I *1232:B1_N I *D sky130_fd_sc_hd__a21bo_1
*I *1081:Y O *D sky130_fd_sc_hd__nand2_1
*CAP
1 *1085:C 0.000312275
2 *1083:A 3.76354e-05
3 *1232:B1_N 0
4 *1081:Y 7.4327e-05
5 *128:12 0.00018429
6 *128:8 0.000533257
7 *1083:A *1232:A1 3.54536e-05
8 *1085:C *1084:C 4.82863e-05
9 *1085:C *1232:A2 0
10 *1085:C *129:12 0
11 *1085:C *130:12 0
12 *1085:C *335:12 0
13 *128:8 *129:12 0
14 *128:8 *335:12 0
15 *128:12 *1232:A1 9.91257e-05
16 *128:12 *1232:A2 1.61831e-05
17 *128:12 *257:6 5.83121e-06
18 *1084:A *1085:C 0.000234685
19 *1084:B *1085:C 0.000114433
20 *127:23 *1085:C 4.92062e-05
*RES
1 *1081:Y *128:8 4.725 
2 *128:8 *128:12 4.52 
3 *128:12 *1232:B1_N 1.6 
4 *128:12 *1083:A 2.41 
5 *128:8 *1085:C 9.915 
*END

*D_NET *129 0.00122215
*CONN
*I *1232:A1 I *D sky130_fd_sc_hd__a21bo_1
*I *1083:B I *D sky130_fd_sc_hd__nand2_1
*I *1082:X O *D sky130_fd_sc_hd__or2_1
*CAP
1 *1232:A1 8.73493e-05
2 *1083:B 0
3 *1082:X 0.000239443
4 *129:12 0.000326792
5 *1232:A1 *1232:A2 0.000203178
6 *1232:A1 *130:12 2.30292e-05
7 *129:12 *1081:A 0
8 *129:12 *1342:A 0.000119512
9 acc[12] *129:12 8.8266e-05
10 *1083:A *1232:A1 3.54536e-05
11 *1085:C *129:12 0
12 *128:8 *129:12 0
13 *128:12 *1232:A1 9.91257e-05
*RES
1 *1082:X *129:12 9.815 
2 *129:12 *1083:B 1.6 
3 *129:12 *1232:A1 4.48 
*END

*D_NET *130 0.000910574
*CONN
*I *1231:A I *D sky130_fd_sc_hd__xnor2_1
*I *1084:C I *D sky130_fd_sc_hd__or3_1
*I *1083:Y O *D sky130_fd_sc_hd__nand2_1
*CAP
1 *1231:A 0
2 *1084:C 0.000139807
3 *1083:Y 0.000189817
4 *130:12 0.000329624
5 *130:12 *1232:A2 0.000171929
6 *130:12 *256:8 8.08153e-06
7 *1085:C *1084:C 4.82863e-05
8 *1085:C *130:12 0
9 *1232:A1 *130:12 2.30292e-05
*RES
1 *1083:Y *130:12 8.72 
2 *130:12 *1084:C 3.775 
3 *130:12 *1231:A 1.6 
*END

*D_NET *131 0.00172225
*CONN
*I *1119:B1 I *D sky130_fd_sc_hd__a211oi_1
*I *1120:A1 I *D sky130_fd_sc_hd__o211ai_1
*I *1084:X O *D sky130_fd_sc_hd__or3_1
*CAP
1 *1119:B1 0.000429616
2 *1120:A1 0
3 *1084:X 0.000222649
4 *131:10 0.000652266
5 *1119:B1 *1119:C1 1.7386e-05
6 *1119:B1 *166:6 8.10455e-05
7 *1119:B1 *368:90 0
8 *131:10 *1120:B1 1.94723e-05
9 *131:10 *335:12 0.000250609
10 *131:10 *368:90 0
11 *1084:A *131:10 4.92062e-05
*RES
1 *1084:X *131:10 8.07 
2 *131:10 *1120:A1 3.6 
3 *131:10 *1119:B1 9.885 
*END

*D_NET *132 0.000695804
*CONN
*I *1120:C1 I *D sky130_fd_sc_hd__o211ai_1
*I *1085:X O *D sky130_fd_sc_hd__or3_1
*CAP
1 *1120:C1 0.000160056
2 *1085:X 0.000160056
3 *1120:C1 *1120:B1 0.000296081
4 *1120:C1 *368:90 0
5 *1084:A *1120:C1 2.75145e-05
6 *1235:A *1120:C1 5.20968e-05
*RES
1 *1085:X *1120:C1 11.07 
*END

*D_NET *133 0.00149228
*CONN
*I *1120:B1 I *D sky130_fd_sc_hd__o211ai_1
*I *1086:X O *D sky130_fd_sc_hd__o21a_1
*CAP
1 *1120:B1 0.000258058
2 *1086:X 0.000258058
3 *1120:B1 *1076:A 3.07153e-05
4 *1120:B1 *335:12 0.000340842
5 *1120:B1 *335:16 8.40213e-05
6 *1077:B *1120:B1 0.000137571
7 *1120:C1 *1120:B1 0.000296081
8 *1235:A *1120:B1 1.82563e-05
9 *124:10 *1120:B1 4.92096e-05
10 *131:10 *1120:B1 1.94723e-05
*RES
1 *1086:X *1120:B1 15.75 
*END

*D_NET *134 0.00193767
*CONN
*I *1089:A I *D sky130_fd_sc_hd__nand2_1
*I *1230:A I *D sky130_fd_sc_hd__nand2_1
*I *1120:A2 I *D sky130_fd_sc_hd__o211ai_1
*I *1087:Y O *D sky130_fd_sc_hd__nand2_1
*CAP
1 *1089:A 2.08101e-05
2 *1230:A 2.08101e-05
3 *1120:A2 0.000264341
4 *1087:Y 0.000310031
5 *134:14 0.000549113
6 *134:12 0.000594803
7 *1120:A2 *335:12 5.83121e-06
8 *134:12 *1030:A 4.70343e-05
9 *134:12 *1089:B 0.000124895
10 *134:12 *366:12 0
*RES
1 *1087:Y *134:12 10.88 
2 *134:12 *134:14 3.9 
3 *134:14 *1120:A2 5.5 
4 *134:14 *1230:A 1.96 
5 *134:12 *1089:A 1.96 
*END

*D_NET *135 0.000443997
*CONN
*I *1089:B I *D sky130_fd_sc_hd__nand2_1
*I *1088:X O *D sky130_fd_sc_hd__or2_1
*CAP
1 *1089:B 0.000132428
2 *1088:X 0.000132428
3 *1089:B *1030:A 5.42473e-05
4 *1089:B *1342:A 0
5 *134:12 *1089:B 0.000124895
*RES
1 *1088:X *1089:B 9.975 
*END

*D_NET *136 0.00166179
*CONN
*I *1118:B1 I *D sky130_fd_sc_hd__a21o_1
*I *1119:C1 I *D sky130_fd_sc_hd__a211oi_1
*I *1228:A I *D sky130_fd_sc_hd__nand3_1
*I *1089:Y O *D sky130_fd_sc_hd__nand2_1
*CAP
1 *1118:B1 1.00165e-05
2 *1119:C1 0.000120078
3 *1228:A 0
4 *1089:Y 0.000252543
5 *136:23 0.000171074
6 *136:14 0.000293522
7 *1118:B1 *1118:A2 4.00541e-06
8 *1118:B1 *1119:A2 4.00541e-06
9 *1119:C1 *1119:A1 0.000164874
10 *1119:C1 *1119:A2 5.34747e-05
11 *136:14 *1030:A 0
12 *136:14 *1118:A2 3.26889e-05
13 *136:14 *1228:C 2.92496e-05
14 *136:14 *1342:A 0
15 *136:14 *161:10 4.16262e-05
16 *136:14 *161:12 1.61831e-05
17 *136:14 *164:10 9.37731e-05
18 *136:14 *164:14 0.000124895
19 *136:23 *1119:A1 8.65905e-05
20 *136:23 *1119:A2 4.43682e-05
21 *136:23 *1228:B 9.53428e-06
22 *136:23 *161:12 7.57202e-05
23 *136:23 *164:14 1.61831e-05
24 *1119:B1 *1119:C1 1.7386e-05
*RES
1 *1089:Y *136:14 10.865 
2 *136:14 *1228:A 1.6 
3 *136:14 *136:23 1.845 
4 *136:23 *1119:C1 4.48 
5 *136:23 *1118:B1 1.96 
*END

*D_NET *137 0.00214228
*CONN
*I *1098:A I *D sky130_fd_sc_hd__nor3_2
*I *1248:A1 I *D sky130_fd_sc_hd__o21a_1
*I *1250:A I *D sky130_fd_sc_hd__nor2_1
*I *1099:B1 I *D sky130_fd_sc_hd__a21o_1
*I *1090:X O *D sky130_fd_sc_hd__and2_1
*CAP
1 *1098:A 0
2 *1248:A1 3.37585e-05
3 *1250:A 0.000122268
4 *1099:B1 0.000263477
5 *1090:X 0.000110103
6 *137:14 0.000482025
7 *137:12 0.000223786
8 *137:10 0.000203852
9 *1099:B1 *1099:A1 5.53249e-06
10 *1099:B1 *1100:B 7.04021e-05
11 *1099:B1 *145:10 1.0183e-05
12 *1099:B1 *145:12 0.000193332
13 *1250:A *1250:B 0.000124895
14 *137:10 *138:10 0.000120955
15 *137:12 *1248:A2 9.16237e-05
16 *137:12 *138:10 5.53249e-06
17 *137:12 *145:10 5.98004e-06
18 *137:14 *145:10 7.45712e-05
19 *1265:RESET_B *1099:B1 0
*RES
1 *1090:X *137:10 5.685 
2 *137:10 *137:12 2.145 
3 *137:12 *137:14 2.145 
4 *137:14 *1099:B1 9.57 
5 *137:14 *1250:A 5.775 
6 *137:12 *1248:A1 4.05 
7 *137:10 *1098:A 3.6 
*END

*D_NET *138 0.00119433
*CONN
*I *1098:B I *D sky130_fd_sc_hd__nor3_2
*I *1248:A2 I *D sky130_fd_sc_hd__o21a_1
*I *1091:Y O *D sky130_fd_sc_hd__nor2_1
*CAP
1 *1098:B 0
2 *1248:A2 4.6825e-05
3 *1091:Y 0.000222135
4 *138:10 0.00026896
5 *1248:A2 *1249:A 5.4003e-05
6 *1248:A2 *145:10 0.000118513
7 *138:10 *1090:B 2.30292e-05
8 *138:10 *1091:B 8.8266e-05
9 *138:10 *1249:A 0.000154488
10 *137:10 *138:10 0.000120955
11 *137:12 *1248:A2 9.16237e-05
12 *137:12 *138:10 5.53249e-06
*RES
1 *1091:Y *138:10 8.355 
2 *138:10 *1248:A2 5.49 
3 *138:10 *1098:B 3.6 
*END

*D_NET *139 0.000783827
*CONN
*I *1093:A I *D sky130_fd_sc_hd__inv_2
*I *1097:B1 I *D sky130_fd_sc_hd__o21a_1
*I *1092:Y O *D sky130_fd_sc_hd__nand2_1
*CAP
1 *1093:A 2.08101e-05
2 *1097:B1 0.000197983
3 *1092:Y 6.06588e-05
4 *139:6 0.000279452
5 *1093:A *1092:A 0
6 *1097:B1 *1092:B 0
7 *1097:B1 *1095:A 0
8 *1097:B1 *1097:A2 5.53249e-06
9 *1097:B1 *321:12 9.66106e-05
10 *139:6 *1095:A 2.75145e-05
11 *139:6 *321:12 9.52646e-05
*RES
1 *1092:Y *139:6 3.085 
2 *139:6 *1097:B1 9.23 
3 *139:6 *1093:A 1.96 
*END

*D_NET *140 0.000364045
*CONN
*I *1095:A I *D sky130_fd_sc_hd__nor2_1
*I *1093:Y O *D sky130_fd_sc_hd__inv_2
*CAP
1 *1095:A 0.000106481
2 *1093:Y 0.000106481
3 *1095:A *1092:B 0.000118036
4 *1095:A *1097:A2 0
5 *1095:A *1262:CLK 5.53249e-06
6 *1097:B1 *1095:A 0
7 *139:6 *1095:A 2.75145e-05
*RES
1 *1093:Y *1095:A 9.285 
*END

*D_NET *141 0.000677913
*CONN
*I *1095:B I *D sky130_fd_sc_hd__nor2_1
*I *1097:A1 I *D sky130_fd_sc_hd__o21a_1
*I *1094:Y O *D sky130_fd_sc_hd__nor2_1
*CAP
1 *1095:B 0
2 *1097:A1 2.02467e-05
3 *1094:Y 0.000205917
4 *141:16 0.000226164
5 *1097:A1 *1247:A 2.0514e-05
6 *141:16 *1097:A2 0
7 *141:16 *1247:A 4.99619e-05
8 *141:16 *1262:CLK 9.37731e-05
9 *141:16 *143:14 1.47256e-05
10 *141:16 *345:29 4.66108e-05
*RES
1 *1094:Y *141:16 9.02 
2 *141:16 *1097:A1 2.05 
3 *141:16 *1095:B 1.6 
*END

*D_NET *142 0.000424708
*CONN
*I *1247:A I *D sky130_fd_sc_hd__xnor2_1
*I *1095:Y O *D sky130_fd_sc_hd__nor2_1
*CAP
1 *1247:A 0.000117023
2 *1095:Y 0.000117023
3 *1247:A *1097:A2 0.000120186
4 *1247:A *1262:CLK 0
5 *1097:A1 *1247:A 2.0514e-05
6 *141:16 *1247:A 4.99619e-05
*RES
1 *1095:Y *1247:A 9.375 
*END

*D_NET *143 0.00181447
*CONN
*I *1253:A I *D sky130_fd_sc_hd__and2_1
*I *1247:B I *D sky130_fd_sc_hd__xnor2_1
*I *1097:A2 I *D sky130_fd_sc_hd__o21a_1
*I *1096:Y O *D sky130_fd_sc_hd__nand2_1
*CAP
1 *1253:A 0
2 *1247:B 0
3 *1097:A2 0.000161071
4 *1096:Y 0.000153064
5 *143:14 0.000391829
6 *143:12 0.000383822
7 *1097:A2 *1262:CLK 0
8 *143:12 *1096:A 6.36578e-05
9 *143:12 *345:29 6.55328e-05
10 *143:14 *1092:B 4.82919e-05
11 *143:14 *1253:B 8.49205e-05
12 *143:14 *1263:D 0.000160635
13 *143:14 *345:29 0.000161204
14 *1095:A *1097:A2 0
15 *1097:B1 *1097:A2 5.53249e-06
16 *1247:A *1097:A2 0.000120186
17 *141:16 *1097:A2 0
18 *141:16 *143:14 1.47256e-05
*RES
1 *1096:Y *143:12 8.12 
2 *143:12 *143:14 5.28 
3 *143:14 *1097:A2 8.54 
4 *143:14 *1247:B 1.6 
5 *143:12 *1253:A 1.6 
*END

*D_NET *144 0.00105914
*CONN
*I *1098:C I *D sky130_fd_sc_hd__nor3_2
*I *1248:B1 I *D sky130_fd_sc_hd__o21a_1
*I *1097:X O *D sky130_fd_sc_hd__o21a_1
*CAP
1 *1098:C 0
2 *1248:B1 8.55286e-05
3 *1097:X 0.000342342
4 *144:6 0.000427871
5 *1248:B1 *1249:A 6.75724e-05
6 *1248:B1 *1249:B 0
7 *1248:B1 *145:10 0.000120186
8 *144:6 *145:8 1.56428e-05
*RES
1 *1097:X *144:6 6.535 
2 *144:6 *1248:B1 7.745 
3 *144:6 *1098:C 1.6 
*END

*D_NET *145 0.00398565
*CONN
*I *1249:A I *D sky130_fd_sc_hd__nor2_1
*I *1250:B I *D sky130_fd_sc_hd__nor2_1
*I *1101:B1 I *D sky130_fd_sc_hd__o22ai_1
*I *1114:B1 I *D sky130_fd_sc_hd__o221ai_4
*I *1098:Y O *D sky130_fd_sc_hd__nor3_2
*CAP
1 *1249:A 0.000283332
2 *1250:B 0.000115531
3 *1101:B1 5.19493e-05
4 *1114:B1 4.80223e-05
5 *1098:Y 4.16082e-05
6 *145:12 0.000392346
7 *145:10 0.00055507
8 *145:8 0.000472104
9 *1101:B1 *1101:B2 4.66742e-05
10 *1114:B1 *1099:A1 0
11 *1114:B1 *1114:B2 0.000114492
12 *1114:B1 *1270:CLK 0.000136877
13 *1249:A *1249:B 0
14 *1249:A *1264:D 2.11084e-05
15 *1250:B *1251:B 4.82919e-05
16 *145:12 *1099:A1 0
17 *145:12 *1114:B2 5.23362e-05
18 *145:12 *1251:B 0
19 *145:12 *1265:CLK 0.00031682
20 *145:12 *1270:CLK 0.000242091
21 *145:12 *146:8 0.000107634
22 *1099:B1 *145:10 1.0183e-05
23 *1099:B1 *145:12 0.000193332
24 *1248:A2 *1249:A 5.4003e-05
25 *1248:A2 *145:10 0.000118513
26 *1248:B1 *1249:A 6.75724e-05
27 *1248:B1 *145:10 0.000120186
28 *1250:A *1250:B 0.000124895
29 *137:12 *145:10 5.98004e-06
30 *137:14 *145:10 7.45712e-05
31 *138:10 *1249:A 0.000154488
32 *144:6 *145:8 1.56428e-05
*RES
1 *1098:Y *145:8 4.05 
2 *145:8 *145:10 3.93 
3 *145:10 *145:12 8.265 
4 *145:12 *1114:B1 5.235 
5 *145:12 *1101:B1 4.395 
6 *145:10 *1250:B 5.79 
7 *145:8 *1249:A 9.135 
*END

*D_NET *146 0.001195
*CONN
*I *1101:B2 I *D sky130_fd_sc_hd__o22ai_1
*I *1114:B2 I *D sky130_fd_sc_hd__o221ai_4
*I *1099:X O *D sky130_fd_sc_hd__a21o_1
*CAP
1 *1101:B2 7.014e-05
2 *1114:B2 0.000123554
3 *1099:X 6.22616e-05
4 *146:8 0.000255955
5 *1101:B2 *148:10 0.000196364
6 *1114:B2 *1099:A1 0
7 *1114:B2 *324:8 5.05521e-05
8 *1114:B2 *360:43 0.000115035
9 *146:8 *1099:A1 0
10 *1101:B1 *1101:B2 4.66742e-05
11 *1114:B1 *1114:B2 0.000114492
12 *145:12 *1114:B2 5.23362e-05
13 *145:12 *146:8 0.000107634
*RES
1 *1099:X *146:8 4.98 
2 *146:8 *1114:B2 6.645 
3 *146:8 *1101:B2 5.43 
*END

*D_NET *147 0.000225039
*CONN
*I *1251:A I *D sky130_fd_sc_hd__xnor2_1
*I *1100:X O *D sky130_fd_sc_hd__xor2_1
*CAP
1 *1251:A 9.62277e-05
2 *1100:X 9.62277e-05
3 *1251:A *1251:B 3.25831e-05
4 *1251:A *1265:CLK 0
*RES
1 *1100:X *1251:A 8.835 
*END

*D_NET *148 0.00178863
*CONN
*I *1237:A I *D sky130_fd_sc_hd__nand2_1
*I *1236:A I *D sky130_fd_sc_hd__or2_1
*I *1101:Y O *D sky130_fd_sc_hd__o22ai_1
*CAP
1 *1237:A 0.000133951
2 *1236:A 1.88809e-05
3 *1101:Y 0.000402923
4 *148:10 0.000555754
5 *1236:A *1238:A 5.4155e-06
6 *1237:A *1237:B 1.85674e-05
7 *1237:A *1238:A 6.60007e-05
8 *1237:A *1238:B 0.000110267
9 *1237:A *159:20 0.000197386
10 *148:10 *1113:C 5.0751e-05
11 *148:10 *159:20 3.23663e-05
12 *1101:B2 *148:10 0.000196364
*RES
1 *1101:Y *148:10 7.945 
2 *148:10 *1236:A 1.96 
3 *148:10 *1237:A 5.545 
*END

*D_NET *149 0.00166814
*CONN
*I *1106:A I *D sky130_fd_sc_hd__or3_1
*I *1243:A I *D sky130_fd_sc_hd__and3_1
*I *1242:B1 I *D sky130_fd_sc_hd__a21oi_1
*I *1102:Y O *D sky130_fd_sc_hd__xnor2_1
*CAP
1 *1106:A 0.000194242
2 *1243:A 0
3 *1242:B1 3.20729e-05
4 *1102:Y 0.000209347
5 *149:21 0.00027155
6 *149:10 0.000318728
7 *1106:A *1116:B2 0.000124007
8 *1106:A *1242:A1 0
9 *1106:A *1242:A2 1.46744e-05
10 *1106:A *1243:C 8.30552e-05
11 *1106:A *154:18 0.000166885
12 *149:10 *1115:A1 3.86529e-05
13 *149:10 *1116:B1 0
14 *149:10 *1244:B 0
15 *149:10 *1245:B1 0
16 *149:10 *1259:A 0
17 *149:10 *263:12 0.000139245
18 *149:10 *364:14 0
19 *149:21 *1242:A1 2.57174e-05
20 *149:21 *1242:A2 4.99619e-05
21 *149:21 *1243:C 0
*RES
1 *1102:Y *149:10 9.275 
2 *149:10 *1242:B1 2.05 
3 *149:10 *149:21 1.5 
4 *149:21 *1243:A 1.6 
5 *149:21 *1106:A 5.8 
*END

*D_NET *150 0.00145311
*CONN
*I *1105:A I *D sky130_fd_sc_hd__nor2_1
*I *1106:B I *D sky130_fd_sc_hd__or3_1
*I *1115:B1 I *D sky130_fd_sc_hd__a21oi_1
*I *1103:X O *D sky130_fd_sc_hd__and2_1
*CAP
1 *1105:A 0
2 *1106:B 7.74771e-05
3 *1115:B1 0.000208876
4 *1103:X 1.6003e-05
5 *150:10 0.000477487
6 *150:6 0.000207137
7 *1106:B *1244:B 0
8 *1106:B *303:38 0.000164686
9 *1115:B1 *1115:A1 4.82863e-05
10 *1115:B1 *1244:A 3.74161e-05
11 *1115:B1 *1268:D 2.30292e-05
12 *1115:B1 *263:12 0.000124895
13 *150:6 *151:6 3.00381e-05
14 *150:10 *1105:B 5.4155e-06
15 *150:10 *151:6 3.23663e-05
*RES
1 *1103:X *150:6 2.05 
2 *150:6 *150:10 2.88 
3 *150:10 *1115:B1 5.155 
4 *150:10 *1106:B 7.49 
5 *150:6 *1105:A 1.6 
*END

*D_NET *151 0.00163232
*CONN
*I *1106:C I *D sky130_fd_sc_hd__or3_1
*I *1116:B2 I *D sky130_fd_sc_hd__o22a_1
*I *1105:B I *D sky130_fd_sc_hd__nor2_1
*I *1104:Y O *D sky130_fd_sc_hd__nor2_1
*CAP
1 *1106:C 0
2 *1116:B2 0.000122677
3 *1105:B 3.36214e-05
4 *1104:Y 0.000161434
5 *151:21 0.000347173
6 *151:6 0.000419551
7 *1116:B2 *1116:B1 8.97486e-05
8 *1116:B2 *153:12 0.000146043
9 *1116:B2 *154:18 2.42236e-05
10 *151:6 *1103:A 4.99619e-05
11 *151:6 *1103:B 4.60584e-05
12 *151:21 *303:38 0
13 *1106:A *1116:B2 0.000124007
14 *150:6 *151:6 3.00381e-05
15 *150:10 *1105:B 5.4155e-06
16 *150:10 *151:6 3.23663e-05
*RES
1 *1104:Y *151:6 4.465 
2 *151:6 *1105:B 2.215 
3 *151:6 *151:21 7.375 
4 *151:21 *1116:B2 8.975 
5 *151:21 *1106:C 1.6 
*END

*D_NET *152 0.000501198
*CONN
*I *1246:A I *D sky130_fd_sc_hd__xnor2_1
*I *1105:Y O *D sky130_fd_sc_hd__nor2_1
*CAP
1 *1246:A 0.000186398
2 *1105:Y 0.000186398
3 *1246:A *1246:B 6.5525e-05
4 *1246:A *1269:CLK 0
5 *1246:A *1269:D 6.28765e-05
6 *1246:A *303:38 0
7 *1246:A *365:12 0
*RES
1 *1105:Y *1246:A 10.875 
*END

*D_NET *153 0.00175821
*CONN
*I *1116:A1 I *D sky130_fd_sc_hd__o22a_1
*I *1117:A1 I *D sky130_fd_sc_hd__o31a_1
*I *1113:A I *D sky130_fd_sc_hd__nor3_1
*I *1106:X O *D sky130_fd_sc_hd__or3_1
*CAP
1 *1116:A1 4.96712e-05
2 *1117:A1 0.000117376
3 *1113:A 0
4 *1106:X 7.33593e-05
5 *153:20 0.000586718
6 *153:12 0.000592373
7 *1116:A1 *154:10 2.75229e-05
8 *1117:A1 *1113:C 0
9 *1117:A1 *1114:C1 0
10 *1117:A1 *1259:A 0
11 *1117:A1 *1261:A 0
12 *153:12 *154:18 0.000116853
13 *153:20 *1113:C 0
14 *153:20 *1116:B1 4.82919e-05
15 *153:20 *1259:A 0
16 *153:20 *261:14 0
17 *1116:B2 *153:12 0.000146043
*RES
1 *1106:X *153:12 7.43 
2 *153:12 *153:20 9.35 
3 *153:20 *1113:A 3.6 
4 *153:20 *1117:A1 5.235 
5 *153:12 *1116:A1 2.395 
*END

*D_NET *154 0.00300056
*CONN
*I *1109:A I *D sky130_fd_sc_hd__nand2_1
*I *1116:A2 I *D sky130_fd_sc_hd__o22a_1
*I *1243:B I *D sky130_fd_sc_hd__and3_1
*I *1242:A1 I *D sky130_fd_sc_hd__a21oi_1
*I *1107:Y O *D sky130_fd_sc_hd__nand2_1
*CAP
1 *1109:A 0.00016262
2 *1116:A2 0
3 *1243:B 1.77753e-05
4 *1242:A1 0.000109551
5 *1107:Y 5.62936e-05
6 *154:18 0.000337718
7 *154:10 0.00060634
8 *154:6 0.000614862
9 *1109:A *1364:A 0
10 *1109:A *363:10 4.70343e-05
11 *1109:A *369:20 0
12 *1242:A1 *1242:A2 5.30673e-05
13 *1242:A1 *1243:C 2.01885e-05
14 *154:6 *1107:A 4.99619e-05
15 *154:6 *1260:A 9.27255e-06
16 *154:10 *1107:A 9.53428e-06
17 *154:10 *369:56 0.000257815
18 *154:18 *1116:B1 0
19 *154:18 *1243:C 7.73976e-06
20 *154:18 *261:14 0
21 *154:18 *303:38 0.000136321
22 *1106:A *1242:A1 0
23 *1106:A *154:18 0.000166885
24 *1116:A1 *154:10 2.75229e-05
25 *1116:B2 *154:18 2.42236e-05
26 *1267:RESET_B *1109:A 0.000143266
27 *149:21 *1242:A1 2.57174e-05
28 *153:12 *154:18 0.000116853
*RES
1 *1107:Y *154:6 2.395 
2 *154:6 *154:10 6.675 
3 *154:10 *154:18 8.74 
4 *154:18 *1242:A1 3.7 
5 *154:18 *1243:B 1.96 
6 *154:10 *1116:A2 1.6 
7 *154:6 *1109:A 9.02 
*END

*D_NET *155 0.000452399
*CONN
*I *1109:B I *D sky130_fd_sc_hd__nand2_1
*I *1108:X O *D sky130_fd_sc_hd__or2_1
*CAP
1 *1109:B 0.000118146
2 *1108:X 0.000118146
3 *1109:B *1364:A 0.00011852
4 *1109:B *326:14 7.33626e-05
5 *1326:A *1109:B 2.42236e-05
*RES
1 *1108:X *1109:B 9.72 
*END

*D_NET *156 0.00309229
*CONN
*I *1239:B1 I *D sky130_fd_sc_hd__a21o_1
*I *1240:A I *D sky130_fd_sc_hd__nand3_1
*I *1113:B I *D sky130_fd_sc_hd__nor3_1
*I *1117:A2 I *D sky130_fd_sc_hd__o31a_1
*I *1109:Y O *D sky130_fd_sc_hd__nand2_1
*CAP
1 *1239:B1 2.08101e-05
2 *1240:A 0
3 *1113:B 0.000185153
4 *1117:A2 0.000102473
5 *1109:Y 0.000479268
6 *156:23 0.000242011
7 *156:8 0.000169476
8 *156:6 0.000510223
9 *1113:B *1113:C 0.000164874
10 *1117:A2 *1117:A3 1.33293e-05
11 *1117:A2 *1117:B1 0.000232099
12 *1117:A2 *1241:A 1.91597e-05
13 *1117:A2 *369:30 0.000344443
14 *156:6 *1241:A 9.13951e-05
15 *156:6 *369:30 0.000256182
16 *156:8 *1241:A 2.75229e-05
17 *156:8 *369:30 3.74161e-05
18 *156:23 *1117:B1 0.000139231
19 *156:23 *1240:B 5.722e-05
*RES
1 *1109:Y *156:6 9.295 
2 *156:6 *156:8 0.45 
3 *156:8 *1117:A2 5.17 
4 *156:8 *156:23 5.635 
5 *156:23 *1113:B 4.825 
6 *156:23 *1240:A 1.6 
7 *156:6 *1239:B1 1.96 
*END

*D_NET *157 0.00426727
*CONN
*I *1112:A I *D sky130_fd_sc_hd__nand2_1
*I *1117:A3 I *D sky130_fd_sc_hd__o31a_1
*I *1239:A1 I *D sky130_fd_sc_hd__a21o_1
*I *1240:B I *D sky130_fd_sc_hd__nand3_1
*I *1110:Y O *D sky130_fd_sc_hd__nand2_1
*CAP
1 *1112:A 0
2 *1117:A3 0.000325333
3 *1239:A1 0
4 *1240:B 0.000135512
5 *1110:Y 0.000207458
6 *157:22 0.000170055
7 *157:20 0.00103847
8 *157:8 0.000886051
9 *1117:A3 *1117:B1 7.10775e-05
10 *1117:A3 *1241:A 9.66021e-05
11 *1117:A3 *261:6 0
12 *1117:A3 *261:14 2.75229e-05
13 *1240:B *1240:C 0.000134516
14 *1240:B *1241:B 5.83121e-06
15 *1240:B *303:36 4.21447e-06
16 *157:8 *1110:B 2.05056e-05
17 *157:8 *1111:A 0.000124895
18 *157:8 *1112:B 8.8266e-05
19 *157:8 *159:6 3.64998e-06
20 *157:8 *362:14 2.0514e-05
21 *157:20 *1113:C 0
22 *157:20 *1364:A 0.000467074
23 *157:20 *1365:A 0
24 *157:20 *259:8 0.000183738
25 *157:20 *324:6 0.000102187
26 *157:20 *362:14 0
27 *157:20 *369:12 8.53113e-06
28 *157:20 *369:20 0
29 *157:22 *1113:C 0
30 *157:22 *1240:C 9.50342e-06
31 *157:22 *259:8 6.52181e-05
32 *1117:A2 *1117:A3 1.33293e-05
33 *156:23 *1240:B 5.722e-05
*RES
1 *1110:Y *157:8 5.515 
2 *157:8 *157:20 16.185 
3 *157:20 *157:22 0.87 
4 *157:22 *1240:B 6.495 
5 *157:22 *1239:A1 3.6 
6 *157:20 *1117:A3 7.86 
7 *157:8 *1112:A 1.6 
*END

*D_NET *158 0.000153397
*CONN
*I *1112:B I *D sky130_fd_sc_hd__nand2_1
*I *1111:X O *D sky130_fd_sc_hd__or2_1
*CAP
1 *1112:B 3.25657e-05
2 *1111:X 3.25657e-05
3 *157:8 *1112:B 8.8266e-05
*RES
1 *1111:X *1112:B 3.995 
*END

*D_NET *159 0.00332098
*CONN
*I *1237:B I *D sky130_fd_sc_hd__nand2_1
*I *1236:B I *D sky130_fd_sc_hd__or2_1
*I *1113:C I *D sky130_fd_sc_hd__nor3_1
*I *1112:Y O *D sky130_fd_sc_hd__nand2_1
*CAP
1 *1237:B 2.89361e-05
2 *1236:B 0
3 *1113:C 0.000317811
4 *1112:Y 0.000267582
5 *159:20 0.000658536
6 *159:6 0.000637242
7 *1113:C *1099:A1 2.05583e-05
8 *1113:C *1114:C1 0.000385819
9 *1113:C *259:8 0
10 *1113:C *261:14 0.000180682
11 *1113:C *360:43 9.54399e-05
12 *159:6 *369:16 0.000188727
13 *159:20 *1238:A 5.83121e-06
14 *159:20 *1238:B 1.47347e-05
15 *159:20 *259:8 9.50342e-06
16 *159:20 *303:36 4.1977e-05
17 *159:20 *360:43 0
18 *1113:B *1113:C 0.000164874
19 *1117:A1 *1113:C 0
20 *1237:A *1237:B 1.85674e-05
21 *1237:A *159:20 0.000197386
22 *148:10 *1113:C 5.0751e-05
23 *148:10 *159:20 3.23663e-05
24 *153:20 *1113:C 0
25 *157:8 *159:6 3.64998e-06
26 *157:20 *1113:C 0
27 *157:22 *1113:C 0
*RES
1 *1112:Y *159:6 5.155 
2 *159:6 *159:20 9.175 
3 *159:20 *1113:C 13.94 
4 *159:20 *1236:B 1.6 
5 *159:6 *1237:B 2.215 
*END

*D_NET *160 0.000892313
*CONN
*I *1114:C1 I *D sky130_fd_sc_hd__o221ai_4
*I *1113:Y O *D sky130_fd_sc_hd__nor3_1
*CAP
1 *1114:C1 0.000237785
2 *1113:Y 0.000237785
3 *1114:C1 *1099:A1 3.09233e-05
4 *1114:C1 *1270:CLK 0
5 *1113:C *1114:C1 0.000385819
6 *1117:A1 *1114:C1 0
*RES
1 *1113:Y *1114:C1 12.015 
*END

*D_NET *161 0.00226165
*CONN
*I *1228:B I *D sky130_fd_sc_hd__nand3_1
*I *1118:A1 I *D sky130_fd_sc_hd__a21o_1
*I *1119:A1 I *D sky130_fd_sc_hd__a211oi_1
*I *1114:Y O *D sky130_fd_sc_hd__o221ai_4
*CAP
1 *1228:B 1.85694e-05
2 *1118:A1 0
3 *1119:A1 0.000152587
4 *1114:Y 0.000681333
5 *161:12 0.000233658
6 *161:10 0.000780974
7 *161:10 *360:43 0
8 *1119:C1 *1119:A1 0.000164874
9 *136:14 *161:10 4.16262e-05
10 *136:14 *161:12 1.61831e-05
11 *136:23 *1119:A1 8.65905e-05
12 *136:23 *1228:B 9.53428e-06
13 *136:23 *161:12 7.57202e-05
*RES
1 *1114:Y *161:10 9.835 
2 *161:10 *161:12 1.14 
3 *161:12 *1119:A1 3.775 
4 *161:12 *1118:A1 1.6 
5 *161:10 *1228:B 1.96 
*END

*D_NET *162 0.00106695
*CONN
*I *1116:B1 I *D sky130_fd_sc_hd__o22a_1
*I *1115:Y O *D sky130_fd_sc_hd__a21oi_1
*CAP
1 *1116:B1 0.000323652
2 *1115:Y 0.000323652
3 *1116:B1 *1244:B 7.23602e-05
4 *1116:B1 *1268:D 0.000122155
5 *1116:B1 *261:14 8.70923e-05
6 *1116:B1 *303:38 0
7 *1116:B2 *1116:B1 8.97486e-05
8 *149:10 *1116:B1 0
9 *153:20 *1116:B1 4.82919e-05
10 *154:18 *1116:B1 0
*RES
1 *1115:Y *1116:B1 12.9 
*END

*D_NET *163 0.00115814
*CONN
*I *1117:B1 I *D sky130_fd_sc_hd__o31a_1
*I *1116:X O *D sky130_fd_sc_hd__o22a_1
*CAP
1 *1117:B1 0.00018888
2 *1116:X 0.00018888
3 *1117:B1 *261:14 0.000337969
4 *1117:B1 *303:38 0
5 *1117:A2 *1117:B1 0.000232099
6 *1117:A3 *1117:B1 7.10775e-05
7 *156:23 *1117:B1 0.000139231
*RES
1 *1116:X *1117:B1 12.795 
*END

*D_NET *164 0.00280194
*CONN
*I *1228:C I *D sky130_fd_sc_hd__nand3_1
*I *1118:A2 I *D sky130_fd_sc_hd__a21o_1
*I *1119:A2 I *D sky130_fd_sc_hd__a211oi_1
*I *1117:X O *D sky130_fd_sc_hd__o31a_1
*CAP
1 *1228:C 2.79363e-05
2 *1118:A2 1.1416e-05
3 *1119:A2 0.000134725
4 *1117:X 0.00063907
5 *164:14 0.000206999
6 *164:10 0.000727864
7 *1119:A2 *1229:B 8.40269e-05
8 *1228:C *1030:A 0
9 *1228:C *1342:A 0
10 *164:10 *1270:CLK 0.000528959
11 *164:10 *1342:A 0
12 *164:14 *1229:B 3.83041e-05
13 *1118:B1 *1118:A2 4.00541e-06
14 *1118:B1 *1119:A2 4.00541e-06
15 *1119:C1 *1119:A2 5.34747e-05
16 *136:14 *1118:A2 3.26889e-05
17 *136:14 *1228:C 2.92496e-05
18 *136:14 *164:10 9.37731e-05
19 *136:14 *164:14 0.000124895
20 *136:23 *1119:A2 4.43682e-05
21 *136:23 *164:14 1.61831e-05
*RES
1 *1117:X *164:10 12.765 
2 *164:10 *164:14 3.485 
3 *164:14 *1119:A2 4.39 
4 *164:14 *1118:A2 2.215 
5 *164:10 *1228:C 4.215 
*END

*D_NET *165 0.000518854
*CONN
*I *1229:A I *D sky130_fd_sc_hd__and2_1
*I *1230:B I *D sky130_fd_sc_hd__nand2_1
*I *1118:X O *D sky130_fd_sc_hd__a21o_1
*CAP
1 *1229:A 3.37454e-05
2 *1230:B 0.000127982
3 *1118:X 6.80445e-05
4 *165:8 0.000229772
5 *1230:B *1229:B 1.22676e-05
6 *1230:B *1342:A 0
7 *165:8 *1229:B 4.7043e-05
*RES
1 *1118:X *165:8 4.98 
2 *165:8 *1230:B 5.745 
3 *165:8 *1229:A 4.05 
*END

*D_NET *166 0.00201835
*CONN
*I *1121:A I *D sky130_fd_sc_hd__or2_1
*I *1137:A1 I *D sky130_fd_sc_hd__o211a_1
*I *1119:Y O *D sky130_fd_sc_hd__a211oi_1
*CAP
1 *1121:A 0
2 *1137:A1 8.16295e-05
3 *1119:Y 0.000530603
4 *166:6 0.000612232
5 *1137:A1 *1137:A2 0.000245078
6 *1137:A1 *168:18 0.000152225
7 *166:6 *1033:A 0.000201508
8 *166:6 *1137:A2 2.7441e-05
9 *166:6 *167:14 8.65905e-05
10 *1119:B1 *166:6 8.10455e-05
*RES
1 *1119:Y *166:6 10.33 
2 *166:6 *1137:A1 4.855 
3 *166:6 *1121:A 1.6 
*END

*D_NET *167 0.0020326
*CONN
*I *1121:B I *D sky130_fd_sc_hd__or2_1
*I *1137:A2 I *D sky130_fd_sc_hd__o211a_1
*I *1120:Y O *D sky130_fd_sc_hd__o211ai_1
*CAP
1 *1121:B 0
2 *1137:A2 0.000211986
3 *1120:Y 0.000597019
4 *167:14 0.000809006
5 *1137:A2 *1137:B1 3.26889e-05
6 *1137:A2 *168:18 1.61831e-05
7 *167:14 *302:16 0
8 *167:14 *335:12 6.60261e-06
9 *167:14 *368:90 0
10 *1137:A1 *1137:A2 0.000245078
11 *166:6 *1137:A2 2.7441e-05
12 *166:6 *167:14 8.65905e-05
*RES
1 *1120:Y *167:14 13.625 
2 *167:14 *1137:A2 6.25 
3 *167:14 *1121:B 1.6 
*END

*D_NET *168 0.00134317
*CONN
*I *1221:A I *D sky130_fd_sc_hd__xor2_1
*I *1222:A1 I *D sky130_fd_sc_hd__a21bo_1
*I *1121:X O *D sky130_fd_sc_hd__or2_1
*CAP
1 *1221:A 0
2 *1222:A1 0.000118272
3 *1121:X 0.000254583
4 *168:18 0.000372856
5 *1222:A1 *1221:B 8.49205e-05
6 *1222:A1 *1222:A2 0.000239807
7 *168:18 *1137:B1 4.9253e-06
8 *168:18 *183:21 4.94326e-05
9 *168:18 *184:14 4.99619e-05
10 *1137:A1 *168:18 0.000152225
11 *1137:A2 *168:18 1.61831e-05
*RES
1 *1121:X *168:18 9.98 
2 *168:18 *1222:A1 4.465 
3 *168:18 *1221:A 1.6 
*END

*D_NET *169 0.00186868
*CONN
*I *1124:A I *D sky130_fd_sc_hd__nand2_1
*I *1138:B2 I *D sky130_fd_sc_hd__o221ai_1
*I *1224:B1_N I *D sky130_fd_sc_hd__a21bo_1
*I *1122:Y O *D sky130_fd_sc_hd__nand2_1
*CAP
1 *1124:A 0.000206432
2 *1138:B2 0.000276732
3 *1224:B1_N 0
4 *1122:Y 0.000218894
5 *169:21 0.000524478
6 *169:14 0.000260209
7 *1124:A *1124:B 0.000131899
8 *1124:A *1224:A2 8.64421e-05
9 *1124:A *170:12 4.6813e-05
10 *1138:B2 *1133:A 0
11 *1138:B2 *1133:B 0
12 *1138:B2 *1223:A 0
13 *1138:B2 *170:12 2.24336e-05
14 *1138:B2 *179:10 0
15 *1138:B2 *302:52 0
16 *169:14 *1122:B 4.82919e-05
17 *169:14 *1123:A 4.60584e-05
18 *169:14 *302:52 0
*RES
1 *1122:Y *169:14 8.405 
2 *169:14 *1224:B1_N 1.6 
3 *169:14 *169:21 0.45 
4 *169:21 *1138:B2 10.295 
5 *169:21 *1124:A 9.05 
*END

*D_NET *170 0.00100778
*CONN
*I *1124:B I *D sky130_fd_sc_hd__nand2_1
*I *1224:A1 I *D sky130_fd_sc_hd__a21bo_1
*I *1123:X O *D sky130_fd_sc_hd__or2_1
*CAP
1 *1124:B 0.000143877
2 *1224:A1 0
3 *1123:X 0.000226439
4 *170:12 0.000370317
5 *1124:B *1224:A2 6.60042e-05
6 *1124:A *1124:B 0.000131899
7 *1124:A *170:12 4.6813e-05
8 *1138:B2 *170:12 2.24336e-05
*RES
1 *1123:X *170:12 8.465 
2 *170:12 *1224:A1 1.6 
3 *170:12 *1124:B 4.495 
*END

*D_NET *171 0.00134258
*CONN
*I *1223:A I *D sky130_fd_sc_hd__xnor2_1
*I *1133:A I *D sky130_fd_sc_hd__nor2_1
*I *1124:Y O *D sky130_fd_sc_hd__nand2_1
*CAP
1 *1223:A 0.000219673
2 *1133:A 0.000104677
3 *1124:Y 5.88751e-05
4 *171:8 0.000383224
5 *1133:A *180:12 5.13714e-05
6 *1133:A *253:10 0.000139933
7 *1223:A *1223:B 0.000259845
8 *1223:A *252:10 1.07797e-05
9 *1223:A *253:10 2.92496e-05
10 *171:8 *253:10 8.49571e-05
11 *1138:B2 *1133:A 0
12 *1138:B2 *1223:A 0
*RES
1 *1124:Y *171:8 4.395 
2 *171:8 *1133:A 6.03 
3 *171:8 *1223:A 8.085 
*END

*D_NET *172 0.00102381
*CONN
*I *1127:A I *D sky130_fd_sc_hd__nand2_1
*I *1226:A1 I *D sky130_fd_sc_hd__a21bo_1
*I *1125:X O *D sky130_fd_sc_hd__or2_1
*CAP
1 *1127:A 0
2 *1226:A1 7.1248e-05
3 *1125:X 0.000130617
4 *172:14 0.000201865
5 *1226:A1 *1226:A2 0.000198339
6 *1226:A1 *1226:B1_N 2.20014e-05
7 *172:14 *1225:B 0.000116158
8 *172:14 *1226:A2 3.53405e-05
9 *172:14 *1226:B1_N 0.000165894
10 *172:14 *173:14 8.23457e-05
*RES
1 *1125:X *172:14 8.825 
2 *172:14 *1226:A1 3.43 
3 *172:14 *1127:A 1.6 
*END

*D_NET *173 0.00251108
*CONN
*I *1226:B1_N I *D sky130_fd_sc_hd__a21bo_1
*I *1127:B I *D sky130_fd_sc_hd__nand2_1
*I *1138:A1 I *D sky130_fd_sc_hd__o221ai_1
*I *1126:Y O *D sky130_fd_sc_hd__nand2_1
*CAP
1 *1226:B1_N 0.000177552
2 *1127:B 0
3 *1138:A1 0.000263305
4 *1126:Y 0.000231666
5 *173:14 0.000309883
6 *173:12 0.000455795
7 *1138:A1 *1132:A 4.87406e-05
8 *1138:A1 *1138:B1 4.82863e-05
9 *1138:A1 *1139:B1 0.000271592
10 *1138:A1 *1225:A 2.61115e-05
11 *1138:A1 *1225:B 2.92496e-05
12 *1138:A1 *253:10 0.000332049
13 *173:14 *1226:A2 4.66108e-05
14 *1226:A1 *1226:B1_N 2.20014e-05
15 *172:14 *1226:B1_N 0.000165894
16 *172:14 *173:14 8.23457e-05
*RES
1 *1126:Y *173:12 9.065 
2 *173:12 *173:14 1.14 
3 *173:14 *1138:A1 12.305 
4 *173:14 *1127:B 1.6 
5 *173:12 *1226:B1_N 4.75 
*END

*D_NET *174 0.00145224
*CONN
*I *1132:A I *D sky130_fd_sc_hd__or2_1
*I *1225:A I *D sky130_fd_sc_hd__xnor2_1
*I *1127:Y O *D sky130_fd_sc_hd__nand2_1
*CAP
1 *1132:A 0.000188799
2 *1225:A 0.000333575
3 *1127:Y 0
4 *174:6 0.000522374
5 *1132:A *179:10 1.52418e-05
6 *1225:A *1225:B 0.000317394
7 *1138:A1 *1132:A 4.87406e-05
8 *1138:A1 *1225:A 2.61115e-05
*RES
1 *1127:Y *174:6 3.6 
2 *174:6 *1225:A 9.24 
3 *174:6 *1132:A 6.555 
*END

*D_NET *175 0.00111524
*CONN
*I *1138:C1 I *D sky130_fd_sc_hd__o221ai_1
*I *1131:A I *D sky130_fd_sc_hd__nand2_1
*I *1128:Y O *D sky130_fd_sc_hd__nand2_1
*CAP
1 *1138:C1 0.000105456
2 *1131:A 1.85694e-05
3 *1128:Y 0.000147556
4 *175:6 0.000271581
5 *1131:A *1129:A 9.53428e-06
6 *1138:C1 *1129:A 2.75229e-05
7 *1138:C1 *1129:B 3.23663e-05
8 *1138:C1 *1138:A2 0.000162311
9 *1138:C1 *1138:B1 5.4155e-06
10 *1138:C1 *178:10 4.21973e-05
11 *175:6 *1129:A 8.95933e-05
12 *175:6 *1129:B 3.42871e-05
13 *175:6 *1131:B 8.8266e-05
14 *175:6 *178:10 2.75145e-05
15 *175:6 *340:28 5.30673e-05
*RES
1 *1128:Y *175:6 5.155 
2 *175:6 *1131:A 1.96 
3 *175:6 *1138:C1 4.48 
*END

*D_NET *176 0.000663128
*CONN
*I *1138:A2 I *D sky130_fd_sc_hd__o221ai_1
*I *1129:Y O *D sky130_fd_sc_hd__nor2_1
*CAP
1 *1138:A2 0.000167971
2 *1129:Y 0.000167971
3 *1138:A2 *1139:B1 0.000164874
4 *1138:C1 *1138:A2 0.000162311
*RES
1 *1129:Y *1138:A2 6.41 
*END

*D_NET *177 0.000197062
*CONN
*I *1131:B I *D sky130_fd_sc_hd__nand2_1
*I *1130:X O *D sky130_fd_sc_hd__or2_1
*CAP
1 *1131:B 1.02651e-05
2 *1130:X 1.02651e-05
3 *1131:B *1129:A 8.8266e-05
4 *175:6 *1131:B 8.8266e-05
*RES
1 *1130:X *1131:B 3.995 
*END

*D_NET *178 0.00141908
*CONN
*I *1132:B I *D sky130_fd_sc_hd__or2_1
*I *1227:A I *D sky130_fd_sc_hd__xnor2_1
*I *1131:Y O *D sky130_fd_sc_hd__nand2_1
*CAP
1 *1132:B 0.000240778
2 *1227:A 0.000104524
3 *1131:Y 0.000142301
4 *178:10 0.000487603
5 *1227:A *1036:A 2.42236e-05
6 *1227:A *1277:D 9.54399e-05
7 *1227:A *302:37 7.71016e-05
8 *178:10 *1036:A 8.68646e-05
9 *178:10 *302:37 1.71013e-05
10 *178:10 *302:52 7.34286e-05
11 *1138:C1 *178:10 4.21973e-05
12 *175:6 *178:10 2.75145e-05
*RES
1 *1131:Y *178:10 6.63 
2 *178:10 *1227:A 6.03 
3 *178:10 *1132:B 6.81 
*END

*D_NET *179 0.00104481
*CONN
*I *1133:B I *D sky130_fd_sc_hd__nor2_1
*I *1138:B1 I *D sky130_fd_sc_hd__o221ai_1
*I *1132:X O *D sky130_fd_sc_hd__or2_1
*CAP
1 *1133:B 0.000158932
2 *1138:B1 0.000117922
3 *1132:X 0.00016502
4 *179:10 0.000441873
5 *1138:B1 *1129:B 0
6 *1138:B1 *1139:B1 9.21168e-05
7 *179:10 *302:52 0
8 *1132:A *179:10 1.52418e-05
9 *1138:A1 *1138:B1 4.82863e-05
10 *1138:B2 *1133:B 0
11 *1138:B2 *179:10 0
12 *1138:C1 *1138:B1 5.4155e-06
*RES
1 *1132:X *179:10 5.94 
2 *179:10 *1138:B1 5.79 
3 *179:10 *1133:B 6.03 
*END

*D_NET *180 0.00202253
*CONN
*I *1139:A3 I *D sky130_fd_sc_hd__a31o_1
*I *1137:B1 I *D sky130_fd_sc_hd__o211a_1
*I *1133:Y O *D sky130_fd_sc_hd__nor2_1
*CAP
1 *1139:A3 0
2 *1137:B1 0.000198367
3 *1133:Y 0.000502641
4 *180:12 0.000701008
5 *1137:B1 *1139:A1 0.00013031
6 *1137:B1 *1139:A2 0.00011695
7 *1137:B1 *336:29 8.65905e-05
8 *180:12 *1134:A 4.18603e-06
9 *180:12 *1136:A 0
10 *180:12 *186:12 7.06865e-05
11 *180:12 *252:10 0.000122803
12 *180:12 *253:10 0
13 *1133:A *180:12 5.13714e-05
14 *1137:A2 *1137:B1 3.26889e-05
15 *168:18 *1137:B1 4.9253e-06
*RES
1 *1133:Y *180:12 11.915 
2 *180:12 *1137:B1 5.875 
3 *180:12 *1139:A3 1.6 
*END

*D_NET *181 0.000923777
*CONN
*I *1222:B1_N I *D sky130_fd_sc_hd__a21bo_1
*I *1136:A I *D sky130_fd_sc_hd__and2_1
*I *1134:Y O *D sky130_fd_sc_hd__nand2_1
*CAP
1 *1222:B1_N 0.000103899
2 *1136:A 0.000151729
3 *1134:Y 0
4 *181:6 0.000255629
5 *1136:A *1134:A 5.16418e-05
6 *1136:A *1135:B 8.23479e-05
7 *1136:A *336:10 1.73877e-05
8 *1136:A *339:18 0.000147852
9 *1222:B1_N *1222:A2 8.65961e-05
10 *1222:B1_N *336:10 2.66935e-05
11 *180:12 *1136:A 0
*RES
1 *1134:Y *181:6 3.6 
2 *181:6 *1136:A 7.065 
3 *181:6 *1222:B1_N 5.265 
*END

*D_NET *182 0.000243126
*CONN
*I *1136:B I *D sky130_fd_sc_hd__and2_1
*I *1135:X O *D sky130_fd_sc_hd__or2_1
*CAP
1 *1136:B 4.73971e-05
2 *1135:X 4.73971e-05
3 *1136:B *183:10 7.22354e-05
4 *1136:B *339:18 7.60965e-05
*RES
1 *1135:X *1136:B 4.7 
*END

*D_NET *183 0.00197808
*CONN
*I *1221:B I *D sky130_fd_sc_hd__xor2_1
*I *1222:A2 I *D sky130_fd_sc_hd__a21bo_1
*I *1137:C1 I *D sky130_fd_sc_hd__o211a_1
*I *1136:X O *D sky130_fd_sc_hd__and2_1
*CAP
1 *1221:B 6.67093e-05
2 *1222:A2 0.000116714
3 *1137:C1 0
4 *1136:X 0.000263094
5 *183:21 0.000241569
6 *183:10 0.000321239
7 *1221:B *336:10 0.000111461
8 *1222:A2 *336:10 4.66108e-05
9 *183:10 *1135:B 0.000141221
10 *183:10 *302:16 0
11 *183:10 *336:10 8.53113e-06
12 *183:10 *339:18 1.96148e-05
13 *183:21 *186:12 0
14 *183:21 *302:16 0
15 *183:21 *336:10 0.000108322
16 *1136:B *183:10 7.22354e-05
17 *1222:A1 *1221:B 8.49205e-05
18 *1222:A1 *1222:A2 0.000239807
19 *1222:B1_N *1222:A2 8.65961e-05
20 *168:18 *183:21 4.94326e-05
*RES
1 *1136:X *183:10 7.41 
2 *183:10 *1137:C1 3.6 
3 *183:10 *183:21 3.635 
4 *183:21 *1222:A2 4.48 
5 *183:21 *1221:B 3.355 
*END

*D_NET *184 0.00277377
*CONN
*I *1140:A I *D sky130_fd_sc_hd__or2_1
*I *1151:A1 I *D sky130_fd_sc_hd__o211ai_1
*I *1137:X O *D sky130_fd_sc_hd__o211a_1
*CAP
1 *1140:A 0
2 *1151:A1 5.00105e-05
3 *1137:X 0.000915496
4 *184:14 0.000965507
5 *1151:A1 *1140:B 0.000131986
6 *1151:A1 *187:6 4.99619e-05
7 *184:14 *1037:A 0.000191552
8 *184:14 *1140:B 4.60584e-05
9 *184:14 *1275:CLK 0.000114753
10 *184:14 *302:10 0.000103192
11 *184:14 *302:16 6.47516e-05
12 *184:14 *302:95 9.05377e-05
13 *168:18 *184:14 4.99619e-05
*RES
1 *1137:X *184:14 23.075 
2 *184:14 *1151:A1 3.1 
3 *184:14 *1140:A 1.6 
*END

*D_NET *185 0.0012562
*CONN
*I *1139:B1 I *D sky130_fd_sc_hd__a31o_1
*I *1138:Y O *D sky130_fd_sc_hd__o221ai_1
*CAP
1 *1139:B1 0.000363807
2 *1138:Y 0.000363807
3 *1138:A1 *1139:B1 0.000271592
4 *1138:A2 *1139:B1 0.000164874
5 *1138:B1 *1139:B1 9.21168e-05
*RES
1 *1138:Y *1139:B1 10.205 
*END

*D_NET *186 0.00239239
*CONN
*I *1140:B I *D sky130_fd_sc_hd__or2_1
*I *1151:A2 I *D sky130_fd_sc_hd__o211ai_1
*I *1139:X O *D sky130_fd_sc_hd__a31o_1
*CAP
1 *1140:B 0.000121731
2 *1151:A2 3.63327e-05
3 *1139:X 0.000673172
4 *186:12 0.000831236
5 *1140:B *1151:B1 1.20052e-05
6 *1151:A2 *187:6 1.17309e-05
7 *186:12 *1034:A 0.00013521
8 *186:12 *1139:A2 0.000124007
9 *186:12 *1275:D 5.4256e-05
10 *186:12 *1278:CLK 6.55406e-05
11 *186:12 *253:10 0
12 *186:12 *368:49 5.23362e-05
13 *1151:A1 *1140:B 0.000131986
14 *1275:RESET_B *186:12 2.60986e-05
15 *180:12 *186:12 7.06865e-05
16 *183:21 *186:12 0
17 *184:14 *1140:B 4.60584e-05
*RES
1 *1139:X *186:12 17.81 
2 *186:12 *1151:A2 2.05 
3 *186:12 *1140:B 4.405 
*END

*D_NET *187 0.000971232
*CONN
*I *1213:A I *D sky130_fd_sc_hd__xor2_1
*I *1212:A I *D sky130_fd_sc_hd__nand2_1
*I *1140:X O *D sky130_fd_sc_hd__or2_1
*CAP
1 *1213:A 7.65065e-05
2 *1212:A 4.8502e-05
3 *1140:X 0.000194764
4 *187:6 0.000319772
5 *1212:A *1151:C1 3.19823e-05
6 *1213:A *1151:B1 0.000136884
7 *187:6 *1151:B1 1.31227e-05
8 *187:6 *1151:C1 8.80056e-05
9 *1151:A1 *187:6 4.99619e-05
10 *1151:A2 *187:6 1.17309e-05
*RES
1 *1140:X *187:6 4.81 
2 *187:6 *1212:A 2.41 
3 *187:6 *1213:A 7.235 
*END

*D_NET *188 0.00127173
*CONN
*I *1147:A_N I *D sky130_fd_sc_hd__and2b_1
*I *1215:A I *D sky130_fd_sc_hd__and3_1
*I *1214:B1 I *D sky130_fd_sc_hd__a21oi_1
*I *1141:Y O *D sky130_fd_sc_hd__xnor2_1
*CAP
1 *1147:A_N 0.000110089
2 *1215:A 1.40665e-05
3 *1214:B1 2.08101e-05
4 *1141:Y 4.43494e-05
5 *188:21 0.000411157
6 *188:6 0.000352161
7 *1147:A_N *1153:A 0.00015997
8 *1147:A_N *1153:B 8.51602e-05
9 *1147:A_N *1153:C 0
10 *1147:A_N *1154:A2 0
11 *1147:A_N *1216:A 0
12 *1214:B1 *247:14 0
13 *1215:A *1154:A2 0
14 *188:21 *1153:A 0
15 *188:21 *1214:A1 1.47256e-05
16 *188:21 *1214:A2 5.83121e-06
17 *188:21 *1216:A 1.73593e-05
18 *188:21 *1216:B 8.53113e-06
19 *1294:A *1147:A_N 2.75229e-05
*RES
1 *1141:Y *188:6 2.05 
2 *188:6 *1214:B1 1.96 
3 *188:6 *188:21 5.4575 
4 *188:21 *1215:A 3.8325 
5 *188:21 *1147:A_N 6.3225 
*END

*D_NET *189 0.000664473
*CONN
*I *1219:A1 I *D sky130_fd_sc_hd__a21bo_1
*I *1144:A I *D sky130_fd_sc_hd__nand2_1
*I *1142:X O *D sky130_fd_sc_hd__or2_1
*CAP
1 *1219:A1 0
2 *1144:A 0.000105958
3 *1142:X 0.000101657
4 *189:12 0.000207615
5 *1144:A *1144:B 0
6 *1144:A *1347:A 0
7 *1144:A *191:12 9.71067e-05
8 *189:12 *1144:B 4.43871e-06
9 *189:12 *1219:A2 8.65961e-05
10 *189:12 *1220:B 0
11 *189:12 *190:8 6.11019e-05
12 acc[18] *189:12 0
13 *35:11 *1144:A 0
*RES
1 *1142:X *189:12 7.775 
2 *189:12 *1144:A 7.745 
3 *189:12 *1219:A1 1.6 
*END

*D_NET *190 0.000605467
*CONN
*I *1219:B1_N I *D sky130_fd_sc_hd__a21bo_1
*I *1144:B I *D sky130_fd_sc_hd__nand2_1
*I *1143:Y O *D sky130_fd_sc_hd__nand2_1
*CAP
1 *1219:B1_N 0
2 *1144:B 0.000139542
3 *1143:Y 5.8949e-05
4 *190:8 0.000198491
5 *1144:B *191:12 3.68682e-05
6 *1144:B *250:10 0.000100544
7 *190:8 *1146:B 0
8 *190:8 *250:10 5.53249e-06
9 *1144:A *1144:B 0
10 *189:12 *1144:B 4.43871e-06
11 *189:12 *190:8 6.11019e-05
*RES
1 *1143:Y *190:8 4.98 
2 *190:8 *1144:B 6.54 
3 *190:8 *1219:B1_N 3.6 
*END

*D_NET *191 0.00111064
*CONN
*I *1146:A I *D sky130_fd_sc_hd__nor2_1
*I *1218:A I *D sky130_fd_sc_hd__xnor2_1
*I *1144:Y O *D sky130_fd_sc_hd__nand2_1
*CAP
1 *1146:A 0.000166495
2 *1218:A 1.85694e-05
3 *1144:Y 0.000161821
4 *191:12 0.000346885
5 *1146:A *1280:D 7.60965e-05
6 *1218:A *1219:A2 9.53428e-06
7 *191:12 *1219:A2 0.000197269
8 *1144:A *191:12 9.71067e-05
9 *1144:B *191:12 3.68682e-05
*RES
1 *1144:Y *191:12 8.9 
2 *191:12 *1218:A 1.96 
3 *191:12 *1146:A 4.48 
*END

*D_NET *192 0.00285371
*CONN
*I *1220:A I *D sky130_fd_sc_hd__xnor2_1
*I *1146:B I *D sky130_fd_sc_hd__nor2_1
*I *1145:Y O *D sky130_fd_sc_hd__xnor2_1
*CAP
1 *1220:A 0.000424658
2 *1146:B 0.000346065
3 *1145:Y 0.000366644
4 *192:8 0.00113737
5 *1146:B *1152:A2 0
6 *1146:B *1155:A2 4.92096e-05
7 *1146:B *1155:C1 0
8 *1146:B *250:10 0
9 *1220:A *1152:A2 0
10 *1220:A *1155:A2 1.73877e-05
11 *1220:A *1281:CLK 0
12 *1220:A *1281:D 0.000142661
13 *1220:A *307:10 5.05437e-05
14 *192:8 *344:8 6.52265e-05
15 *192:8 *344:10 0.000253946
16 *1281:RESET_B *1220:A 0
17 *190:8 *1146:B 0
*RES
1 *1145:Y *192:8 8.535 
2 *192:8 *1146:B 9.315 
3 *192:8 *1220:A 11.19 
*END

*D_NET *193 0.00122752
*CONN
*I *1147:B I *D sky130_fd_sc_hd__and2b_1
*I *1153:C I *D sky130_fd_sc_hd__and3_1
*I *1146:Y O *D sky130_fd_sc_hd__nor2_1
*CAP
1 *1147:B 0
2 *1153:C 0.00013466
3 *1146:Y 0.000302113
4 *193:8 0.000436773
5 *1153:C *1148:B 1.85674e-05
6 *1153:C *1153:A 0
7 *1153:C *1153:B 5.20968e-05
8 *1153:C *1154:A2 0
9 *1153:C *195:8 3.16627e-05
10 *1153:C *247:14 7.49429e-05
11 *193:8 *1153:A 0
12 *193:8 *1154:A2 0
13 *193:8 *1155:C1 0.000176704
14 *193:8 *250:10 0
15 *193:8 *373:10 0
16 *1147:A_N *1153:C 0
*RES
1 *1146:Y *193:8 9.57 
2 *193:8 *1153:C 6.525 
3 *193:8 *1147:B 3.6 
*END

*D_NET *194 0.00240303
*CONN
*I *1151:B1 I *D sky130_fd_sc_hd__o211ai_1
*I *1154:A3 I *D sky130_fd_sc_hd__a31o_1
*I *1147:X O *D sky130_fd_sc_hd__and2b_1
*CAP
1 *1151:B1 0.000573665
2 *1154:A3 0
3 *1147:X 6.44596e-05
4 *194:8 0.000638124
5 *1151:B1 *1151:C1 0.000197826
6 *1151:B1 *1154:B1 0
7 *1151:B1 *197:12 5.79273e-05
8 *1151:B1 *198:10 4.77719e-05
9 *1151:B1 *247:14 7.23533e-05
10 *1151:B1 *373:10 0
11 *1151:B1 *373:12 0
12 *1140:B *1151:B1 1.20052e-05
13 *1213:A *1151:B1 0.000136884
14 *1294:A *1151:B1 0.000462321
15 *1294:A *194:8 0.00012657
16 *187:6 *1151:B1 1.31227e-05
*RES
1 *1147:X *194:8 3.1 
2 *194:8 *1154:A3 1.6 
3 *194:8 *1151:B1 17.075 
*END

*D_NET *195 0.00142297
*CONN
*I *1150:A I *D sky130_fd_sc_hd__and2_1
*I *1214:A1 I *D sky130_fd_sc_hd__a21oi_1
*I *1215:B I *D sky130_fd_sc_hd__and3_1
*I *1148:Y O *D sky130_fd_sc_hd__nand2_1
*CAP
1 *1150:A 6.12331e-05
2 *1214:A1 9.74121e-05
3 *1215:B 2.36697e-05
4 *1148:Y 0
5 *195:8 0.000297252
6 *195:4 0.000237403
7 *1150:A *1148:A 8.40213e-05
8 *1150:A *1148:B 2.30292e-05
9 *1150:A *1154:B1 8.43862e-05
10 *1150:A *341:10 2.75229e-05
11 *1150:A *341:12 1.91597e-05
12 *1214:A1 *1153:A 4.1286e-06
13 *1214:A1 *1214:A2 0.000128647
14 *195:8 *1148:B 1.61831e-05
15 *195:8 *1153:A 8.40269e-05
16 *195:8 *1154:B1 0.0001249
17 *195:8 *1214:A2 1.37675e-05
18 *195:8 *247:14 4.984e-05
19 *1153:C *195:8 3.16627e-05
20 *188:21 *1214:A1 1.47256e-05
*RES
1 *1148:Y *195:4 1.6 
2 *195:4 *195:8 3.88125 
3 *195:8 *1215:B 2.09875 
4 *195:8 *1214:A1 3.83875 
5 *195:4 *1150:A 3.43 
*END

*D_NET *196 0.000206676
*CONN
*I *1150:B I *D sky130_fd_sc_hd__and2_1
*I *1149:X O *D sky130_fd_sc_hd__or2_1
*CAP
1 *1150:B 8.63848e-05
2 *1149:X 8.63848e-05
3 *1150:B *341:40 3.39064e-05
*RES
1 *1149:X *1150:B 8.58 
*END

*D_NET *197 0.00114181
*CONN
*I *1213:B I *D sky130_fd_sc_hd__xor2_1
*I *1212:B I *D sky130_fd_sc_hd__nand2_1
*I *1151:C1 I *D sky130_fd_sc_hd__o211ai_1
*I *1150:X O *D sky130_fd_sc_hd__and2_1
*CAP
1 *1213:B 4.17475e-05
2 *1212:B 0
3 *1151:C1 0.000105832
4 *1150:X 4.06676e-05
5 *197:12 0.000220034
6 *197:6 0.000196616
7 *1213:B *341:10 4.21973e-05
8 *197:6 *341:10 4.88478e-05
9 *197:12 *247:14 7.01303e-05
10 *197:12 *341:40 0
11 *1151:B1 *1151:C1 0.000197826
12 *1151:B1 *197:12 5.79273e-05
13 *1212:A *1151:C1 3.19823e-05
14 *187:6 *1151:C1 8.80056e-05
*RES
1 *1150:X *197:6 2.395 
2 *197:6 *197:12 6.145 
3 *197:12 *1151:C1 4.48 
4 *197:12 *1212:B 1.6 
5 *197:6 *1213:B 2.395 
*END

*D_NET *198 0.00313495
*CONN
*I *1156:A I *D sky130_fd_sc_hd__nand2_1
*I *1171:A1 I *D sky130_fd_sc_hd__a211o_1
*I *1151:Y O *D sky130_fd_sc_hd__o211ai_1
*CAP
1 *1156:A 0.000157259
2 *1171:A1 8.07406e-05
3 *1151:Y 0.000933138
4 *198:10 0.00117114
5 *1156:A *1156:B 0.000114326
6 *1156:A *1171:A2 7.25517e-05
7 *1156:A *203:8 4.94474e-05
8 *1171:A1 *1171:A2 0.000163204
9 *1171:A1 *218:14 0.00012657
10 *1171:A1 *304:18 0
11 *198:10 *1278:CLK 0.0002188
12 *1151:B1 *198:10 4.77719e-05
*RES
1 *1151:Y *198:10 18.69 
2 *198:10 *1171:A1 5.79 
3 *198:10 *1156:A 6.81 
*END

*D_NET *199 0.000960131
*CONN
*I *1155:B1 I *D sky130_fd_sc_hd__a211oi_1
*I *1152:X O *D sky130_fd_sc_hd__o211a_1
*CAP
1 *1155:B1 0.000326648
2 *1152:X 0.000326648
3 *1155:B1 *1152:A1 0.000284364
4 *1155:B1 *1155:A1 9.53428e-06
5 *1155:B1 *202:8 1.29367e-05
*RES
1 *1152:X *1155:B1 7.715 
*END

*D_NET *200 0.000842006
*CONN
*I *1154:B1 I *D sky130_fd_sc_hd__a31o_1
*I *1153:X O *D sky130_fd_sc_hd__and3_1
*CAP
1 *1154:B1 0.000252348
2 *1153:X 0.000252348
3 *1154:B1 *373:10 9.50342e-06
4 *1154:B1 *373:12 0.00011852
5 *1150:A *1154:B1 8.43862e-05
6 *1151:B1 *1154:B1 0
7 *195:8 *1154:B1 0.0001249
*RES
1 *1153:X *1154:B1 11.1 
*END

*D_NET *201 0.00139648
*CONN
*I *1155:C1 I *D sky130_fd_sc_hd__a211oi_1
*I *1154:X O *D sky130_fd_sc_hd__a31o_1
*CAP
1 *1155:C1 0.000492942
2 *1154:X 0.000492942
3 *1155:C1 *1152:C1 6.1452e-05
4 *1155:C1 *250:10 0
5 *1155:C1 *343:8 5.72004e-05
6 *1155:C1 *373:10 6.52819e-05
7 *1146:B *1155:C1 0
8 *1294:A *1155:C1 4.99619e-05
9 *193:8 *1155:C1 0.000176704
*RES
1 *1154:X *1155:C1 17.19 
*END

*D_NET *202 0.00198983
*CONN
*I *1156:B I *D sky130_fd_sc_hd__nand2_1
*I *1171:A2 I *D sky130_fd_sc_hd__a211o_1
*I *1155:Y O *D sky130_fd_sc_hd__a211oi_1
*CAP
1 *1156:B 8.22043e-05
2 *1171:A2 0.000125227
3 *1155:Y 0.000511566
4 *202:8 0.000718997
5 *202:8 *1152:A1 2.39426e-05
6 *202:8 *1152:B1 0.000164874
7 *1155:B1 *202:8 1.29367e-05
8 *1156:A *1156:B 0.000114326
9 *1156:A *1171:A2 7.25517e-05
10 *1171:A1 *1171:A2 0.000163204
*RES
1 *1155:Y *202:8 9.57 
2 *202:8 *1171:A2 6.3 
3 *202:8 *1156:B 5.235 
*END

*D_NET *203 0.00102635
*CONN
*I *1206:A1 I *D sky130_fd_sc_hd__a21bo_1
*I *1205:A I *D sky130_fd_sc_hd__xnor2_1
*I *1156:Y O *D sky130_fd_sc_hd__nand2_1
*CAP
1 *1206:A1 0.000172087
2 *1205:A 0
3 *1156:Y 0.000107567
4 *203:8 0.000279654
5 *1206:A1 *1171:B1 0.000344608
6 *1206:A1 *1205:B 4.99619e-05
7 *203:8 *1205:B 2.30292e-05
8 *1156:A *203:8 4.94474e-05
*RES
1 *1156:Y *203:8 3.445 
2 *203:8 *1205:A 1.6 
3 *203:8 *1206:A1 9.98 
*END

*D_NET *204 0.00250791
*CONN
*I *1174:A I *D sky130_fd_sc_hd__or3_1
*I *1159:A I *D sky130_fd_sc_hd__nand2_1
*I *1208:B1_N I *D sky130_fd_sc_hd__a21bo_1
*I *1157:Y O *D sky130_fd_sc_hd__nand2_1
*CAP
1 *1174:A 0.000378466
2 *1159:A 0
3 *1208:B1_N 0
4 *1157:Y 3.27664e-05
5 *204:19 0.000569827
6 *204:6 0.000224127
7 *1174:A *1159:B 5.14278e-05
8 *1174:A *1166:A 2.75229e-05
9 *1174:A *1166:C 0.000241483
10 *1174:A *1174:B 0.000278117
11 *1174:A *209:12 8.26783e-05
12 *1174:A *311:12 9.48444e-05
13 *1174:A *370:45 0.000176888
14 *204:6 *1157:A 2.86975e-05
15 *204:19 *1157:A 7.74817e-05
16 *204:19 *1159:B 1.08056e-05
17 *204:19 *1166:A 4.82919e-05
18 *204:19 *206:10 7.06865e-05
19 *204:19 *245:12 0.000113797
*RES
1 *1157:Y *204:6 2.05 
2 *204:6 *1208:B1_N 1.6 
3 *204:6 *204:19 7.21 
4 *204:19 *1159:A 1.6 
5 *204:19 *1174:A 15.23 
*END

*D_NET *205 0.00139623
*CONN
*I *1208:A1 I *D sky130_fd_sc_hd__a21bo_1
*I *1159:B I *D sky130_fd_sc_hd__nand2_1
*I *1158:X O *D sky130_fd_sc_hd__or2_1
*CAP
1 *1208:A1 0
2 *1159:B 0.000205787
3 *1158:X 0.000127129
4 *205:8 0.000332916
5 *1159:B *1157:A 4.66108e-05
6 *1159:B *1158:B 2.08881e-05
7 *1159:B *1207:A 4.99581e-05
8 *1159:B *206:10 0.000129115
9 *1159:B *370:45 7.67415e-06
10 *1159:B *370:55 1.4399e-05
11 *205:8 *1157:A 0.000155198
12 *205:8 *1157:B 0
13 *205:8 *1158:B 0.000158175
14 *205:8 *1166:A 1.58555e-05
15 *205:8 *1208:A2 4.82863e-05
16 *205:8 *311:12 2.20014e-05
17 *1174:A *1159:B 5.14278e-05
18 *204:19 *1159:B 1.08056e-05
*RES
1 *1158:X *205:8 4.825 
2 *205:8 *1159:B 9.785 
3 *205:8 *1208:A1 1.6 
*END

*D_NET *206 0.00156291
*CONN
*I *1166:A I *D sky130_fd_sc_hd__nor3_1
*I *1207:A I *D sky130_fd_sc_hd__xnor2_1
*I *1159:Y O *D sky130_fd_sc_hd__nand2_1
*CAP
1 *1166:A 0.000172871
2 *1207:A 0.000175437
3 *1159:Y 7.47209e-05
4 *206:10 0.000423029
5 *1166:A *1157:A 0.00018007
6 *1166:A *245:12 4.89295e-05
7 *1166:A *311:12 4.77719e-05
8 *1207:A *1208:A2 8.1552e-05
9 *1207:A *244:10 1.71013e-05
10 *1159:B *1207:A 4.99581e-05
11 *1159:B *206:10 0.000129115
12 *1174:A *1166:A 2.75229e-05
13 *204:19 *1166:A 4.82919e-05
14 *204:19 *206:10 7.06865e-05
15 *205:8 *1166:A 1.58555e-05
*RES
1 *1159:Y *206:10 5.175 
2 *206:10 *1207:A 6.705 
3 *206:10 *1166:A 7.155 
*END

*D_NET *207 0.000926132
*CONN
*I *1210:A1 I *D sky130_fd_sc_hd__a21bo_1
*I *1162:A I *D sky130_fd_sc_hd__nand2_1
*I *1160:X O *D sky130_fd_sc_hd__or2_1
*CAP
1 *1210:A1 0
2 *1162:A 0.000185818
3 *1160:X 0.000106463
4 *207:10 0.000292281
5 *1162:A *1162:B 0.000122177
6 *1162:A *208:12 3.09233e-05
7 *1162:A *212:18 0
8 *1162:A *370:45 4.82919e-05
9 *207:10 *208:10 9.37731e-05
10 *207:10 *208:12 2.14129e-05
11 *207:10 *348:8 2.49909e-05
*RES
1 *1160:X *207:10 5.43 
2 *207:10 *1162:A 7.56 
3 *207:10 *1210:A1 3.6 
*END

*D_NET *208 0.00249265
*CONN
*I *1173:A_N I *D sky130_fd_sc_hd__nand2b_1
*I *1210:B1_N I *D sky130_fd_sc_hd__a21bo_1
*I *1162:B I *D sky130_fd_sc_hd__nand2_1
*I *1161:Y O *D sky130_fd_sc_hd__nand2_1
*CAP
1 *1173:A_N 0.000301334
2 *1210:B1_N 5.05794e-05
3 *1162:B 6.77393e-05
4 *1161:Y 0.000191081
5 *208:12 0.000129581
6 *208:10 0.000503677
7 *1162:B *1209:A 0.000158297
8 *1162:B *209:12 3.09164e-05
9 *1162:B *212:18 0
10 *1173:A_N *1173:B 0
11 *1173:A_N *1210:A2 2.67275e-05
12 *1173:A_N *1211:A 2.72174e-06
13 *1173:A_N *1211:B 7.60965e-05
14 *1173:A_N *212:10 9.20357e-05
15 *1173:A_N *212:18 1.33293e-05
16 *1210:B1_N *1210:A2 0.000122325
17 *208:10 *1209:A 0.000175207
18 *208:10 *304:64 0.000237249
19 *208:12 *1209:A 4.54719e-05
20 *1162:A *1162:B 0.000122177
21 *1162:A *208:12 3.09233e-05
22 *207:10 *208:10 9.37731e-05
23 *207:10 *208:12 2.14129e-05
*RES
1 *1161:Y *208:10 7.92 
2 *208:10 *208:12 0.615 
3 *208:12 *1162:B 5.745 
4 *208:12 *1210:B1_N 4.74 
5 *208:10 *1173:A_N 9 
*END

*D_NET *209 0.00398549
*CONN
*I *1209:A I *D sky130_fd_sc_hd__xnor2_1
*I *1174:B I *D sky130_fd_sc_hd__or3_1
*I *1166:B I *D sky130_fd_sc_hd__nor3_1
*I *1162:Y O *D sky130_fd_sc_hd__nand2_1
*CAP
1 *1209:A 0.00100654
2 *1174:B 0.000107789
3 *1166:B 0
4 *1162:Y 4.1618e-05
5 *209:12 0.000233512
6 *209:8 0.00117388
7 *1174:B *1167:A 0.000124895
8 *1209:A *1284:D 9.46111e-06
9 *1209:A *1353:A 0
10 *1209:A *304:64 0.000470421
11 *209:8 *370:45 4.66826e-05
12 *209:12 *212:18 0
13 *1162:B *1209:A 0.000158297
14 *1162:B *209:12 3.09164e-05
15 *1174:A *1174:B 0.000278117
16 *1174:A *209:12 8.26783e-05
17 *208:10 *1209:A 0.000175207
18 *208:12 *1209:A 4.54719e-05
*RES
1 *1162:Y *209:8 4.395 
2 *209:8 *209:12 4.655 
3 *209:12 *1166:B 1.6 
4 *209:12 *1174:B 4.48 
5 *209:8 *1209:A 18.585 
*END

*D_NET *210 0.00185943
*CONN
*I *1165:A I *D sky130_fd_sc_hd__nand2_1
*I *1175:A I *D sky130_fd_sc_hd__and4_1
*I *1163:Y O *D sky130_fd_sc_hd__nand2_1
*CAP
1 *1165:A 0
2 *1175:A 0.000183214
3 *1163:Y 0.000213073
4 *210:10 0.000396286
5 *1175:A *1175:B 8.40269e-05
6 *1175:A *1175:C 0.000293726
7 *1175:A *1175:D 2.05056e-05
8 *1175:A *1351:A 4.46892e-05
9 *1175:A *310:14 0.000210851
10 *210:10 *1163:B 2.11084e-05
11 *210:10 *1164:A 0
12 *210:10 *1351:A 0.000176722
13 *210:10 *310:14 0.000215229
*RES
1 *1163:Y *210:10 9.105 
2 *210:10 *1175:A 9.18 
3 *210:10 *1165:A 3.6 
*END

*D_NET *211 0.000538078
*CONN
*I *1173:B I *D sky130_fd_sc_hd__nand2b_1
*I *1165:B I *D sky130_fd_sc_hd__nand2_1
*I *1164:X O *D sky130_fd_sc_hd__or2_1
*CAP
1 *1173:B 0.000154662
2 *1165:B 0
3 *1164:X 7.58138e-05
4 *211:6 0.000230476
5 *1173:B *212:10 7.71259e-05
6 *1173:A_N *1173:B 0
*RES
1 *1164:X *211:6 2.74 
2 *211:6 *1165:B 1.6 
3 *211:6 *1173:B 4.3675 
*END

*D_NET *212 0.00192796
*CONN
*I *1211:A I *D sky130_fd_sc_hd__xnor2_1
*I *1174:C I *D sky130_fd_sc_hd__or3_1
*I *1166:C I *D sky130_fd_sc_hd__nor3_1
*I *1165:Y O *D sky130_fd_sc_hd__nand2_1
*CAP
1 *1211:A 4.90498e-05
2 *1174:C 0
3 *1166:C 9.09794e-05
4 *1165:Y 0.000316922
5 *212:18 0.000370898
6 *212:10 0.00064589
7 *1211:A *1210:A2 0
8 *212:18 *1211:B 2.75229e-05
9 *212:18 *304:62 0
10 *1162:A *212:18 0
11 *1162:B *212:18 0
12 *1173:A_N *1211:A 2.72174e-06
13 *1173:A_N *212:10 9.20357e-05
14 *1173:A_N *212:18 1.33293e-05
15 *1173:B *212:10 7.71259e-05
16 *1174:A *1166:C 0.000241483
17 *209:12 *212:18 0
*RES
1 *1165:Y *212:10 6.31 
2 *212:10 *212:18 8.215 
3 *212:18 *1166:C 3.775 
4 *212:18 *1174:C 1.6 
5 *212:10 *1211:A 2.47 
*END

*D_NET *213 0.000494054
*CONN
*I *1167:A I *D sky130_fd_sc_hd__inv_2
*I *1166:Y O *D sky130_fd_sc_hd__nor3_1
*CAP
1 *1167:A 0.00018458
2 *1166:Y 0.00018458
3 *1174:B *1167:A 0.000124895
*RES
1 *1166:Y *1167:A 9.975 
*END

*D_NET *214 0.00213168
*CONN
*I *1172:A I *D sky130_fd_sc_hd__or2_1
*I *1171:B1 I *D sky130_fd_sc_hd__a211o_1
*I *1167:Y O *D sky130_fd_sc_hd__inv_2
*CAP
1 *1172:A 0.000279941
2 *1171:B1 0.000527378
3 *1167:Y 0
4 *214:4 0.00080732
5 *1171:B1 *1171:C1 6.3438e-05
6 *1171:B1 *1172:B 0
7 *1171:B1 *1282:D 7.89523e-05
8 *1171:B1 *217:12 0
9 *1171:B1 *218:14 3.00381e-05
10 *1206:A1 *1171:B1 0.000344608
*RES
1 *1167:Y *214:4 1.6 
2 *214:4 *1171:B1 15.29 
3 *214:4 *1172:A 4.825 
*END

*D_NET *215 0.00139271
*CONN
*I *1172:B I *D sky130_fd_sc_hd__or2_1
*I *1170:A I *D sky130_fd_sc_hd__nand2_1
*I *1206:B1_N I *D sky130_fd_sc_hd__a21bo_1
*I *1168:Y O *D sky130_fd_sc_hd__nand2_1
*CAP
1 *1172:B 8.2034e-05
2 *1170:A 0
3 *1206:B1_N 4.40309e-05
4 *1168:Y 0.000222479
5 *215:10 0.000184506
6 *215:6 0.000444988
7 *1172:B *304:62 0
8 *1206:B1_N *1206:A2 0.00012657
9 *215:6 *1169:A 0.000121437
10 *215:6 *216:6 6.90876e-05
11 *215:6 *310:14 1.16578e-05
12 *215:10 *1206:A2 3.28565e-05
13 *215:10 *216:6 5.30673e-05
14 *1171:B1 *1172:B 0
*RES
1 *1168:Y *215:6 4.465 
2 *215:6 *215:10 2.1 
3 *215:10 *1206:B1_N 2.74 
4 *215:10 *1170:A 1.6 
5 *215:6 *1172:B 6.725 
*END

*D_NET *216 0.000899387
*CONN
*I *1170:B I *D sky130_fd_sc_hd__nand2_1
*I *1206:A2 I *D sky130_fd_sc_hd__a21bo_1
*I *1169:X O *D sky130_fd_sc_hd__or2_1
*CAP
1 *1170:B 0
2 *1206:A2 0.000237325
3 *1169:X 7.15773e-05
4 *216:6 0.000308903
5 *1206:B1_N *1206:A2 0.00012657
6 *215:6 *216:6 6.90876e-05
7 *215:10 *1206:A2 3.28565e-05
8 *215:10 *216:6 5.30673e-05
*RES
1 *1169:X *216:6 3.43 
2 *216:6 *1206:A2 5.98 
3 *216:6 *1170:B 1.6 
*END

*D_NET *217 0.00133749
*CONN
*I *1171:C1 I *D sky130_fd_sc_hd__a211o_1
*I *1205:B I *D sky130_fd_sc_hd__xnor2_1
*I *1170:Y O *D sky130_fd_sc_hd__nand2_1
*CAP
1 *1171:C1 9.98798e-05
2 *1205:B 0.000114919
3 *1170:Y 0.000344799
4 *217:12 0.000559598
5 *1171:C1 *1280:CLK 9.50342e-06
6 *1171:C1 *1282:D 7.23602e-05
7 *217:12 *304:18 0
8 *217:12 *304:38 0
9 *217:12 *304:47 0
10 *1171:B1 *1171:C1 6.3438e-05
11 *1171:B1 *217:12 0
12 *1206:A1 *1205:B 4.99619e-05
13 *203:8 *1205:B 2.30292e-05
*RES
1 *1170:Y *217:12 11.105 
2 *217:12 *1205:B 3.43 
3 *217:12 *1171:C1 7.745 
*END

*D_NET *218 0.0044093
*CONN
*I *1176:A1 I *D sky130_fd_sc_hd__a21oi_1
*I *1177:A1 I *D sky130_fd_sc_hd__a21o_1
*I *1196:B I *D sky130_fd_sc_hd__and3_1
*I *1171:X O *D sky130_fd_sc_hd__a211o_1
*CAP
1 *1176:A1 0.000185189
2 *1177:A1 6.10262e-05
3 *1196:B 0
4 *1171:X 0.00118031
5 *218:21 0.000381838
6 *218:14 0.00131593
7 *1176:A1 *1288:CLK 7.47215e-05
8 *1176:A1 *224:14 7.75359e-05
9 *1177:A1 *222:14 0
10 *1177:A1 *224:14 0
11 *218:14 *1039:A 0
12 *218:14 *1197:B 0.000131772
13 *218:14 *1282:D 7.9205e-06
14 *218:14 *222:14 9.78012e-05
15 *218:14 *304:18 0.000228766
16 *218:14 *346:10 7.70304e-07
17 *218:14 *370:126 6.42013e-05
18 *1171:A1 *218:14 0.00012657
19 *1171:B1 *218:14 3.00381e-05
20 *1196:A *1176:A1 4.47209e-05
21 *1196:A *218:14 2.49909e-05
22 *1196:A *218:21 0.000111285
23 *1282:RESET_B *218:14 0.00019735
24 *120:19 *1176:A1 6.6564e-05
*RES
1 *1171:X *218:14 23 
2 *218:14 *1196:B 1.6 
3 *218:14 *218:21 1.83 
4 *218:21 *1177:A1 6.47 
5 *218:21 *1176:A1 8.645 
*END

*D_NET *219 0.00057449
*CONN
*I *1175:B I *D sky130_fd_sc_hd__and4_1
*I *1172:X O *D sky130_fd_sc_hd__or2_1
*CAP
1 *1175:B 0.000126711
2 *1172:X 0.000126711
3 *1175:B *1175:D 0.000158072
4 *1175:B *304:62 7.89689e-05
5 *1175:A *1175:B 8.40269e-05
*RES
1 *1172:X *1175:B 10.32 
*END

*D_NET *220 0.000854822
*CONN
*I *1175:C I *D sky130_fd_sc_hd__and4_1
*I *1173:Y O *D sky130_fd_sc_hd__nand2b_1
*CAP
1 *1175:C 0.000108708
2 *1173:Y 0.000108708
3 *1175:C *1175:D 4.82863e-05
4 *1175:C *1351:A 0.000295393
5 *1175:A *1175:C 0.000293726
*RES
1 *1173:Y *1175:C 11.07 
*END

*D_NET *221 0.000729263
*CONN
*I *1175:D I *D sky130_fd_sc_hd__and4_1
*I *1174:X O *D sky130_fd_sc_hd__or3_1
*CAP
1 *1175:D 0.0002512
2 *1174:X 0.0002512
3 *1175:A *1175:D 2.05056e-05
4 *1175:B *1175:D 0.000158072
5 *1175:C *1175:D 4.82863e-05
*RES
1 *1174:X *1175:D 7.22 
*END

*D_NET *222 0.00203046
*CONN
*I *1176:A2 I *D sky130_fd_sc_hd__a21oi_1
*I *1177:A2 I *D sky130_fd_sc_hd__a21o_1
*I *1196:C I *D sky130_fd_sc_hd__and3_1
*I *1175:X O *D sky130_fd_sc_hd__and4_1
*CAP
1 *1176:A2 0.000113605
2 *1177:A2 1.90984e-05
3 *1196:C 0
4 *1175:X 0.000625515
5 *222:21 0.000206131
6 *222:14 0.000698942
7 *222:14 *1046:A 0
8 *222:14 *224:14 0
9 *222:14 *310:14 0
10 *1177:A1 *222:14 0
11 *1177:B1 *1176:A2 4.00541e-06
12 *1177:B1 *1177:A2 4.00541e-06
13 *1196:A *1176:A2 7.60965e-05
14 *1196:A *1177:A2 0
15 *1196:A *222:14 9.16333e-06
16 *1196:A *222:21 9.32784e-05
17 *1287:RESET_B *222:14 0
18 *120:19 *1176:A2 8.28205e-05
19 *218:14 *222:14 9.78012e-05
*RES
1 *1175:X *222:14 14.6 
2 *222:14 *1196:C 1.6 
3 *222:14 *222:21 1.425 
4 *222:21 *1177:A2 1.96 
5 *222:21 *1176:A2 4.135 
*END

*D_NET *223 0.00123644
*CONN
*I *1197:A I *D sky130_fd_sc_hd__nor2_1
*I *1176:Y O *D sky130_fd_sc_hd__a21oi_1
*CAP
1 *1197:A 0.000364561
2 *1176:Y 0.000364561
3 *1197:A *1286:D 0
4 *1197:A *1288:CLK 0.00022921
5 *1197:A *370:126 0.000278111
*RES
1 *1176:Y *1197:A 14.415 
*END

*D_NET *224 0.00349725
*CONN
*I *1198:B I *D sky130_fd_sc_hd__nand2_1
*I *1201:A2 I *D sky130_fd_sc_hd__a21o_1
*I *1179:A3 I *D sky130_fd_sc_hd__a311o_1
*I *1178:A3 I *D sky130_fd_sc_hd__a31oi_1
*I *1177:X O *D sky130_fd_sc_hd__a21o_1
*CAP
1 *1198:B 0
2 *1201:A2 0.000165993
3 *1179:A3 0.000224027
4 *1178:A3 3.76842e-05
5 *1177:X 0.000222365
6 *224:22 0.000341302
7 *224:20 0.00049772
8 *224:14 0.0004745
9 *1178:A3 *314:16 0
10 *1179:A3 *226:8 1.85674e-05
11 *1201:A2 *314:16 0
12 *224:14 *1287:D 0.000197269
13 *224:14 *1288:CLK 6.99988e-05
14 *224:14 *240:10 0.000118294
15 *224:14 *352:10 2.75229e-05
16 *224:20 *240:10 1.61831e-05
17 *224:22 *314:16 0
18 *1176:A1 *224:14 7.75359e-05
19 *1177:A1 *224:14 0
20 *1178:A1 *1179:A3 0.000236355
21 *1179:A1 *1179:A3 1.85674e-05
22 *1179:A2 *1178:A3 4.18603e-06
23 *1198:A *224:20 0.000461941
24 *1201:A1 *1201:A2 4.4073e-05
25 *116:18 *1179:A3 4.82863e-05
26 *116:18 *1201:A2 0
27 *118:19 *1179:A3 4.82919e-05
28 *118:28 *1179:A3 1.60203e-05
29 *118:47 *1178:A3 1.52945e-05
30 *118:47 *1201:A2 1.0183e-05
31 *118:47 *224:22 5.51245e-05
32 *120:19 *224:14 4.99619e-05
33 *222:14 *224:14 0
*RES
1 *1177:X *224:14 11.15 
2 *224:14 *224:20 7.295 
3 *224:20 *224:22 1.635 
4 *224:22 *1178:A3 4.215 
5 *224:22 *1179:A3 7.77 
6 *224:20 *1201:A2 6.54 
7 *224:14 *1198:B 1.6 
*END

*D_NET *225 0.000569088
*CONN
*I *1180:B I *D sky130_fd_sc_hd__xnor2_1
*I *1178:Y O *D sky130_fd_sc_hd__a31oi_1
*CAP
1 *1180:B 0.000146
2 *1178:Y 0.000146
3 *1180:B *301:30 0
4 *1179:A2 *1180:B 9.50342e-06
5 *1179:C1 *1180:B 2.32997e-05
6 *1180:A *1180:B 0.000244284
*RES
1 *1178:Y *1180:B 10.62 
*END

*D_NET *226 0.00214754
*CONN
*I *1189:A2 I *D sky130_fd_sc_hd__a31o_1
*I *1193:A1 I *D sky130_fd_sc_hd__a21oi_1
*I *1184:B I *D sky130_fd_sc_hd__nand2_1
*I *1179:X O *D sky130_fd_sc_hd__a311o_1
*CAP
1 *1189:A2 0.000237594
2 *1193:A1 1.15106e-05
3 *1184:B 1.88809e-05
4 *1179:X 0.000364471
5 *226:17 0.000330171
6 *226:8 0.000464418
7 *1189:A2 *1190:B 0.000161529
8 *1189:A2 *1191:A1 0.000232999
9 *1189:A2 *1193:B1 0.000136884
10 *1189:A2 *1195:A 4.66108e-05
11 *1189:A2 *305:93 0
12 *1193:A1 *1195:A 0
13 *1179:A3 *226:8 1.85674e-05
14 *1184:A *1184:B 5.4155e-06
15 *1184:A *1193:A1 5.4155e-06
16 *1184:A *226:17 5.30673e-05
17 *1189:A1 *1189:A2 4.08514e-05
18 *1191:C1 *1189:A2 1.91597e-05
*RES
1 *1179:X *226:8 7.24 
2 *226:8 *1184:B 1.96 
3 *226:8 *226:17 1.485 
4 *226:17 *1193:A1 1.96 
5 *226:17 *1189:A2 11.255 
*END

*D_NET *227 0.00252825
*CONN
*I *1192:A1 I *D sky130_fd_sc_hd__a21o_1
*I *1189:B1 I *D sky130_fd_sc_hd__a31o_1
*I *1183:A_N I *D sky130_fd_sc_hd__nand2b_1
*I *1181:Y O *D sky130_fd_sc_hd__nor2_1
*CAP
1 *1192:A1 0.000230569
2 *1189:B1 0
3 *1183:A_N 6.35713e-05
4 *1181:Y 0.000278208
5 *227:21 0.00063448
6 *227:10 0.000745691
7 *1183:A_N *1183:B 3.00381e-05
8 *1183:A_N *1291:D 5.83121e-06
9 *1183:A_N *228:6 6.6564e-05
10 *1192:A1 *1192:A2 2.11084e-05
11 *1192:A1 *305:93 0
12 *1192:A1 *371:10 0
13 *227:10 *1182:A 2.96426e-05
14 *227:10 *1182:B 4.0843e-05
15 *227:10 *1183:B 0
16 *227:10 *1360:A 1.08758e-05
17 *227:10 *228:6 0.000115173
18 *227:21 *1189:A3 1.94892e-05
19 *227:21 *228:21 0.000236163
20 *227:21 *371:10 0
21 *227:21 *371:14 0
22 *101:40 *1192:A1 0
*RES
1 *1181:Y *227:10 6.565 
2 *227:10 *1183:A_N 3.085 
3 *227:10 *227:21 10.01 
4 *227:21 *1189:B1 3.6 
5 *227:21 *1192:A1 6.72 
*END

*D_NET *228 0.00323977
*CONN
*I *1189:A3 I *D sky130_fd_sc_hd__a31o_1
*I *1191:A1 I *D sky130_fd_sc_hd__o211a_1
*I *1183:B I *D sky130_fd_sc_hd__nand2b_1
*I *1182:Y O *D sky130_fd_sc_hd__nand2_1
*CAP
1 *1189:A3 1.86197e-05
2 *1191:A1 0.000334373
3 *1183:B 9.69937e-05
4 *1182:Y 0.000297113
5 *228:21 0.00066704
6 *228:6 0.000708154
7 *1183:B *1291:D 1.49334e-05
8 *1191:A1 *1190:B 8.74538e-05
9 *1191:A1 *1191:A2 4.00541e-06
10 *228:6 *1182:A 1.08758e-05
11 *228:21 *305:82 1.07797e-05
12 *1056:A *228:21 0
13 *1183:A_N *1183:B 3.00381e-05
14 *1183:A_N *228:6 6.6564e-05
15 *1189:A2 *1191:A1 0.000232999
16 *101:40 *1189:A3 4.31106e-05
17 *101:40 *228:21 0.000245893
18 *227:10 *1183:B 0
19 *227:10 *228:6 0.000115173
20 *227:21 *1189:A3 1.94892e-05
21 *227:21 *228:21 0.000236163
*RES
1 *1182:Y *228:6 5.5 
2 *228:6 *1183:B 3.11875 
3 *228:6 *228:21 8.99 
4 *228:21 *1191:A1 8.475 
5 *228:21 *1189:A3 4.215 
*END

*D_NET *229 0.000252389
*CONN
*I *1185:A I *D sky130_fd_sc_hd__xnor2_1
*I *1183:Y O *D sky130_fd_sc_hd__nand2b_1
*CAP
1 *1185:A 0.000111176
2 *1183:Y 0.000111176
3 *1185:A *1291:D 3.00381e-05
*RES
1 *1183:Y *1185:A 5.03 
*END

*D_NET *230 0.000745922
*CONN
*I *1185:B I *D sky130_fd_sc_hd__xnor2_1
*I *1184:Y O *D sky130_fd_sc_hd__nand2_1
*CAP
1 *1185:B 0.000342851
2 *1184:Y 0.000342851
3 *1185:B *355:10 0
4 *1056:A *1185:B 2.59981e-05
5 *1184:A *1185:B 3.4222e-05
*RES
1 *1184:Y *1185:B 12.915 
*END

*D_NET *231 0.00236624
*CONN
*I *1188:A_N I *D sky130_fd_sc_hd__and2b_1
*I *1192:B1 I *D sky130_fd_sc_hd__a21o_1
*I *1191:A2 I *D sky130_fd_sc_hd__o211a_1
*I *1186:Y O *D sky130_fd_sc_hd__nor2_1
*CAP
1 *1188:A_N 0
2 *1192:B1 3.49713e-05
3 *1191:A2 0.000131001
4 *1186:Y 0.000456182
5 *231:10 0.000270773
6 *231:6 0.000560984
7 *1191:A2 *1190:B 2.30292e-05
8 *1191:A2 *1191:B1 0.000166806
9 *1191:A2 *1193:B1 2.66935e-05
10 *1192:B1 *1192:A2 1.08758e-05
11 *231:6 *1051:A 4.82919e-05
12 *231:6 *1186:A 6.52349e-05
13 *231:6 *1186:B 4.66108e-05
14 *231:6 *1188:B 1.56428e-05
15 *231:6 *232:6 0.000256169
16 *231:10 *1190:B 0
17 *231:10 *1191:B1 5.4003e-05
18 *231:10 *232:17 0.000109016
19 *231:10 *305:93 3.76596e-05
20 *1191:A1 *1191:A2 4.00541e-06
21 *1292:RESET_B *231:6 4.82919e-05
*RES
1 *1186:Y *231:6 9.64 
2 *231:6 *231:10 4.655 
3 *231:10 *1191:A2 6.495 
4 *231:10 *1192:B1 4.05 
5 *231:6 *1188:A_N 1.6 
*END

*D_NET *232 0.0026221
*CONN
*I *1192:A2 I *D sky130_fd_sc_hd__a21o_1
*I *1191:B1 I *D sky130_fd_sc_hd__o211a_1
*I *1188:B I *D sky130_fd_sc_hd__and2b_1
*I *1187:Y O *D sky130_fd_sc_hd__nand2_1
*CAP
1 *1192:A2 0.000110339
2 *1191:B1 0.000136952
3 *1188:B 0.000110218
4 *1187:Y 0.000380723
5 *232:17 0.000276973
6 *232:6 0.000520622
7 *1191:B1 *1190:B 4.99619e-05
8 *1191:B1 *1193:B1 7.1932e-06
9 *1191:B1 *305:93 0.000201161
10 *232:6 *1051:A 2.75229e-05
11 *232:6 *1186:A 4.82919e-05
12 *232:17 *305:93 0.00011852
13 *1191:A2 *1191:B1 0.000166806
14 *1192:A1 *1192:A2 2.11084e-05
15 *1192:B1 *1192:A2 1.08758e-05
16 *231:6 *1188:B 1.56428e-05
17 *231:6 *232:6 0.000256169
18 *231:10 *1191:B1 5.4003e-05
19 *231:10 *232:17 0.000109016
*RES
1 *1187:Y *232:6 8.26 
2 *232:6 *1188:B 3.085 
3 *232:6 *232:17 3.38 
4 *232:17 *1191:B1 7.005 
5 *232:17 *1192:A2 5.46 
*END

*D_NET *233 0.000232567
*CONN
*I *1190:A I *D sky130_fd_sc_hd__xnor2_1
*I *1188:X O *D sky130_fd_sc_hd__and2b_1
*CAP
1 *1190:A 5.61903e-05
2 *1188:X 5.61903e-05
3 *1190:A *1190:B 0.000120186
*RES
1 *1188:X *1190:A 8.58 
*END

*D_NET *234 0.00143186
*CONN
*I *1190:B I *D sky130_fd_sc_hd__xnor2_1
*I *1189:X O *D sky130_fd_sc_hd__a31o_1
*CAP
1 *1190:B 0.000401085
2 *1189:X 0.000401085
3 *1190:B *1193:B1 0.000139245
4 *1190:B *305:93 0
5 *1189:A2 *1190:B 0.000161529
6 *1190:A *1190:B 0.000120186
7 *1191:A1 *1190:B 8.74538e-05
8 *1191:A2 *1190:B 2.30292e-05
9 *1191:B1 *1190:B 4.99619e-05
10 *1191:C1 *1190:B 4.82863e-05
11 *231:10 *1190:B 0
*RES
1 *1189:X *1190:B 15.855 
*END

*D_NET *235 0.000238988
*CONN
*I *1193:A2 I *D sky130_fd_sc_hd__a21oi_1
*I *1191:X O *D sky130_fd_sc_hd__o211a_1
*CAP
1 *1193:A2 9.13237e-05
2 *1191:X 9.13237e-05
3 *1193:A2 *1193:B1 5.63405e-05
*RES
1 *1191:X *1193:A2 8.835 
*END

*D_NET *236 0.000805747
*CONN
*I *1193:B1 I *D sky130_fd_sc_hd__a21oi_1
*I *1192:X O *D sky130_fd_sc_hd__a21o_1
*CAP
1 *1193:B1 0.000219695
2 *1192:X 0.000219695
3 *1193:B1 *305:82 0
4 *1193:B1 *305:93 0
5 *1189:A2 *1193:B1 0.000136884
6 *1190:B *1193:B1 0.000139245
7 *1191:A2 *1193:B1 2.66935e-05
8 *1191:B1 *1193:B1 7.1932e-06
9 *1193:A2 *1193:B1 5.63405e-05
*RES
1 *1192:X *1193:B1 11.67 
*END

*D_NET *237 0.00027673
*CONN
*I *1195:A I *D sky130_fd_sc_hd__xnor2_1
*I *1193:Y O *D sky130_fd_sc_hd__a21oi_1
*CAP
1 *1195:A 0.00011506
2 *1193:Y 0.00011506
3 *1189:A2 *1195:A 4.66108e-05
4 *1193:A1 *1195:A 0
*RES
1 *1193:Y *1195:A 4.955 
*END

*D_NET *238 0.00165038
*CONN
*I *1195:B I *D sky130_fd_sc_hd__xnor2_1
*I *1194:Y O *D sky130_fd_sc_hd__xnor2_1
*CAP
1 *1195:B 0.000491669
2 *1194:Y 0.000491669
3 *1195:B *1194:B 2.60908e-05
4 *1195:B *1293:CLK 0.000158066
5 *1195:B *1293:D 6.52265e-05
6 *1195:B *1359:A 0.000163019
7 *1195:B *332:32 0.000254644
*RES
1 *1194:Y *1195:B 16.77 
*END

*D_NET *239 0.00066432
*CONN
*I *1197:B I *D sky130_fd_sc_hd__nor2_1
*I *1196:X O *D sky130_fd_sc_hd__and3_1
*CAP
1 *1197:B 0.000202708
2 *1196:X 0.000202708
3 *1197:B *1286:D 4.05358e-05
4 *1197:B *1288:CLK 0
5 *1197:B *370:126 8.65961e-05
6 *218:14 *1197:B 0.000131772
*RES
1 *1196:X *1197:B 11.67 
*END

*D_NET *240 0.00168155
*CONN
*I *1200:A2 I *D sky130_fd_sc_hd__a21bo_1
*I *1199:B I *D sky130_fd_sc_hd__xnor2_1
*I *1198:Y O *D sky130_fd_sc_hd__nand2_1
*CAP
1 *1200:A2 0.000142979
2 *1199:B 0.000105506
3 *1198:Y 0.000213738
4 *240:10 0.000462223
5 *1200:A2 *1057:B 7.06865e-05
6 *1200:A2 *1288:CLK 2.71296e-05
7 *1200:A2 *352:10 0.000224415
8 *1200:A2 *352:18 3.31282e-05
9 *240:10 *1287:D 7.23602e-05
10 *240:10 *352:10 0.000141599
11 *1059:A *1200:A2 0
12 *1199:A *1200:A2 0
13 *1199:A *240:10 0
14 *1200:A1 *1200:A2 5.33085e-05
15 *224:14 *240:10 0.000118294
16 *224:20 *240:10 1.61831e-05
*RES
1 *1198:Y *240:10 7.41 
2 *240:10 *1199:B 5.085 
3 *240:10 *1200:A2 7.53 
*END

*D_NET *241 0.000801994
*CONN
*I *1202:B I *D sky130_fd_sc_hd__xnor2_1
*I *1200:X O *D sky130_fd_sc_hd__a21bo_1
*CAP
1 *1202:B 0.000354333
2 *1200:X 0.000354333
3 *1202:B *1044:A 0
4 *1202:B *1057:A 8.8266e-05
5 *1202:B *1057:B 5.062e-06
6 *1202:B *1288:CLK 0
7 *1202:B *1356:A 0
8 *1202:B *370:32 0
*RES
1 *1200:X *1202:B 12.36 
*END

*D_NET *242 0.000412266
*CONN
*I *1203:C I *D sky130_fd_sc_hd__and3_1
*I *1201:X O *D sky130_fd_sc_hd__a21o_1
*CAP
1 *1203:C 0.000186052
2 *1201:X 0.000186052
3 *1066:B *1203:C 5.48904e-07
4 *1070:A1 *1203:C 0
5 *111:12 *1203:C 3.86529e-05
6 *112:6 *1203:C 9.60582e-07
*RES
1 *1201:X *1203:C 10.275 
*END

*D_NET *243 0.000465737
*CONN
*I *1204:B I *D sky130_fd_sc_hd__xor2_1
*I *1203:X O *D sky130_fd_sc_hd__and3_1
*CAP
1 *1204:B 8.68511e-05
2 *1203:X 8.68511e-05
3 *1066:B *1204:B 0.000241483
4 *1070:A1 *1204:B 5.05521e-05
*RES
1 *1203:X *1204:B 5.735 
*END

*D_NET *244 0.00107402
*CONN
*I *1208:A2 I *D sky130_fd_sc_hd__a21bo_1
*I *1207:B I *D sky130_fd_sc_hd__xnor2_1
*I *1206:X O *D sky130_fd_sc_hd__a21bo_1
*CAP
1 *1208:A2 9.58508e-05
2 *1207:B 0
3 *1206:X 0.00033135
4 *244:10 0.0004272
5 *1208:A2 *1157:A 4.82863e-05
6 *1208:A2 *1158:B 2.43962e-05
7 *1207:A *1208:A2 8.1552e-05
8 *1207:A *244:10 1.71013e-05
9 *205:8 *1208:A2 4.82863e-05
*RES
1 *1206:X *244:10 7.755 
2 *244:10 *1207:B 3.6 
3 *244:10 *1208:A2 5.94 
*END

*D_NET *245 0.00268934
*CONN
*I *1210:A2 I *D sky130_fd_sc_hd__a21bo_1
*I *1209:B I *D sky130_fd_sc_hd__xnor2_1
*I *1208:X O *D sky130_fd_sc_hd__a21bo_1
*CAP
1 *1210:A2 0.000337426
2 *1209:B 0.000565524
3 *1208:X 0.000214295
4 *245:12 0.00111724
5 *1209:B *1043:A 9.28507e-05
6 *1209:B *304:72 0
7 *245:12 *1043:A 5.02217e-05
8 *1166:A *245:12 4.89295e-05
9 *1173:A_N *1210:A2 2.67275e-05
10 *1210:B1_N *1210:A2 0.000122325
11 *1211:A *1210:A2 0
12 *204:19 *245:12 0.000113797
*RES
1 *1208:X *245:12 9.215 
2 *245:12 *1209:B 13.88 
3 *245:12 *1210:A2 6.55 
*END

*D_NET *246 0.000187769
*CONN
*I *1211:B I *D sky130_fd_sc_hd__xnor2_1
*I *1210:X O *D sky130_fd_sc_hd__a21bo_1
*CAP
1 *1211:B 4.20748e-05
2 *1210:X 4.20748e-05
3 *1173:A_N *1211:B 7.60965e-05
4 *212:18 *1211:B 2.75229e-05
*RES
1 *1210:X *1211:B 4.34 
*END

*D_NET *247 0.002306
*CONN
*I *1214:A2 I *D sky130_fd_sc_hd__a21oi_1
*I *1215:C I *D sky130_fd_sc_hd__and3_1
*I *1212:Y O *D sky130_fd_sc_hd__nand2_1
*CAP
1 *1214:A2 6.28895e-05
2 *1215:C 2.0498e-05
3 *1212:Y 0.000582045
4 *247:14 0.000665432
5 *1214:A2 *1153:A 2.76966e-05
6 *247:14 *1148:B 0.00012657
7 *247:14 *1153:A 3.74193e-05
8 *247:14 *341:10 0.000295574
9 *247:14 *341:12 7.23635e-05
10 *1151:B1 *247:14 7.23533e-05
11 *1153:C *247:14 7.49429e-05
12 *1214:A1 *1214:A2 0.000128647
13 *1214:B1 *247:14 0
14 *188:21 *1214:A2 5.83121e-06
15 *195:8 *1214:A2 1.37675e-05
16 *195:8 *247:14 4.984e-05
17 *197:12 *247:14 7.01303e-05
*RES
1 *1212:Y *247:14 14.18 
2 *247:14 *1215:C 2.11 
3 *247:14 *1214:A2 3.445 
*END

*D_NET *248 0.00106084
*CONN
*I *1217:B1 I *D sky130_fd_sc_hd__a21o_1
*I *1216:A I *D sky130_fd_sc_hd__nor2_1
*I *1214:Y O *D sky130_fd_sc_hd__a21oi_1
*CAP
1 *1217:B1 0.000137277
2 *1216:A 0.000200038
3 *1214:Y 0
4 *248:6 0.000337316
5 *1216:A *1153:A 0
6 *1216:A *1216:B 0
7 *1216:A *1346:A 8.8266e-05
8 *1216:A *342:10 0
9 *1216:A *342:19 0
10 *1217:B1 *1153:A 0
11 *1217:B1 *1153:B 0.000163204
12 *1217:B1 *1217:A2 4.82919e-05
13 *1217:B1 *342:19 0
14 *1147:A_N *1216:A 0
15 *1294:A *1217:B1 6.90876e-05
16 *188:21 *1216:A 1.73593e-05
*RES
1 *1214:Y *248:6 3.6 
2 *248:6 *1216:A 7.05 
3 *248:6 *1217:B1 6.825 
*END

*D_NET *249 0.000182958
*CONN
*I *1216:B I *D sky130_fd_sc_hd__nor2_1
*I *1215:X O *D sky130_fd_sc_hd__and3_1
*CAP
1 *1216:B 8.72135e-05
2 *1215:X 8.72135e-05
3 *1216:A *1216:B 0
4 *188:21 *1216:B 8.53113e-06
*RES
1 *1215:X *1216:B 8.58 
*END

*D_NET *250 0.00134735
*CONN
*I *1218:B I *D sky130_fd_sc_hd__xnor2_1
*I *1219:A2 I *D sky130_fd_sc_hd__a21bo_1
*I *1217:X O *D sky130_fd_sc_hd__a21o_1
*CAP
1 *1218:B 0
2 *1219:A2 0.000133193
3 *1217:X 0.000336477
4 *250:10 0.00046967
5 *1219:A2 *1280:D 0
6 *250:10 *1153:A 8.53113e-06
7 *250:10 *1347:A 0
8 *1144:B *250:10 0.000100544
9 *1146:B *250:10 0
10 *1155:C1 *250:10 0
11 *1218:A *1219:A2 9.53428e-06
12 *189:12 *1219:A2 8.65961e-05
13 *190:8 *250:10 5.53249e-06
14 *191:12 *1219:A2 0.000197269
15 *193:8 *250:10 0
*RES
1 *1217:X *250:10 11.315 
2 *250:10 *1219:A2 4.48 
3 *250:10 *1218:B 1.6 
*END

*D_NET *251 0.00113851
*CONN
*I *1220:B I *D sky130_fd_sc_hd__xnor2_1
*I *1219:X O *D sky130_fd_sc_hd__a21bo_1
*CAP
1 *1220:B 0.00032205
2 *1219:X 0.00032205
3 *1220:B *1145:A 7.53115e-05
4 *1220:B *1349:A 0.000208484
5 *1220:B *307:10 0.00010516
6 *1220:B *307:14 7.66727e-05
7 acc[18] *1220:B 2.87867e-05
8 *35:11 *1220:B 0
9 *189:12 *1220:B 0
*RES
1 *1219:X *1220:B 14.955 
*END

*D_NET *252 0.00208669
*CONN
*I *1223:B I *D sky130_fd_sc_hd__xnor2_1
*I *1224:A2 I *D sky130_fd_sc_hd__a21bo_1
*I *1222:X O *D sky130_fd_sc_hd__a21bo_1
*CAP
1 *1223:B 0.000196712
2 *1224:A2 0.00011298
3 *1222:X 0.000229704
4 *252:10 0.000539396
5 *1223:B *1275:D 0.00012438
6 *1224:A2 *253:10 0.000196045
7 *252:10 *253:10 0.000141599
8 *1124:A *1224:A2 8.64421e-05
9 *1124:B *1224:A2 6.60042e-05
10 *1223:A *1223:B 0.000259845
11 *1223:A *252:10 1.07797e-05
12 *180:12 *252:10 0.000122803
*RES
1 *1222:X *252:10 8.355 
2 *252:10 *1224:A2 6.465 
3 *252:10 *1223:B 8.175 
*END

*D_NET *253 0.00323334
*CONN
*I *1226:A2 I *D sky130_fd_sc_hd__a21bo_1
*I *1225:B I *D sky130_fd_sc_hd__xnor2_1
*I *1224:X O *D sky130_fd_sc_hd__a21bo_1
*CAP
1 *1226:A2 0.000205012
2 *1225:B 0.000183477
3 *1224:X 0.000394717
4 *253:10 0.000783206
5 *1133:A *253:10 0.000139933
6 *1138:A1 *1225:B 2.92496e-05
7 *1138:A1 *253:10 0.000332049
8 *1223:A *253:10 2.92496e-05
9 *1224:A2 *253:10 0.000196045
10 *1225:A *1225:B 0.000317394
11 *1226:A1 *1226:A2 0.000198339
12 *171:8 *253:10 8.49571e-05
13 *172:14 *1225:B 0.000116158
14 *172:14 *1226:A2 3.53405e-05
15 *173:14 *1226:A2 4.66108e-05
16 *180:12 *253:10 0
17 *186:12 *253:10 0
18 *252:10 *253:10 0.000141599
*RES
1 *1224:X *253:10 12.93 
2 *253:10 *1225:B 7.83 
3 *253:10 *1226:A2 7.17 
*END

*D_NET *254 0.000242805
*CONN
*I *1227:B I *D sky130_fd_sc_hd__xnor2_1
*I *1226:X O *D sky130_fd_sc_hd__a21bo_1
*CAP
1 *1227:B 0.000121402
2 *1226:X 0.000121402
*RES
1 *1226:X *1227:B 5.03 
*END

*D_NET *255 0.000588821
*CONN
*I *1229:B I *D sky130_fd_sc_hd__and2_1
*I *1228:Y O *D sky130_fd_sc_hd__nand3_1
*CAP
1 *1229:B 0.000132793
2 *1228:Y 0.000132793
3 *1229:B *1342:A 0.000141592
4 *1119:A2 *1229:B 8.40269e-05
5 *1230:B *1229:B 1.22676e-05
6 *164:14 *1229:B 3.83041e-05
7 *165:8 *1229:B 4.7043e-05
*RES
1 *1228:Y *1229:B 9.975 
*END

*D_NET *256 0.00130506
*CONN
*I *1231:B I *D sky130_fd_sc_hd__xnor2_1
*I *1232:A2 I *D sky130_fd_sc_hd__a21bo_1
*I *1230:Y O *D sky130_fd_sc_hd__nand2_1
*CAP
1 *1231:B 5.44009e-05
2 *1232:A2 0.000178022
3 *1230:Y 0.000217503
4 *256:8 0.000449926
5 *1231:B *1271:D 5.83121e-06
6 *1232:A2 *1342:A 0
7 *256:8 *1342:A 0
8 *1085:C *1232:A2 0
9 *1232:A1 *1232:A2 0.000203178
10 *128:12 *1232:A2 1.61831e-05
11 *130:12 *1232:A2 0.000171929
12 *130:12 *256:8 8.08153e-06
*RES
1 *1230:Y *256:8 7.275 
2 *256:8 *1232:A2 7.77 
3 *256:8 *1231:B 4.395 
*END

*D_NET *257 0.00257414
*CONN
*I *1234:A2 I *D sky130_fd_sc_hd__a21bo_1
*I *1233:B I *D sky130_fd_sc_hd__xnor2_1
*I *1232:X O *D sky130_fd_sc_hd__a21bo_1
*CAP
1 *1234:A2 0
2 *1233:B 0.000220441
3 *1232:X 0.000434381
4 *257:6 0.000654822
5 *1077:B *257:6 8.65905e-05
6 *1080:B *257:6 0.000198945
7 *1233:A *1233:B 0.000578529
8 *1233:A *257:6 0.000277223
9 *1234:B1_N *257:6 3.90495e-05
10 *124:10 *257:6 3.00381e-05
11 *125:14 *257:6 4.82863e-05
12 *128:12 *257:6 5.83121e-06
*RES
1 *1232:X *257:6 10.33 
2 *257:6 *1233:B 6.88 
3 *257:6 *1234:A2 1.6 
*END

*D_NET *258 0.000962333
*CONN
*I *1235:B I *D sky130_fd_sc_hd__xnor2_1
*I *1234:X O *D sky130_fd_sc_hd__a21bo_1
*CAP
1 *1235:B 0.000169494
2 *1234:X 0.000169494
3 *1235:B *302:22 0.000178504
4 *1235:B *339:12 0.000320834
5 *1233:A *1235:B 0.000124007
*RES
1 *1234:X *1235:B 12.015 
*END

*D_NET *259 0.00125056
*CONN
*I *1238:A I *D sky130_fd_sc_hd__and2_1
*I *1239:A2 I *D sky130_fd_sc_hd__a21o_1
*I *1240:C I *D sky130_fd_sc_hd__nand3_1
*I *1236:X O *D sky130_fd_sc_hd__or2_1
*CAP
1 *1238:A 5.10458e-05
2 *1239:A2 0
3 *1240:C 7.62471e-05
4 *1236:X 0
5 *259:8 0.000190793
6 *259:4 0.000165592
7 *1240:C *1241:B 4.66108e-05
8 *1240:C *303:36 7.09999e-05
9 *259:8 *303:36 0.000169542
10 *1113:C *259:8 0
11 *1236:A *1238:A 5.4155e-06
12 *1237:A *1238:A 6.60007e-05
13 *1240:B *1240:C 0.000134516
14 *157:20 *259:8 0.000183738
15 *157:22 *1240:C 9.50342e-06
16 *157:22 *259:8 6.52181e-05
17 *159:20 *1238:A 5.83121e-06
18 *159:20 *259:8 9.50342e-06
*RES
1 *1236:X *259:4 1.6 
2 *259:4 *259:8 5.675 
3 *259:8 *1240:C 5.685 
4 *259:8 *1239:A2 3.6 
5 *259:4 *1238:A 2.665 
*END

*D_NET *260 0.000293502
*CONN
*I *1238:B I *D sky130_fd_sc_hd__and2_1
*I *1237:Y O *D sky130_fd_sc_hd__nand2_1
*CAP
1 *1238:B 8.425e-05
2 *1237:Y 8.425e-05
3 *1237:A *1238:B 0.000110267
4 *159:20 *1238:B 1.47347e-05
*RES
1 *1237:Y *1238:B 5.045 
*END

*D_NET *261 0.00195157
*CONN
*I *1241:A I *D sky130_fd_sc_hd__and2_1
*I *1243:C I *D sky130_fd_sc_hd__and3_1
*I *1242:A2 I *D sky130_fd_sc_hd__a21oi_1
*I *1239:X O *D sky130_fd_sc_hd__a21o_1
*CAP
1 *1241:A 8.03763e-05
2 *1243:C 2.19236e-05
3 *1242:A2 1.46148e-05
4 *1239:X 2.08101e-05
5 *261:14 0.000326284
6 *261:6 0.000390932
7 *261:14 *303:38 0
8 *1106:A *1242:A2 1.46744e-05
9 *1106:A *1243:C 8.30552e-05
10 *1113:C *261:14 0.000180682
11 *1116:B1 *261:14 8.70923e-05
12 *1117:A2 *1241:A 1.91597e-05
13 *1117:A3 *1241:A 9.66021e-05
14 *1117:A3 *261:6 0
15 *1117:A3 *261:14 2.75229e-05
16 *1117:B1 *261:14 0.000337969
17 *1242:A1 *1242:A2 5.30673e-05
18 *1242:A1 *1243:C 2.01885e-05
19 *149:21 *1242:A2 4.99619e-05
20 *149:21 *1243:C 0
21 *153:20 *261:14 0
22 *154:18 *1243:C 7.73976e-06
23 *154:18 *261:14 0
24 *156:6 *1241:A 9.13951e-05
25 *156:8 *1241:A 2.75229e-05
*RES
1 *1239:X *261:6 1.96 
2 *261:6 *261:14 10.675 
3 *261:14 *1242:A2 2.395 
4 *261:14 *1243:C 2.47 
5 *261:6 *1241:A 3.775 
*END

*D_NET *262 0.000669262
*CONN
*I *1241:B I *D sky130_fd_sc_hd__and2_1
*I *1240:Y O *D sky130_fd_sc_hd__nand3_1
*CAP
1 *1241:B 0.000215291
2 *1240:Y 0.000215291
3 *1241:B *1267:D 3.23391e-05
4 *1241:B *303:36 0.000113797
5 *1241:B *369:20 0
6 *1241:B *369:30 4.01019e-05
7 *1240:B *1241:B 5.83121e-06
8 *1240:C *1241:B 4.66108e-05
*RES
1 *1240:Y *1241:B 10.41 
*END

*D_NET *263 0.00113733
*CONN
*I *1244:A I *D sky130_fd_sc_hd__nor2_1
*I *1245:B1 I *D sky130_fd_sc_hd__a21oi_1
*I *1242:Y O *D sky130_fd_sc_hd__a21oi_1
*CAP
1 *1244:A 8.12594e-06
2 *1245:B1 0.000119667
3 *1242:Y 0.000110529
4 *263:12 0.000238322
5 *1244:A *1268:D 4.82919e-05
6 *1245:B1 *1115:A1 6.28765e-05
7 *1245:B1 *1244:B 2.97004e-06
8 *1245:B1 *1269:CLK 0
9 *1245:B1 *303:38 0
10 *1245:B1 *327:8 5.53249e-06
11 *263:12 *1115:A1 4.21973e-05
12 *263:12 *1259:A 0
13 *263:12 *1268:D 0.000197264
14 *1115:B1 *1244:A 3.74161e-05
15 *1115:B1 *263:12 0.000124895
16 *149:10 *1245:B1 0
17 *149:10 *263:12 0.000139245
*RES
1 *1242:Y *263:12 9.065 
2 *263:12 *1245:B1 7.49 
3 *263:12 *1244:A 2.05 
*END

*D_NET *264 0.000245432
*CONN
*I *1244:B I *D sky130_fd_sc_hd__nor2_1
*I *1243:X O *D sky130_fd_sc_hd__and3_1
*CAP
1 *1244:B 8.50509e-05
2 *1243:X 8.50509e-05
3 *1106:B *1244:B 0
4 *1116:B1 *1244:B 7.23602e-05
5 *1245:B1 *1244:B 2.97004e-06
6 *149:10 *1244:B 0
*RES
1 *1243:X *1244:B 8.835 
*END

*D_NET *265 0.00125351
*CONN
*I *1246:B I *D sky130_fd_sc_hd__xnor2_1
*I *1245:Y O *D sky130_fd_sc_hd__a21oi_1
*CAP
1 *1246:B 0.000571718
2 *1245:Y 0.000571718
3 *1246:B *303:55 4.45527e-05
4 *1246:A *1246:B 6.5525e-05
*RES
1 *1245:Y *1246:B 14.31 
*END

*D_NET *266 0.000603678
*CONN
*I *1249:B I *D sky130_fd_sc_hd__nor2_1
*I *1248:X O *D sky130_fd_sc_hd__o21a_1
*CAP
1 *1249:B 0.000301839
2 *1248:X 0.000301839
3 *1248:B1 *1249:B 0
4 *1249:A *1249:B 0
*RES
1 *1248:X *1249:B 11.67 
*END

*D_NET *267 0.000338424
*CONN
*I *1251:B I *D sky130_fd_sc_hd__xnor2_1
*I *1250:Y O *D sky130_fd_sc_hd__nor2_1
*CAP
1 *1251:B 0.000128774
2 *1250:Y 0.000128774
3 *1251:B *1265:CLK 0
4 *1250:B *1251:B 4.82919e-05
5 *1251:A *1251:B 3.25831e-05
6 *145:12 *1251:B 0
*RES
1 *1250:Y *1251:B 9.285 
*END

*D_NET *268 0.000342561
*CONN
*I *1253:B I *D sky130_fd_sc_hd__and2_1
*I *1252:X O *D sky130_fd_sc_hd__or2_1
*CAP
1 *1253:B 0.000105515
2 *1252:X 0.000105515
3 *1253:B *1252:A 4.66108e-05
4 *143:14 *1253:B 8.49205e-05
*RES
1 *1252:X *1253:B 5.03 
*END

*D_NET *269 0.000445328
*CONN
*I *1262:D I *D sky130_fd_sc_hd__dfrtp_1
*I *1253:X O *D sky130_fd_sc_hd__and2_1
*CAP
1 *1262:D 0.000132393
2 *1253:X 0.000132393
3 *1262:D *1094:A 5.39718e-05
4 *1262:D *306:10 0
5 *1262:D *345:29 0.00012657
*RES
1 *1253:X *1262:D 9.465 
*END

*D_NET *270 0.00105879
*CONN
*I *1263:D I *D sky130_fd_sc_hd__dfrtp_1
*I *1247:Y O *D sky130_fd_sc_hd__xnor2_1
*CAP
1 *1263:D 0.000344424
2 *1247:Y 0.000344424
3 *1263:D *1262:CLK 0.000205118
4 *1263:D *303:97 4.18603e-06
5 *1263:D *345:10 0
6 *1263:D *345:29 0
7 *143:14 *1263:D 0.000160635
*RES
1 *1247:Y *1263:D 14.4 
*END

*D_NET *271 0.000363125
*CONN
*I *1264:D I *D sky130_fd_sc_hd__dfrtp_1
*I *1249:Y O *D sky130_fd_sc_hd__nor2_1
*CAP
1 *1264:D 0.000171008
2 *1249:Y 0.000171008
3 *1249:A *1264:D 2.11084e-05
*RES
1 *1249:Y *1264:D 9.465 
*END

*D_NET *272 0.000298469
*CONN
*I *1265:D I *D sky130_fd_sc_hd__dfrtp_4
*I *1251:Y O *D sky130_fd_sc_hd__xnor2_1
*CAP
1 *1265:D 0.000110599
2 *1251:Y 0.000110599
3 *1265:D *368:18 7.72706e-05
*RES
1 *1251:Y *1265:D 5.045 
*END

*D_NET *273 0.000245455
*CONN
*I *1266:D I *D sky130_fd_sc_hd__dfrtp_1
*I *1238:X O *D sky130_fd_sc_hd__and2_1
*CAP
1 *1266:D 4.07321e-05
2 *1238:X 4.07321e-05
3 *1266:D *1364:A 7.23533e-05
4 *1266:D *303:36 4.61658e-05
5 *1266:D *360:10 4.54719e-05
*RES
1 *1238:X *1266:D 8.58 
*END

*D_NET *274 0.000178807
*CONN
*I *1267:D I *D sky130_fd_sc_hd__dfrtp_1
*I *1241:X O *D sky130_fd_sc_hd__and2_1
*CAP
1 *1267:D 3.73338e-05
2 *1241:X 3.73338e-05
3 *1267:D *303:36 9.29751e-06
4 *1267:D *369:30 8.53113e-06
5 *1267:D *369:56 5.39718e-05
6 *1241:B *1267:D 3.23391e-05
*RES
1 *1241:X *1267:D 8.325 
*END

*D_NET *275 0.00172554
*CONN
*I *1268:D I *D sky130_fd_sc_hd__dfrtp_1
*I *1244:Y O *D sky130_fd_sc_hd__nor2_1
*CAP
1 *1268:D 0.000561653
2 *1244:Y 0.000561653
3 *1268:D *1115:A2 0.0001249
4 *1268:D *364:8 8.65905e-05
5 *1115:B1 *1268:D 2.30292e-05
6 *1116:B1 *1268:D 0.000122155
7 *1244:A *1268:D 4.82919e-05
8 *263:12 *1268:D 0.000197264
*RES
1 *1244:Y *1268:D 13.31 
*END

*D_NET *276 0.000286932
*CONN
*I *1269:D I *D sky130_fd_sc_hd__dfrtp_1
*I *1246:Y O *D sky130_fd_sc_hd__xnor2_1
*CAP
1 *1269:D 0.000112028
2 *1246:Y 0.000112028
3 *1246:A *1269:D 6.28765e-05
*RES
1 *1246:Y *1269:D 9.03 
*END

*D_NET *277 0.000243421
*CONN
*I *1270:D I *D sky130_fd_sc_hd__dfrtp_1
*I *1229:X O *D sky130_fd_sc_hd__and2_1
*CAP
1 *1270:D 8.3662e-05
2 *1229:X 8.3662e-05
3 *1270:D *1270:CLK 7.60965e-05
*RES
1 *1229:X *1270:D 4.685 
*END

*D_NET *278 0.00116053
*CONN
*I *1271:D I *D sky130_fd_sc_hd__dfrtp_1
*I *1231:Y O *D sky130_fd_sc_hd__xnor2_1
*CAP
1 *1271:D 0.000543647
2 *1231:Y 0.000543647
3 *1271:D *1030:A 0
4 *1271:D *1268:CLK 6.74079e-05
5 *1271:D *1342:A 0
6 *1231:B *1271:D 5.83121e-06
*RES
1 *1231:Y *1271:D 14.265 
*END

*D_NET *279 0.000518481
*CONN
*I *1272:D I *D sky130_fd_sc_hd__dfrtp_1
*I *1233:Y O *D sky130_fd_sc_hd__xnor2_1
*CAP
1 *1272:D 0.000259241
2 *1233:Y 0.000259241
3 *1272:D *338:21 0
*RES
1 *1233:Y *1272:D 10.155 
*END

*D_NET *280 0.000411942
*CONN
*I *1273:D I *D sky130_fd_sc_hd__dfrtp_1
*I *1235:Y O *D sky130_fd_sc_hd__xnor2_1
*CAP
1 *1273:D 0.000159832
2 *1235:Y 0.000159832
3 *1273:D *302:16 4.18603e-06
4 *1273:D *302:22 4.70343e-05
5 *1235:A *1273:D 4.10576e-05
6 *1273:RESET_B *1273:D 0
*RES
1 *1235:Y *1273:D 9.72 
*END

*D_NET *281 0.00022402
*CONN
*I *1274:D I *D sky130_fd_sc_hd__dfrtp_1
*I *1221:X O *D sky130_fd_sc_hd__xor2_1
*CAP
1 *1274:D 8.06334e-05
2 *1221:X 8.06334e-05
3 *1274:D *336:10 6.27529e-05
*RES
1 *1221:X *1274:D 4.685 
*END

*D_NET *282 0.00108854
*CONN
*I *1275:D I *D sky130_fd_sc_hd__dfrtp_1
*I *1223:Y O *D sky130_fd_sc_hd__xnor2_1
*CAP
1 *1275:D 0.000418315
2 *1223:Y 0.000418315
3 *1275:D *1034:A 2.49909e-05
4 *1223:B *1275:D 0.00012438
5 *1275:RESET_B *1275:D 4.82863e-05
6 *186:12 *1275:D 5.4256e-05
*RES
1 *1223:Y *1275:D 13.77 
*END

*D_NET *283 0.00134639
*CONN
*I *1276:D I *D sky130_fd_sc_hd__dfrtp_1
*I *1225:Y O *D sky130_fd_sc_hd__xnor2_1
*CAP
1 *1276:D 0.000585459
2 *1225:Y 0.000585459
3 *1276:D *302:37 0.000175471
*RES
1 *1225:Y *1276:D 15.96 
*END

*D_NET *284 0.000335415
*CONN
*I *1277:D I *D sky130_fd_sc_hd__dfrtp_1
*I *1227:Y O *D sky130_fd_sc_hd__xnor2_1
*CAP
1 *1277:D 6.9352e-05
2 *1227:Y 6.9352e-05
3 *1277:D *1036:A 0.000101271
4 *1227:A *1277:D 9.54399e-05
*RES
1 *1227:Y *1277:D 8.775 
*END

*D_NET *285 0.000270774
*CONN
*I *1278:D I *D sky130_fd_sc_hd__dfrtp_1
*I *1213:X O *D sky130_fd_sc_hd__xor2_1
*CAP
1 *1278:D 9.71337e-05
2 *1213:X 9.71337e-05
3 *1278:D *341:10 7.65068e-05
*RES
1 *1213:X *1278:D 5.03 
*END

*D_NET *286 0.000712747
*CONN
*I *1279:D I *D sky130_fd_sc_hd__dfrtp_1
*I *1216:Y O *D sky130_fd_sc_hd__nor2_1
*CAP
1 *1279:D 0.000273529
2 *1216:Y 0.000273529
3 *1279:D *1346:A 0.00016569
*RES
1 *1216:Y *1279:D 11.1 
*END

*D_NET *287 0.00121934
*CONN
*I *1280:D I *D sky130_fd_sc_hd__dfrtp_1
*I *1218:Y O *D sky130_fd_sc_hd__xnor2_1
*CAP
1 *1280:D 0.000571622
2 *1218:Y 0.000571622
3 *1146:A *1280:D 7.60965e-05
4 *1219:A2 *1280:D 0
*RES
1 *1218:Y *1280:D 11.945 
*END

*D_NET *288 0.00061292
*CONN
*I *1281:D I *D sky130_fd_sc_hd__dfrtp_1
*I *1220:Y O *D sky130_fd_sc_hd__xnor2_1
*CAP
1 *1281:D 0.00023513
2 *1220:Y 0.00023513
3 *1281:D *307:10 0
4 *1220:A *1281:D 0.000142661
*RES
1 *1220:Y *1281:D 10.5 
*END

*D_NET *289 0.000549136
*CONN
*I *1282:D I *D sky130_fd_sc_hd__dfrtp_1
*I *1205:Y O *D sky130_fd_sc_hd__xnor2_1
*CAP
1 *1282:D 0.000159281
2 *1205:Y 0.000159281
3 *1282:D *304:18 7.13405e-05
4 *1171:B1 *1282:D 7.89523e-05
5 *1171:C1 *1282:D 7.23602e-05
6 *218:14 *1282:D 7.9205e-06
*RES
1 *1205:Y *1282:D 9.82875 
*END

*D_NET *290 0.000951821
*CONN
*I *1283:D I *D sky130_fd_sc_hd__dfrtp_1
*I *1207:Y O *D sky130_fd_sc_hd__xnor2_1
*CAP
1 *1283:D 0.000398223
2 *1207:Y 0.000398223
3 *1283:D *1042:A 0.000111293
4 *1283:D *1281:CLK 4.40812e-05
5 *1283:RESET_B *1283:D 0
*RES
1 *1207:Y *1283:D 12.48 
*END

*D_NET *291 0.000398177
*CONN
*I *1284:D I *D sky130_fd_sc_hd__dfrtp_1
*I *1209:Y O *D sky130_fd_sc_hd__xnor2_1
*CAP
1 *1284:D 0.000169291
2 *1209:Y 0.000169291
3 *1284:D *304:64 5.01328e-05
4 *1209:A *1284:D 9.46111e-06
*RES
1 *1209:Y *1284:D 5.39 
*END

*D_NET *292 0.000348464
*CONN
*I *1285:D I *D sky130_fd_sc_hd__dfrtp_1
*I *1211:Y O *D sky130_fd_sc_hd__xnor2_1
*CAP
1 *1285:D 0.000137441
2 *1211:Y 0.000137441
3 *1285:D *304:62 6.77501e-05
4 *1285:D *304:64 5.83121e-06
*RES
1 *1211:Y *1285:D 9.465 
*END

*D_NET *293 0.000357022
*CONN
*I *1286:D I *D sky130_fd_sc_hd__dfrtp_1
*I *1197:Y O *D sky130_fd_sc_hd__nor2_1
*CAP
1 *1286:D 0.00012383
2 *1197:Y 0.00012383
3 *1286:D *1286:CLK 6.88253e-05
4 *1197:A *1286:D 0
5 *1197:B *1286:D 4.05358e-05
*RES
1 *1197:Y *1286:D 9.13875 
*END

*D_NET *294 0.00128953
*CONN
*I *1287:D I *D sky130_fd_sc_hd__dfrtp_1
*I *1199:Y O *D sky130_fd_sc_hd__xnor2_1
*CAP
1 *1287:D 0.000497648
2 *1199:Y 0.000497648
3 *1287:D *1288:CLK 2.46007e-05
4 *1287:D *370:120 0
5 *224:14 *1287:D 0.000197269
6 *240:10 *1287:D 7.23602e-05
*RES
1 *1199:Y *1287:D 15.495 
*END

*D_NET *295 0.000307406
*CONN
*I *1288:D I *D sky130_fd_sc_hd__dfrtp_1
*I *1202:Y O *D sky130_fd_sc_hd__xnor2_1
*CAP
1 *1288:D 0.000103746
2 *1202:Y 0.000103746
3 *1202:A *1288:D 9.99135e-05
*RES
1 *1202:Y *1288:D 5.045 
*END

*D_NET *296 0.00115061
*CONN
*I *1289:D I *D sky130_fd_sc_hd__dfrtp_1
*I *1204:X O *D sky130_fd_sc_hd__xor2_1
*CAP
1 *1289:D 0.000329347
2 *1204:X 0.000329347
3 *1289:D *1060:A 8.65961e-05
4 *1289:D *1289:CLK 7.60965e-05
5 *1289:D *353:32 7.21296e-06
6 *1289:D *354:6 4.92604e-05
7 *1289:D *354:12 1.33293e-05
8 *107:10 *1289:D 0.000118513
9 *107:16 *1289:D 0.000140912
*RES
1 *1204:X *1289:D 13.92 
*END

*D_NET *297 0.000147557
*CONN
*I *1290:D I *D sky130_fd_sc_hd__dfrtp_1
*I *1180:Y O *D sky130_fd_sc_hd__xnor2_1
*CAP
1 *1290:D 5.43023e-05
2 *1180:Y 5.43023e-05
3 *1290:D *305:45 3.89528e-05
4 *1290:RESET_B *1290:D 0
*RES
1 *1180:Y *1290:D 8.325 
*END

*D_NET *298 0.000505731
*CONN
*I *1291:D I *D sky130_fd_sc_hd__dfrtp_1
*I *1185:Y O *D sky130_fd_sc_hd__xnor2_1
*CAP
1 *1291:D 0.000227464
2 *1185:Y 0.000227464
3 *1291:D *371:20 0
4 *1183:A_N *1291:D 5.83121e-06
5 *1183:B *1291:D 1.49334e-05
6 *1185:A *1291:D 3.00381e-05
*RES
1 *1185:Y *1291:D 10.665 
*END

*D_NET *299 0.000360515
*CONN
*I *1292:D I *D sky130_fd_sc_hd__dfrtp_1
*I *1190:Y O *D sky130_fd_sc_hd__xnor2_1
*CAP
1 *1292:D 0.000180257
2 *1190:Y 0.000180257
*RES
1 *1190:Y *1292:D 5.84 
*END

*D_NET *300 0.000398207
*CONN
*I *1293:D I *D sky130_fd_sc_hd__dfrtp_1
*I *1195:Y O *D sky130_fd_sc_hd__xnor2_1
*CAP
1 *1293:D 0.000123192
2 *1195:Y 0.000123192
3 *1293:D *1293:CLK 8.65961e-05
4 *1195:B *1293:D 6.52265e-05
*RES
1 *1195:Y *1293:D 5.39 
*END

*D_NET *301 0.00727356
*CONN
*I *1298:A I *D sky130_fd_sc_hd__clkbuf_16
*I *1297:A I *D sky130_fd_sc_hd__clkbuf_16
*I *1296:A I *D sky130_fd_sc_hd__clkbuf_16
*I *1295:A I *D sky130_fd_sc_hd__clkbuf_16
*I *1294:X O *D sky130_fd_sc_hd__clkbuf_16
*CAP
1 *1298:A 0.000152521
2 *1297:A 0.000668302
3 *1296:A 0.000130235
4 *1295:A 0.000630349
5 *1294:X 0.00021015
6 *301:30 0.00154696
7 *301:12 0.00150636
8 *301:8 0.00168206
9 *1297:A *1286:CLK 0.000131658
10 *1297:A *305:8 4.41506e-05
11 *1297:A *305:12 0.000133357
12 *1298:A *305:8 0.000113809
13 *301:12 *1030:A 0
14 *301:30 *351:12 7.47215e-05
15 *301:30 *370:120 9.1566e-05
16 *1180:A *301:30 0
17 *1180:B *301:30 0
18 *1286:RESET_B *1297:A 0.00015737
*RES
1 *1294:X *301:8 6.465 
2 *301:8 *301:12 14.345 
3 *301:12 *1295:A 10.33 
4 *301:12 *1296:A 3.43 
5 *301:8 *301:30 14.6 
6 *301:30 *1297:A 10.345 
7 *301:30 *1298:A 3.79 
*END

*D_NET *302 0.0118622
*CONN
*I *1275:CLK I *D sky130_fd_sc_hd__dfrtp_1
*I *1299:A I *D sky130_fd_sc_hd__clkbuf_4
*I *1274:CLK I *D sky130_fd_sc_hd__dfrtp_1
*I *1273:CLK I *D sky130_fd_sc_hd__dfrtp_1
*I *1272:CLK I *D sky130_fd_sc_hd__dfrtp_1
*I *1278:CLK I *D sky130_fd_sc_hd__dfrtp_1
*I *1279:CLK I *D sky130_fd_sc_hd__dfrtp_1
*I *1277:CLK I *D sky130_fd_sc_hd__dfrtp_1
*I *1276:CLK I *D sky130_fd_sc_hd__dfrtp_1
*I *1295:X O *D sky130_fd_sc_hd__clkbuf_16
*CAP
1 *1275:CLK 0.000247196
2 *1299:A 6.48201e-05
3 *1274:CLK 3.17712e-05
4 *1273:CLK 0
5 *1272:CLK 3.37164e-05
6 *1278:CLK 0.000703568
7 *1279:CLK 0
8 *1277:CLK 0
9 *1276:CLK 0.000236039
10 *1295:X 3.37454e-05
11 *302:95 0.000399066
12 *302:52 0.00147783
13 *302:37 0.00125659
14 *302:24 0.00113332
15 *302:22 0.00150259
16 *302:16 0.00149627
17 *302:10 0.000574295
18 *302:8 0.000220966
19 *1275:CLK *368:28 0.000211748
20 *302:16 *1135:B 0
21 *302:16 *339:12 5.00159e-05
22 *302:22 *334:8 8.34281e-06
23 *302:22 *338:8 2.47231e-05
24 *302:22 *339:12 0.000132714
25 *302:22 *368:100 5.05521e-05
26 *302:52 *1036:A 0
27 *302:52 *337:12 0.000185405
28 *302:52 *350:14 0.000163019
29 *1138:B2 *302:52 0
30 *1227:A *302:37 7.71016e-05
31 *1235:B *302:22 0.000178504
32 *1272:RESET_B *302:22 0.000232699
33 *1273:D *302:16 4.18603e-06
34 *1273:D *302:22 4.70343e-05
35 *1276:D *302:37 0.000175471
36 *1276:RESET_B *1272:CLK 9.13949e-06
37 *1276:RESET_B *302:22 4.4541e-05
38 *1276:RESET_B *302:24 0.000107103
39 *1279:RESET_B *302:52 0
40 *126:10 *302:22 0
41 *167:14 *302:16 0
42 *169:14 *302:52 0
43 *178:10 *302:37 1.71013e-05
44 *178:10 *302:52 7.34286e-05
45 *179:10 *302:52 0
46 *183:10 *302:16 0
47 *183:21 *302:16 0
48 *184:14 *1275:CLK 0.000114753
49 *184:14 *302:10 0.000103192
50 *184:14 *302:16 6.47516e-05
51 *184:14 *302:95 9.05377e-05
52 *186:12 *1278:CLK 6.55406e-05
53 *198:10 *1278:CLK 0.0002188
*RES
1 *1295:X *302:8 4.05 
2 *302:8 *302:10 2.145 
3 *302:10 *302:16 7.125 
4 *302:16 *302:22 18.23 
5 *302:22 *302:24 4.935 
6 *302:24 *1276:CLK 4.39 
7 *302:24 *302:37 11.54 
8 *302:37 *1277:CLK 3.6 
9 *302:37 *302:52 15.5 
10 *302:52 *1279:CLK 1.6 
11 *302:52 *1278:CLK 17.225 
12 *302:22 *1272:CLK 2.215 
13 *302:16 *1273:CLK 3.6 
14 *302:10 *1274:CLK 4.05 
15 *302:8 *302:95 1.89 
16 *302:95 *1299:A 4.395 
17 *302:95 *1275:CLK 9.21 
*END

*D_NET *303 0.0112178
*CONN
*I *1262:CLK I *D sky130_fd_sc_hd__dfrtp_1
*I *1263:CLK I *D sky130_fd_sc_hd__dfrtp_1
*I *1266:CLK I *D sky130_fd_sc_hd__dfrtp_1
*I *1267:CLK I *D sky130_fd_sc_hd__dfrtp_1
*I *1268:CLK I *D sky130_fd_sc_hd__dfrtp_1
*I *1271:CLK I *D sky130_fd_sc_hd__dfrtp_1
*I *1269:CLK I *D sky130_fd_sc_hd__dfrtp_1
*I *1265:CLK I *D sky130_fd_sc_hd__dfrtp_4
*I *1270:CLK I *D sky130_fd_sc_hd__dfrtp_1
*I *1296:X O *D sky130_fd_sc_hd__clkbuf_16
*CAP
1 *1262:CLK 0.000369715
2 *1263:CLK 0
3 *1266:CLK 0
4 *1267:CLK 0
5 *1268:CLK 0.00012375
6 *1271:CLK 2.08101e-05
7 *1269:CLK 3.93895e-05
8 *1265:CLK 0.000152949
9 *1270:CLK 0.000671616
10 *1296:X 0
11 *303:97 0.000634548
12 *303:55 0.0010498
13 *303:38 0.00134836
14 *303:36 0.000816717
15 *303:32 0.000433803
16 *303:30 0.000649704
17 *303:8 0.000864547
18 *303:4 0.000404043
19 *1262:CLK *1092:B 0.00015829
20 *1262:CLK *360:10 7.76064e-05
21 *1265:CLK *1100:A 0
22 *1268:CLK *1030:A 0
23 *1270:CLK *1099:A1 0
24 *1270:CLK *1100:A 0
25 *1270:CLK *1101:A2 0
26 *1270:CLK *324:14 0
27 *1270:CLK *369:30 8.31173e-05
28 *303:30 *360:31 0.000131366
29 *303:36 *1100:B 0
30 *303:36 *1364:A 0
31 *303:36 *360:10 0
32 *303:36 *360:43 0
33 *303:36 *369:20 0
34 *303:36 *369:56 0
35 *303:38 *369:56 0
36 *303:55 *1102:A 6.52181e-05
37 *303:55 *1245:A2 0.0001249
38 *303:55 *1259:A 0.000163199
39 *303:55 *364:20 1.61831e-05
40 *303:97 *1256:A 0.00011852
41 *303:97 *360:10 9.3062e-06
42 *303:97 *360:31 4.41363e-05
43 *1095:A *1262:CLK 5.53249e-06
44 *1097:A2 *1262:CLK 0
45 *1106:B *303:38 0.000164686
46 *1114:B1 *1270:CLK 0.000136877
47 *1114:C1 *1270:CLK 0
48 *1116:B1 *303:38 0
49 *1117:B1 *303:38 0
50 *1240:B *303:36 4.21447e-06
51 *1240:C *303:36 7.09999e-05
52 *1241:B *303:36 0.000113797
53 *1245:B1 *1269:CLK 0
54 *1245:B1 *303:38 0
55 *1246:A *1269:CLK 0
56 *1246:A *303:38 0
57 *1246:B *303:55 4.45527e-05
58 *1247:A *1262:CLK 0
59 *1251:A *1265:CLK 0
60 *1251:B *1265:CLK 0
61 *1263:D *1262:CLK 0.000205118
62 *1263:D *303:97 4.18603e-06
63 *1266:D *303:36 4.61658e-05
64 *1267:D *303:36 9.29751e-06
65 *1270:D *1270:CLK 7.60965e-05
66 *1270:RESET_B *1270:CLK 0.000118651
67 *1271:D *1268:CLK 6.74079e-05
68 *1271:RESET_B *1268:CLK 5.062e-06
69 *1271:RESET_B *303:55 4.40446e-05
70 *141:16 *1262:CLK 9.37731e-05
71 *145:12 *1265:CLK 0.00031682
72 *145:12 *1270:CLK 0.000242091
73 *151:21 *303:38 0
74 *154:18 *303:38 0.000136321
75 *159:20 *303:36 4.1977e-05
76 *164:10 *1270:CLK 0.000528959
77 *259:8 *303:36 0.000169542
78 *261:14 *303:38 0
*RES
1 *1296:X *303:4 1.6 
2 *303:4 *303:8 2.45 
3 *303:8 *1270:CLK 19.5 
4 *303:8 *1265:CLK 7.275 
5 *303:4 *303:30 5.625 
6 *303:30 *303:32 0.36 
7 *303:32 *303:36 10.265 
8 *303:36 *303:38 7.755 
9 *303:38 *1269:CLK 4.215 
10 *303:38 *303:55 15.335 
11 *303:55 *1271:CLK 1.96 
12 *303:55 *1268:CLK 7.79 
13 *303:36 *1267:CLK 3.6 
14 *303:32 *1266:CLK 1.6 
15 *303:30 *303:97 6.515 
16 *303:97 *1263:CLK 3.6 
17 *303:97 *1262:CLK 12.06 
*END

*D_NET *304 0.00973345
*CONN
*I *1285:CLK I *D sky130_fd_sc_hd__dfrtp_1
*I *1284:CLK I *D sky130_fd_sc_hd__dfrtp_1
*I *1283:CLK I *D sky130_fd_sc_hd__dfrtp_1
*I *1281:CLK I *D sky130_fd_sc_hd__dfrtp_1
*I *1287:CLK I *D sky130_fd_sc_hd__dfrtp_1
*I *1300:A I *D sky130_fd_sc_hd__clkbuf_8
*I *1282:CLK I *D sky130_fd_sc_hd__dfrtp_1
*I *1280:CLK I *D sky130_fd_sc_hd__dfrtp_1
*I *1297:X O *D sky130_fd_sc_hd__clkbuf_16
*CAP
1 *1285:CLK 0
2 *1284:CLK 0
3 *1283:CLK 0
4 *1281:CLK 0.000822752
5 *1287:CLK 0.000135379
6 *1300:A 0
7 *1282:CLK 0
8 *1280:CLK 0.000397204
9 *1297:X 0
10 *304:72 0.00123635
11 *304:64 0.00088566
12 *304:62 0.00097833
13 *304:47 0.000735959
14 *304:38 0.000165158
15 *304:18 0.000765939
16 *304:6 0.000439576
17 *1281:CLK *1040:A 0
18 *1281:CLK *344:8 0.000143669
19 *1281:CLK *344:10 6.6925e-05
20 *1281:CLK *370:55 0
21 *1287:CLK *1168:B 4.82919e-05
22 *1287:CLK *1169:A 5.05521e-05
23 *1287:CLK *310:14 3.77036e-05
24 *304:18 *346:10 7.07975e-05
25 *304:38 *346:10 5.92849e-05
26 *304:47 *346:10 7.75325e-05
27 *304:62 *1351:A 0.000888578
28 *304:62 *312:12 0
29 *304:62 *346:10 8.09021e-06
30 *304:64 *1160:A 4.60584e-05
31 *304:64 *1161:B 4.82919e-05
32 *304:64 *348:8 0.000272978
33 *304:72 *1043:A 0
34 *304:72 *370:55 4.18603e-06
35 *1171:A1 *304:18 0
36 *1171:C1 *1280:CLK 9.50342e-06
37 *1172:B *304:62 0
38 *1175:B *304:62 7.89689e-05
39 *1209:A *304:64 0.000470421
40 *1209:B *304:72 0
41 *1220:A *1281:CLK 0
42 *1281:RESET_B *1281:CLK 3.86607e-05
43 *1282:D *304:18 7.13405e-05
44 *1283:D *1281:CLK 4.40812e-05
45 *1283:RESET_B *304:72 0
46 *1284:D *304:64 5.01328e-05
47 *1284:RESET_B *304:64 4.5506e-05
48 *1284:RESET_B *304:72 0
49 *1285:D *304:62 6.77501e-05
50 *1285:D *304:64 5.83121e-06
51 *208:10 *304:64 0.000237249
52 *212:18 *304:62 0
53 *217:12 *304:18 0
54 *217:12 *304:38 0
55 *217:12 *304:47 0
56 *218:14 *304:18 0.000228766
*RES
1 *1297:X *304:6 3.6 
2 *304:6 *304:18 10.25 
3 *304:18 *1280:CLK 11.705 
4 *304:18 *1282:CLK 1.6 
5 *304:6 *304:38 1.635 
6 *304:38 *1300:A 3.6 
7 *304:38 *304:47 2.145 
8 *304:47 *1287:CLK 6.12 
9 *304:47 *304:62 14.045 
10 *304:62 *304:64 11.835 
11 *304:64 *304:72 9.035 
12 *304:72 *1281:CLK 16.305 
13 *304:72 *1283:CLK 3.6 
14 *304:64 *1284:CLK 1.6 
15 *304:62 *1285:CLK 1.6 
*END

*D_NET *305 0.0130001
*CONN
*I *1289:CLK I *D sky130_fd_sc_hd__dfrtp_1
*I *1292:CLK I *D sky130_fd_sc_hd__dfrtp_1
*I *1293:CLK I *D sky130_fd_sc_hd__dfrtp_1
*I *1290:CLK I *D sky130_fd_sc_hd__dfrtp_1
*I *1291:CLK I *D sky130_fd_sc_hd__dfrtp_1
*I *1264:CLK I *D sky130_fd_sc_hd__dfrtp_1
*I *1301:A I *D sky130_fd_sc_hd__clkbuf_4
*I *1288:CLK I *D sky130_fd_sc_hd__dfrtp_1
*I *1286:CLK I *D sky130_fd_sc_hd__dfrtp_1
*I *1298:X O *D sky130_fd_sc_hd__clkbuf_16
*CAP
1 *1289:CLK 0.000348394
2 *1292:CLK 0
3 *1293:CLK 5.42306e-05
4 *1290:CLK 0
5 *1291:CLK 0.000555448
6 *1264:CLK 0.000286954
7 *1301:A 0
8 *1288:CLK 0.000684531
9 *1286:CLK 0.000109415
10 *1298:X 0
11 *305:93 0.000752785
12 *305:82 0.000757438
13 *305:47 0.000972898
14 *305:45 0.000315398
15 *305:12 0.00101489
16 *305:8 0.000480595
17 *305:6 0.000604444
18 *305:4 0.000458712
19 *1288:CLK *1046:A 0
20 *1288:CLK *1057:B 6.28498e-05
21 *1288:CLK *1356:A 0.000142029
22 *1288:CLK *352:10 0.000367681
23 *1289:CLK *354:6 0.000257807
24 *1289:CLK *370:12 0.000183738
25 *1291:CLK *1049:A 0.000469632
26 *1291:CLK *371:20 0.000165698
27 *305:8 *351:12 2.16917e-05
28 *305:12 *351:12 9.35556e-05
29 *305:82 *1055:A 0.000113809
30 *305:82 *1359:A 0.000163204
31 *305:82 *319:14 4.47125e-05
32 *305:82 *355:25 2.96426e-05
33 *1056:B *305:82 4.82863e-05
34 *1176:A1 *1288:CLK 7.47215e-05
35 *1180:A *305:45 0.000210839
36 *1184:A *305:82 0
37 *1189:A2 *305:93 0
38 *1190:B *305:93 0
39 *1191:B1 *305:93 0.000201161
40 *1192:A1 *305:93 0
41 *1193:B1 *305:82 0
42 *1193:B1 *305:93 0
43 *1195:B *1293:CLK 0.000158066
44 *1197:A *1288:CLK 0.00022921
45 *1197:B *1288:CLK 0
46 *1200:A2 *1288:CLK 2.71296e-05
47 *1202:B *1288:CLK 0
48 *1286:D *1286:CLK 6.88253e-05
49 *1286:RESET_B *305:12 9.30977e-05
50 *1287:D *1288:CLK 2.46007e-05
51 *1287:RESET_B *1288:CLK 0
52 *1289:D *1289:CLK 7.60965e-05
53 *1289:RESET_B *1289:CLK 9.54399e-05
54 *1290:D *305:45 3.89528e-05
55 *1293:D *1293:CLK 8.65961e-05
56 *1297:A *1286:CLK 0.000131658
57 *1297:A *305:8 4.41506e-05
58 *1297:A *305:12 0.000133357
59 *1298:A *305:8 0.000113809
60 *101:8 *305:82 8.65961e-05
61 *101:40 *305:82 0.000306698
62 *101:40 *305:93 0.000199727
63 *103:10 *305:6 0.000250806
64 *103:10 *305:8 5.83121e-06
65 *103:10 *305:82 0.000545352
66 *224:14 *1288:CLK 6.99988e-05
67 *228:21 *305:82 1.07797e-05
68 *231:10 *305:93 3.76596e-05
69 *232:17 *305:93 0.00011852
*RES
1 *1298:X *305:4 1.6 
2 *305:4 *305:6 3.9 
3 *305:6 *305:8 4.59 
4 *305:8 *305:12 4.95 
5 *305:12 *1286:CLK 4.465 
6 *305:12 *1288:CLK 20.99 
7 *305:8 *1301:A 1.6 
8 *305:6 *305:45 6.185 
9 *305:45 *305:47 2.145 
10 *305:47 *1264:CLK 8.235 
11 *305:47 *1291:CLK 14.4 
12 *305:45 *1290:CLK 3.6 
13 *305:4 *305:82 11.69 
14 *305:82 *1293:CLK 5.085 
15 *305:82 *305:93 8.52 
16 *305:93 *1292:CLK 3.6 
17 *305:93 *1289:CLK 11.685 
*END

*D_NET *306 0.00133437
*CONN
*I *1252:A I *D sky130_fd_sc_hd__or2_1
*I *1096:A I *D sky130_fd_sc_hd__nand2_1
*I *1306:X O *D sky130_fd_sc_hd__clkbuf_1
*CAP
1 *1252:A 8.22327e-05
2 *1096:A 8.99778e-05
3 *1306:X 0.000164254
4 *306:10 0.000336464
5 *1096:A *332:32 0.000229196
6 *1096:A *345:29 0
7 *306:10 *309:6 4.82863e-05
8 *306:10 *332:32 0.000273695
9 *1253:B *1252:A 4.66108e-05
10 *1262:D *306:10 0
11 *143:12 *1096:A 6.36578e-05
*RES
1 *1306:X *306:10 7.215 
2 *306:10 *1096:A 6.255 
3 *306:10 *1252:A 4.74 
*END

*D_NET *307 0.00297794
*CONN
*I *1152:B1 I *D sky130_fd_sc_hd__o211a_1
*I *1142:A I *D sky130_fd_sc_hd__or2_1
*I *1143:A I *D sky130_fd_sc_hd__nand2_1
*I *1307:X O *D sky130_fd_sc_hd__buf_1
*CAP
1 *1152:B1 0.000365967
2 *1142:A 0
3 *1143:A 6.55788e-05
4 *1307:X 0.000321083
5 *307:14 0.000170473
6 *307:10 0.000791944
7 *1143:A *343:18 0.000131986
8 *1152:B1 *1152:A1 0.000192537
9 *1152:B1 *308:8 0.000541118
10 *307:10 *1155:A2 0
11 *307:14 *1155:A2 0
12 *1220:A *307:10 5.05437e-05
13 *1220:B *307:10 0.00010516
14 *1220:B *307:14 7.66727e-05
15 *1281:D *307:10 0
16 *202:8 *1152:B1 0.000164874
*RES
1 *1307:X *307:10 8.595 
2 *307:10 *307:14 4.145 
3 *307:14 *1143:A 3.1 
4 *307:14 *1142:A 1.6 
5 *307:10 *1152:B1 11.565 
*END

*D_NET *308 0.00235796
*CONN
*I *1145:A I *D sky130_fd_sc_hd__xnor2_1
*I *1152:A1 I *D sky130_fd_sc_hd__o211a_1
*I *1155:A1 I *D sky130_fd_sc_hd__a211oi_1
*I *1308:X O *D sky130_fd_sc_hd__buf_1
*CAP
1 *1145:A 5.63153e-05
2 *1152:A1 0.000109762
3 *1155:A1 1.44125e-05
4 *1308:X 0
5 *308:8 0.00044246
6 *308:4 0.000374601
7 *1145:A *1349:A 3.25831e-05
8 *308:8 *1155:A2 0.000123225
9 *1152:B1 *1152:A1 0.000192537
10 *1152:B1 *308:8 0.000541118
11 *1155:B1 *1152:A1 0.000284364
12 *1155:B1 *1155:A1 9.53428e-06
13 *1220:B *1145:A 7.53115e-05
14 *1307:A *1145:A 4.92063e-05
15 *35:11 *1145:A 2.8585e-05
16 *202:8 *1152:A1 2.39426e-05
*RES
1 *1308:X *308:4 1.6 
2 *308:4 *308:8 7.02 
3 *308:8 *1155:A1 1.96 
4 *308:8 *1152:A1 5.89 
5 *308:4 *1145:A 7.49 
*END

*D_NET *309 0.00175715
*CONN
*I *1094:A I *D sky130_fd_sc_hd__nor2_1
*I *1092:A I *D sky130_fd_sc_hd__nand2_1
*I *1309:X O *D sky130_fd_sc_hd__clkbuf_1
*CAP
1 *1094:A 0.000144272
2 *1092:A 6.44202e-05
3 *1309:X 0.000290997
4 *309:6 0.00049969
5 *1092:A *321:12 1.83756e-05
6 *1094:A *1092:B 0.000242238
7 *1094:A *345:29 0
8 *309:6 *321:12 0.000157659
9 *1093:A *1092:A 0
10 *1262:D *1094:A 5.39718e-05
11 *1306:A *309:6 0.000237243
12 *306:10 *309:6 4.82863e-05
*RES
1 *1309:X *309:6 7.225 
2 *309:6 *1092:A 2.665 
3 *309:6 *1094:A 9.275 
*END

*D_NET *310 0.00216035
*CONN
*I *1168:A I *D sky130_fd_sc_hd__nand2_1
*I *1169:A I *D sky130_fd_sc_hd__or2_1
*I *1310:X O *D sky130_fd_sc_hd__clkbuf_1
*CAP
1 *1168:A 2.51513e-05
2 *1169:A 3.47838e-05
3 *1310:X 0.00067238
4 *310:14 0.000732315
5 *310:14 *1164:A 0
6 *310:14 *1168:B 4.82919e-05
7 *310:14 *1351:A 0
8 *1175:A *310:14 0.000210851
9 *1287:CLK *1169:A 5.05521e-05
10 *1287:CLK *310:14 3.77036e-05
11 *210:10 *310:14 0.000215229
12 *215:6 *1169:A 0.000121437
13 *215:6 *310:14 1.16578e-05
14 *222:14 *310:14 0
*RES
1 *1310:X *310:14 18.515 
2 *310:14 *1169:A 2.74 
3 *310:14 *1168:A 1.96 
*END

*D_NET *311 0.00197093
*CONN
*I *1158:A I *D sky130_fd_sc_hd__or2_1
*I *1157:A I *D sky130_fd_sc_hd__nand2_1
*I *1311:X O *D sky130_fd_sc_hd__clkbuf_1
*CAP
1 *1158:A 0
2 *1157:A 0.00012468
3 *1311:X 0.000479688
4 *311:12 0.000604368
5 *1157:A *1158:B 5.7633e-05
6 *311:12 *1043:A 0
7 *311:12 *1158:B 3.60024e-06
8 *1159:B *1157:A 4.66108e-05
9 *1166:A *1157:A 0.00018007
10 *1166:A *311:12 4.77719e-05
11 *1174:A *311:12 9.48444e-05
12 *1208:A2 *1157:A 4.82863e-05
13 *204:6 *1157:A 2.86975e-05
14 *204:19 *1157:A 7.74817e-05
15 *205:8 *1157:A 0.000155198
16 *205:8 *311:12 2.20014e-05
*RES
1 *1311:X *311:12 13.55 
2 *311:12 *1157:A 6.325 
3 *311:12 *1158:A 1.6 
*END

*D_NET *312 0.000765882
*CONN
*I *1161:A I *D sky130_fd_sc_hd__nand2_1
*I *1160:A I *D sky130_fd_sc_hd__or2_1
*I *1312:X O *D sky130_fd_sc_hd__clkbuf_1
*CAP
1 *1161:A 0
2 *1160:A 0.000158215
3 *1312:X 0.000135672
4 *312:12 0.000293888
5 *1160:A *1161:B 2.76781e-05
6 *1160:A *348:8 5.30673e-05
7 *312:12 *1351:A 0
8 *312:12 *1353:A 5.13029e-05
9 *304:62 *312:12 0
10 *304:64 *1160:A 4.60584e-05
*RES
1 *1312:X *312:12 7.685 
2 *312:12 *1160:A 4.615 
3 *312:12 *1161:A 1.6 
*END

*D_NET *313 0.000914298
*CONN
*I *1164:A I *D sky130_fd_sc_hd__or2_1
*I *1163:A I *D sky130_fd_sc_hd__nand2_1
*I *1313:X O *D sky130_fd_sc_hd__clkbuf_1
*CAP
1 *1164:A 0.000169587
2 *1163:A 4.31811e-05
3 *1313:X 6.7107e-05
4 *313:8 0.000279875
5 *1163:A *1044:A 0
6 *1163:A *1163:B 3.293e-05
7 *1164:A *1044:A 0
8 *1164:A *1164:B 7.53115e-05
9 *1164:A *1351:A 0
10 *313:8 *1044:A 5.94962e-05
11 *313:8 *1163:B 4.35432e-05
12 *1285:RESET_B *1164:A 0.000143266
13 *210:10 *1164:A 0
14 *310:14 *1164:A 0
*RES
1 *1313:X *313:8 3.1 
2 *313:8 *1163:A 2.41 
3 *313:8 *1164:A 9.275 
*END

*D_NET *314 0.00303398
*CONN
*I *1072:A I *D sky130_fd_sc_hd__or2_1
*I *1071:A I *D sky130_fd_sc_hd__nand2_1
*I *1314:X O *D sky130_fd_sc_hd__clkbuf_1
*CAP
1 *1072:A 0
2 *1071:A 2.16664e-05
3 *1314:X 0.000844532
4 *314:16 0.000866199
5 *1071:A *1071:B 6.77417e-05
6 *1071:A *1072:B 8.65905e-05
7 *314:16 *1071:B 8.49205e-05
8 *314:16 *1072:B 1.91597e-05
9 *314:16 *1355:A 0.000355168
10 *314:16 *351:27 1.52184e-05
11 acc[24] *314:16 9.60582e-07
12 *1063:B *314:16 0
13 *1064:B *314:16 0.000118527
14 *1073:A *314:16 0
15 *1073:B *314:16 4.82919e-05
16 *1178:A3 *314:16 0
17 *1201:A2 *314:16 0
18 *1203:A *314:16 0
19 *110:12 *314:16 0
20 *110:27 *314:16 0.000409132
21 *111:12 *314:16 0
22 *118:8 *314:16 4.21973e-05
23 *120:10 *1071:A 2.76781e-05
24 *120:10 *314:16 2.59926e-05
25 *224:22 *314:16 0
*RES
1 *1314:X *314:16 22.895 
2 *314:16 *1071:A 2.74 
3 *314:16 *1072:A 1.6 
*END

*D_NET *315 0.00176336
*CONN
*I *1057:A I *D sky130_fd_sc_hd__nand2_1
*I *1058:A I *D sky130_fd_sc_hd__or2_1
*I *1315:X O *D sky130_fd_sc_hd__clkbuf_1
*CAP
1 *1057:A 0.000256468
2 *1058:A 6.5791e-05
3 *1315:X 0.00029897
4 *315:8 0.000621229
5 *1057:A *1057:B 6.12918e-06
6 *1057:A *1058:B 6.52265e-05
7 *1058:A *1356:A 0
8 *1058:A *370:120 1.24797e-05
9 *315:8 *1355:A 0
10 *315:8 *1356:A 0
11 *315:8 *370:120 0
12 *1059:A *1058:A 2.97004e-06
13 *1065:A *1057:A 0.000123225
14 *1202:B *1057:A 8.8266e-05
15 *1288:RESET_B *315:8 9.71067e-05
16 *104:8 *1057:A 0.0001081
17 *104:21 *1058:A 1.7396e-05
*RES
1 *1315:X *315:8 8.805 
2 *315:8 *1058:A 4.47 
3 *315:8 *1057:A 8.8725 
*END

*D_NET *316 0.00114539
*CONN
*I *1067:B1 I *D sky130_fd_sc_hd__o211a_1
*I *1061:A I *D sky130_fd_sc_hd__nand2_1
*I *1062:A I *D sky130_fd_sc_hd__or2_1
*I *1316:X O *D sky130_fd_sc_hd__buf_1
*CAP
1 *1067:B1 0.000136678
2 *1061:A 0
3 *1062:A 4.16628e-05
4 *1316:X 8.66512e-05
5 *316:14 0.000120425
6 *316:10 0.000302091
7 *1062:A *353:8 8.8266e-05
8 *1062:A *353:17 4.99619e-05
9 *1067:B1 *1060:A 4.08078e-05
10 *1067:B1 *353:32 5.37326e-05
11 *1067:B1 *354:12 4.82919e-05
12 *316:10 *318:10 4.40899e-05
13 *316:14 *353:17 4.4465e-05
14 *316:14 *353:32 8.8266e-05
*RES
1 *1316:X *316:10 6.98 
2 *316:10 *316:14 1.845 
3 *316:14 *1062:A 2.74 
4 *316:14 *1061:A 1.6 
5 *316:10 *1067:B1 4.41625 
*END

*D_NET *317 0.000757525
*CONN
*I *1079:A I *D sky130_fd_sc_hd__or2_1
*I *1078:A I *D sky130_fd_sc_hd__nand2_1
*I *1317:X O *D sky130_fd_sc_hd__clkbuf_1
*CAP
1 *1079:A 0.000120211
2 *1078:A 0
3 *1317:X 9.6166e-05
4 *317:12 0.000216377
5 *1079:A *1074:B 3.26889e-05
6 *1079:A *1078:B 4.82919e-05
7 *1079:A *334:8 1.86798e-05
8 *1079:A *368:100 4.82863e-05
9 *317:12 *1074:A 5.11148e-06
10 *317:12 *1340:A 5.42473e-05
11 *317:12 *328:10 2.67022e-05
12 *1317:A *317:12 1.83847e-05
13 *125:6 *1079:A 1.83756e-05
14 *125:14 *317:12 5.4003e-05
*RES
1 *1317:X *317:12 7.685 
2 *317:12 *1078:A 1.6 
3 *317:12 *1079:A 3.79 
*END

*D_NET *318 0.00161505
*CONN
*I *1067:A1 I *D sky130_fd_sc_hd__o211a_1
*I *1060:A I *D sky130_fd_sc_hd__xnor2_1
*I *1068:A1 I *D sky130_fd_sc_hd__a211o_1
*I *1318:X O *D sky130_fd_sc_hd__buf_1
*CAP
1 *1067:A1 0
2 *1060:A 0.000124682
3 *1068:A1 8.04863e-05
4 *1318:X 0.000209988
5 *318:21 0.000124682
6 *318:10 0.000290475
7 *1060:A *353:32 0.000191649
8 *1060:A *354:12 0.000101004
9 *1068:A1 *1068:A2 0.000159269
10 *318:10 *1068:A2 9.50342e-06
11 *318:10 *1357:A 3.64998e-06
12 *318:10 *354:12 6.68849e-05
13 *1067:B1 *1060:A 4.08078e-05
14 *1068:C1 *1068:A1 4.91189e-05
15 *1289:D *1060:A 8.65961e-05
16 *107:10 *1060:A 3.21634e-05
17 *316:10 *318:10 4.40899e-05
*RES
1 *1318:X *318:10 6.72 
2 *318:10 *1068:A1 5.49 
3 *318:10 *318:21 2 
4 *318:21 *1060:A 5.635 
5 *318:21 *1067:A1 1.6 
*END

*D_NET *319 0.00227806
*CONN
*I *1054:A I *D sky130_fd_sc_hd__nand2_1
*I *1055:A I *D sky130_fd_sc_hd__or2_1
*I *1319:X O *D sky130_fd_sc_hd__clkbuf_1
*CAP
1 *1054:A 1.04051e-05
2 *1055:A 5.32908e-05
3 *1319:X 0.000457357
4 *319:14 0.000521053
5 *1054:A *1359:A 0
6 *1055:A *1055:B 1.85674e-05
7 *1055:A *355:25 0.000238919
8 *319:14 *1359:A 0.00053284
9 *319:14 *332:32 0.000116853
10 *319:14 *355:25 7.49327e-05
11 *319:14 *371:14 4.70343e-05
12 *1056:B *1055:A 4.82863e-05
13 *305:82 *1055:A 0.000113809
14 *305:82 *319:14 4.47125e-05
*RES
1 *1319:X *319:14 15.47 
2 *319:14 *1055:A 4.135 
3 *319:14 *1054:A 1.96 
*END

*D_NET *320 0.000852822
*CONN
*I *1182:A I *D sky130_fd_sc_hd__nand2_1
*I *1181:A I *D sky130_fd_sc_hd__nor2_1
*I *1320:X O *D sky130_fd_sc_hd__clkbuf_1
*CAP
1 *1182:A 0.000153014
2 *1181:A 0
3 *1320:X 0.000158512
4 *320:12 0.000311527
5 *1182:A *1182:B 8.40213e-05
6 *1182:A *1360:A 5.96707e-05
7 *320:12 *332:32 4.11198e-05
8 *320:12 *356:10 4.43871e-06
9 *1320:A *320:12 0
10 *227:10 *1182:A 2.96426e-05
11 *228:6 *1182:A 1.08758e-05
*RES
1 *1320:X *320:12 7.775 
2 *320:12 *1181:A 1.6 
3 *320:12 *1182:A 4.495 
*END

*D_NET *321 0.00212364
*CONN
*I *1091:A I *D sky130_fd_sc_hd__nor2_1
*I *1090:A I *D sky130_fd_sc_hd__and2_1
*I *1321:X O *D sky130_fd_sc_hd__clkbuf_1
*CAP
1 *1091:A 1.15106e-05
2 *1090:A 8.50876e-05
3 *1321:X 0.000678751
4 *321:12 0.000775349
5 *1090:A *1091:B 4.91067e-05
6 *1091:A *1091:B 5.4155e-06
7 *321:12 *1053:A 0
8 *1092:A *321:12 1.83756e-05
9 *1097:B1 *321:12 9.66106e-05
10 *1306:A *321:12 0.000138799
11 *1321:A *321:12 1.17114e-05
12 *139:6 *321:12 9.52646e-05
13 *309:6 *321:12 0.000157659
*RES
1 *1321:X *321:12 17.18 
2 *321:12 *1090:A 3.1 
3 *321:12 *1091:A 1.96 
*END

*D_NET *322 0.000819473
*CONN
*I *1187:A I *D sky130_fd_sc_hd__nand2_1
*I *1186:A I *D sky130_fd_sc_hd__nor2_1
*I *1322:X O *D sky130_fd_sc_hd__clkbuf_1
*CAP
1 *1187:A 0
2 *1186:A 0.000119
3 *1322:X 0.000107888
4 *322:12 0.000226888
5 *1186:A *1186:B 4.82863e-05
6 *322:12 *1359:A 5.74404e-05
7 *322:12 *332:32 0.000140912
8 *322:12 *358:10 5.53249e-06
9 *231:6 *1186:A 6.52349e-05
10 *232:6 *1186:A 4.82919e-05
*RES
1 *1322:X *322:12 7.685 
2 *322:12 *1186:A 4.15 
3 *322:12 *1187:A 1.6 
*END

*D_NET *323 0.000981595
*CONN
*I *1194:A I *D sky130_fd_sc_hd__xnor2_1
*I *1323:X O *D sky130_fd_sc_hd__clkbuf_1
*CAP
1 *1194:A 0.000165533
2 *1323:X 0.000165533
3 *1194:A *1194:B 0.000233918
4 *1194:A *1359:A 6.18754e-05
5 *1194:A *1363:A 0.000141599
6 acc[31] *1194:A 0.000152445
7 *1323:A *1194:A 6.06899e-05
*RES
1 *1323:X *1194:A 12.66 
*END

*D_NET *324 0.00440146
*CONN
*I *1099:A1 I *D sky130_fd_sc_hd__a21o_1
*I *1114:A1 I *D sky130_fd_sc_hd__o221ai_4
*I *1100:A I *D sky130_fd_sc_hd__xor2_1
*I *1101:A1 I *D sky130_fd_sc_hd__o22ai_1
*I *1324:X O *D sky130_fd_sc_hd__clkbuf_2
*CAP
1 *1099:A1 0.000189623
2 *1114:A1 0
3 *1100:A 0.000319315
4 *1101:A1 0
5 *1324:X 0.000674209
6 *324:14 0.000453535
7 *324:8 0.000282292
8 *324:6 0.0010119
9 *1099:A1 *1100:B 6.92392e-05
10 *1099:A1 *360:43 0.000249928
11 *1100:A *1100:B 0.000124895
12 *1100:A *1101:A2 5.56629e-05
13 *324:6 *1364:A 0.000369092
14 *324:6 *360:43 1.56428e-05
15 *324:8 *360:43 0.000160066
16 *324:14 *1101:A2 0.000166346
17 *324:14 *360:43 4.99619e-05
18 *1099:B1 *1099:A1 5.53249e-06
19 *1113:C *1099:A1 2.05583e-05
20 *1114:B1 *1099:A1 0
21 *1114:B2 *1099:A1 0
22 *1114:B2 *324:8 5.05521e-05
23 *1114:C1 *1099:A1 3.09233e-05
24 *1265:CLK *1100:A 0
25 *1270:CLK *1099:A1 0
26 *1270:CLK *1100:A 0
27 *1270:CLK *324:14 0
28 *145:12 *1099:A1 0
29 *146:8 *1099:A1 0
30 *157:20 *324:6 0.000102187
*RES
1 *1324:X *324:6 13.78 
2 *324:6 *324:8 3.21 
3 *324:8 *324:14 4.94 
4 *324:14 *1101:A1 3.6 
5 *324:14 *1100:A 9.27 
6 *324:8 *1114:A1 1.6 
7 *324:6 *1099:A1 10.04 
*END

*D_NET *325 0.000535819
*CONN
*I *1110:A I *D sky130_fd_sc_hd__nand2_1
*I *1111:A I *D sky130_fd_sc_hd__or2_1
*I *1325:X O *D sky130_fd_sc_hd__clkbuf_1
*CAP
1 *1110:A 0
2 *1111:A 2.12733e-05
3 *1325:X 9.66968e-05
4 *325:10 0.00011797
5 *1111:A *1110:B 4.82919e-05
6 *1111:A *362:14 8.65905e-05
7 *325:10 *362:14 0
8 *1324:A *325:10 4.01019e-05
9 *157:8 *1111:A 0.000124895
*RES
1 *1325:X *325:10 7.235 
2 *325:10 *1111:A 2.74 
3 *325:10 *1110:A 1.6 
*END

*D_NET *326 0.00117317
*CONN
*I *1108:A I *D sky130_fd_sc_hd__or2_1
*I *1107:A I *D sky130_fd_sc_hd__nand2_1
*I *1326:X O *D sky130_fd_sc_hd__clkbuf_1
*CAP
1 *1108:A 0
2 *1107:A 0.000227996
3 *1326:X 0.000127542
4 *326:14 0.000355538
5 *1107:A *1260:A 4.19006e-05
6 *1107:A *1364:A 6.44307e-05
7 *1107:A *1366:A 0.000179203
8 *326:14 *1364:A 1.61461e-05
9 acc[5] *1107:A 8.66107e-06
10 *1109:B *326:14 7.33626e-05
11 *1326:A *326:14 1.88904e-05
12 *154:6 *1107:A 4.99619e-05
13 *154:10 *1107:A 9.53428e-06
*RES
1 *1326:X *326:14 5.985 
2 *326:14 *1107:A 8.28 
3 *326:14 *1108:A 3.6 
*END

*D_NET *327 0.00122079
*CONN
*I *1115:A1 I *D sky130_fd_sc_hd__a21oi_1
*I *1245:A1 I *D sky130_fd_sc_hd__a21oi_1
*I *1102:A I *D sky130_fd_sc_hd__xnor2_1
*I *1327:X O *D sky130_fd_sc_hd__buf_1
*CAP
1 *1115:A1 0.000141838
2 *1245:A1 0
3 *1102:A 0.000109588
4 *1327:X 0.000117078
5 *327:10 0.000109588
6 *327:8 0.000258915
7 *1102:A *1245:A2 0.0001249
8 *1102:A *364:20 9.61248e-05
9 *1115:A1 *364:14 0
10 *327:8 *1367:A 0
11 *1115:B1 *1115:A1 4.82863e-05
12 *1245:B1 *1115:A1 6.28765e-05
13 *1245:B1 *327:8 5.53249e-06
14 *149:10 *1115:A1 3.86529e-05
15 *263:12 *1115:A1 4.21973e-05
16 *303:55 *1102:A 6.52181e-05
*RES
1 *1327:X *327:8 5.235 
2 *327:8 *327:10 2 
3 *327:10 *1102:A 4.495 
4 *327:10 *1245:A1 1.6 
5 *327:8 *1115:A1 6.12 
*END

*D_NET *328 0.00151483
*CONN
*I *1075:A I *D sky130_fd_sc_hd__nor2_1
*I *1074:A I *D sky130_fd_sc_hd__nand2_1
*I *1076:A I *D sky130_fd_sc_hd__or2_1
*I *1328:X O *D sky130_fd_sc_hd__clkbuf_1
*CAP
1 *1075:A 0.000147013
2 *1074:A 2.96049e-05
3 *1076:A 0.000304314
4 *1328:X 0
5 *328:10 0.000414136
6 *328:4 0.00022723
7 *1074:A *335:31 0
8 *1075:A *1075:B 4.66108e-05
9 *1075:A *1341:A 3.25635e-05
10 *1076:A *1081:A 0
11 *1076:A *335:16 7.92464e-06
12 *1086:A1 *1074:A 1.94892e-05
13 *1086:A1 *1075:A 3.00381e-05
14 *1086:A1 *1076:A 2.05056e-05
15 *1086:A1 *328:10 2.46089e-05
16 *1086:A2 *1076:A 8.65961e-05
17 *1086:B1 *1076:A 2.62068e-05
18 *1120:B1 *1076:A 3.07153e-05
19 *1317:A *328:10 4.9253e-06
20 *125:14 *1074:A 3.05373e-05
21 *317:12 *1074:A 5.11148e-06
22 *317:12 *328:10 2.67022e-05
*RES
1 *1328:X *328:4 1.6 
2 *328:4 *328:10 3.32 
3 *328:10 *1076:A 7.68 
4 *328:10 *1074:A 4.47 
5 *328:4 *1075:A 4.405 
*END

*D_NET *329 0.000837592
*CONN
*I *1103:A I *D sky130_fd_sc_hd__and2_1
*I *1104:A I *D sky130_fd_sc_hd__nor2_1
*I *1329:X O *D sky130_fd_sc_hd__clkbuf_1
*CAP
1 *1103:A 7.20845e-05
2 *1104:A 0
3 *1329:X 0.000297588
4 *329:8 0.000369672
5 *1103:A *1103:B 4.82863e-05
6 *151:6 *1103:A 4.99619e-05
*RES
1 *1329:X *329:8 6.115 
2 *329:8 *1104:A 1.6 
3 *329:8 *1103:A 3.1 
*END

*D_NET *330 0.00130757
*CONN
*I *1087:A I *D sky130_fd_sc_hd__nand2_1
*I *1088:A I *D sky130_fd_sc_hd__or2_1
*I *1330:X O *D sky130_fd_sc_hd__clkbuf_1
*CAP
1 *1087:A 0
2 *1088:A 7.29615e-05
3 *1330:X 0.000228876
4 *330:10 0.000301837
5 *1088:A *1088:B 4.82863e-05
6 *330:10 *1030:A 0.000291475
7 *330:10 *1369:A 0.00036413
*RES
1 *1330:X *330:10 13.1 
2 *330:10 *1088:A 2.74 
3 *330:10 *1087:A 1.6 
*END

*D_NET *331 0.00132382
*CONN
*I *1081:A I *D sky130_fd_sc_hd__nand2_1
*I *1082:A I *D sky130_fd_sc_hd__or2_1
*I *1331:X O *D sky130_fd_sc_hd__clkbuf_1
*CAP
1 *1081:A 0.000290622
2 *1082:A 0.000129171
3 *1331:X 3.69588e-05
4 *331:8 0.000456752
5 *1081:A *1081:B 5.39673e-05
6 *1081:A *335:16 0
7 *1081:A *367:25 8.58169e-05
8 *1082:A *1342:A 0
9 *1082:A *367:25 7.04821e-05
10 acc[12] *1082:A 2.68721e-05
11 acc[12] *331:8 4.66108e-05
12 *1076:A *1081:A 0
13 *1331:A *1082:A 0.00012657
14 *129:12 *1081:A 0
*RES
1 *1331:X *331:8 4.05 
2 *331:8 *1082:A 6.21 
3 *331:8 *1081:A 8.235 
*END

*D_NET *332 0.00780974
*CONN
*I *1304:A I *D sky130_fd_sc_hd__buf_4
*I *1305:A I *D sky130_fd_sc_hd__buf_2
*I *1302:A I *D sky130_fd_sc_hd__buf_4
*I *1303:A I *D sky130_fd_sc_hd__buf_2
*I *1332:X O *D sky130_fd_sc_hd__buf_1
*CAP
1 *1304:A 0.000303053
2 *1305:A 0
3 *1302:A 5.23473e-05
4 *1303:A 0.000221587
5 *1332:X 0.000198097
6 *332:32 0.00171359
7 *332:10 0.00165393
8 *332:6 0.000715426
9 *332:10 *1358:A 0
10 *332:10 *1359:A 0
11 *332:32 *1053:A 0.00054054
12 *332:32 *1359:A 0.000221375
13 *332:32 *333:14 0
14 *332:32 *345:29 0
15 *332:32 *356:10 0.000139245
16 *332:32 *358:10 4.19884e-05
17 *332:32 *368:8 8.8266e-05
18 *332:32 *371:8 9.63449e-05
19 *332:32 *371:10 6.95051e-05
20 *332:32 *371:14 0.000128864
21 acc[0] *332:32 0
22 acc[1] *1303:A 0
23 acc[1] *332:32 5.39961e-05
24 acc[27] *1304:A 3.72916e-05
25 acc[29] *332:32 0
26 *1096:A *332:32 0.000229196
27 *1195:B *332:32 0.000254644
28 *1262:RESET_B *332:32 0.000166346
29 *1263:RESET_B *1303:A 6.95318e-05
30 *1266:RESET_B *1303:A 0
31 *1292:RESET_B *332:32 5.20968e-05
32 *1293:RESET_B *332:32 3.89528e-05
33 *1306:A *332:32 8.59553e-05
34 *1309:A *332:32 0
35 *1319:A *332:32 3.59997e-05
36 *1320:A *332:32 0
37 *1325:A *1303:A 2.89932e-05
38 *1332:A *332:10 0
39 *306:10 *332:32 0.000273695
40 *319:14 *332:32 0.000116853
41 *320:12 *332:32 4.11198e-05
42 *322:12 *332:32 0.000140912
*RES
1 *1332:X *332:6 3.775 
2 *332:6 *332:10 5.42 
3 *332:10 *332:32 38.105 
4 *332:32 *1303:A 9.785 
5 *332:32 *1302:A 2.395 
6 *332:10 *1305:A 3.6 
7 *332:6 *1304:A 6.475 
*END

*D_NET *333 0.000864493
*CONN
*I *1252:B I *D sky130_fd_sc_hd__or2_1
*I *1339:A I *D sky130_fd_sc_hd__buf_2
*I *1096:B I *D sky130_fd_sc_hd__nand2_1
*I *1262:Q O *D sky130_fd_sc_hd__dfrtp_1
*CAP
1 *1252:B 6.10483e-05
2 *1339:A 0
3 *1096:B 5.27404e-05
4 *1262:Q 7.19645e-05
5 *333:14 0.000299234
6 *333:8 0.000379506
7 *1306:A *333:8 0
8 *332:32 *333:14 0
*RES
1 *1262:Q *333:8 4.725 
2 *333:8 *333:14 5.795 
3 *333:14 *1096:B 2.395 
4 *333:14 *1339:A 1.6 
5 *333:8 *1252:B 4.395 
*END

*D_NET *334 0.0013742
*CONN
*I *1078:B I *D sky130_fd_sc_hd__nand2_1
*I *1079:B I *D sky130_fd_sc_hd__or2_1
*I *1340:A I *D sky130_fd_sc_hd__buf_2
*I *1272:Q O *D sky130_fd_sc_hd__dfrtp_1
*CAP
1 *1078:B 1.77093e-05
2 *1079:B 0
3 *1340:A 0.000140612
4 *1272:Q 0.000243488
5 *334:8 0.000401809
6 *1340:A *1035:A 0
7 *1340:A *368:100 8.53113e-06
8 *334:8 *368:100 0.000354725
9 *1079:A *1078:B 4.82919e-05
10 *1079:A *334:8 1.86798e-05
11 *1272:RESET_B *334:8 7.35729e-05
12 *1317:A *1340:A 4.18603e-06
13 *302:22 *334:8 8.34281e-06
14 *317:12 *1340:A 5.42473e-05
*RES
1 *1272:Q *334:8 6.895 
2 *334:8 *1340:A 8 
3 *334:8 *1079:B 1.6 
4 *334:8 *1078:B 2.05 
*END

*D_NET *335 0.0037982
*CONN
*I *1076:B I *D sky130_fd_sc_hd__or2_1
*I *1341:A I *D sky130_fd_sc_hd__buf_2
*I *1075:B I *D sky130_fd_sc_hd__nor2_1
*I *1074:B I *D sky130_fd_sc_hd__nand2_1
*I *1273:Q O *D sky130_fd_sc_hd__dfrtp_1
*CAP
1 *1076:B 2.95589e-05
2 *1341:A 0.000190605
3 *1075:B 2.061e-05
4 *1074:B 0.000219368
5 *1273:Q 0.000473328
6 *335:31 0.00038434
7 *335:16 0.000564742
8 *335:12 0.000675135
9 acc[11] *1341:A 4.82919e-05
10 *1074:A *335:31 0
11 *1075:A *1075:B 4.66108e-05
12 *1075:A *1341:A 3.25635e-05
13 *1076:A *335:16 7.92464e-06
14 *1077:A *335:31 1.52184e-05
15 *1077:B *335:31 3.86529e-05
16 *1079:A *1074:B 3.26889e-05
17 *1081:A *335:16 0
18 *1085:C *335:12 0
19 *1086:A1 *335:31 6.10014e-05
20 *1086:A2 *1074:B 1.03423e-05
21 *1086:B1 *1074:B 8.49205e-05
22 *1086:B1 *335:16 0
23 *1120:A2 *335:12 5.83121e-06
24 *1120:B1 *335:12 0.000340842
25 *1120:B1 *335:16 8.40213e-05
26 *1328:A *335:31 8.53113e-06
27 *121:6 *1074:B 0.000163199
28 *125:6 *1074:B 2.65814e-06
29 *125:14 *335:31 0
30 *128:8 *335:12 0
31 *131:10 *335:12 0.000250609
32 *167:14 *335:12 6.60261e-06
*RES
1 *1273:Q *335:12 14.675 
2 *335:12 *335:16 2.19 
3 *335:16 *1074:B 4.735 
4 *335:16 *335:31 6.91 
5 *335:31 *1075:B 2.05 
6 *335:31 *1341:A 4.84 
7 *335:12 *1076:B 2.05 
*END

*D_NET *336 0.00683376
*CONN
*I *1342:A I *D sky130_fd_sc_hd__buf_2
*I *1139:A2 I *D sky130_fd_sc_hd__a31o_1
*I *1134:B I *D sky130_fd_sc_hd__nand2_1
*I *1135:B I *D sky130_fd_sc_hd__or2_1
*I *1274:Q O *D sky130_fd_sc_hd__dfrtp_1
*CAP
1 *1342:A 0.00156484
2 *1139:A2 0.000116743
3 *1134:B 0
4 *1135:B 0.000182211
5 *1274:Q 0
6 *336:29 0.000150208
7 *336:10 0.00108263
8 *336:4 0.00243179
9 *1135:B *339:18 4.82863e-05
10 *1139:A2 *1139:A1 1.61831e-05
11 *1082:A *1342:A 0
12 *1089:B *1342:A 0
13 *1136:A *1135:B 8.23479e-05
14 *1136:A *336:10 1.73877e-05
15 *1137:B1 *1139:A2 0.00011695
16 *1137:B1 *336:29 8.65905e-05
17 *1221:B *336:10 0.000111461
18 *1222:A2 *336:10 4.66108e-05
19 *1222:B1_N *336:10 2.66935e-05
20 *1228:C *1342:A 0
21 *1229:B *1342:A 0.000141592
22 *1230:B *1342:A 0
23 *1232:A2 *1342:A 0
24 *1271:D *1342:A 0
25 *1274:D *336:10 6.27529e-05
26 *1274:RESET_B *336:10 4.24575e-05
27 *1331:A *1342:A 4.43871e-06
28 *129:12 *1342:A 0.000119512
29 *136:14 *1342:A 0
30 *164:10 *1342:A 0
31 *183:10 *1135:B 0.000141221
32 *183:10 *336:10 8.53113e-06
33 *183:21 *336:10 0.000108322
34 *186:12 *1139:A2 0.000124007
35 *256:8 *1342:A 0
36 *302:16 *1135:B 0
*RES
1 *1274:Q *336:4 1.6 
2 *336:4 *336:10 12.8 
3 *336:10 *1135:B 7.695 
4 *336:10 *336:29 2.795 
5 *336:29 *1134:B 1.6 
6 *336:29 *1139:A2 4.495 
7 *336:4 *1342:A 28.175 
*END

*D_NET *337 0.00262523
*CONN
*I *1343:A I *D sky130_fd_sc_hd__buf_2
*I *1123:B I *D sky130_fd_sc_hd__or2_1
*I *1122:B I *D sky130_fd_sc_hd__nand2_1
*I *1275:Q O *D sky130_fd_sc_hd__dfrtp_1
*CAP
1 *1343:A 0.000288312
2 *1123:B 0
3 *1122:B 7.60907e-05
4 *1275:Q 0.000224676
5 *337:12 0.000172131
6 *337:6 0.000609028
7 *1122:B *1123:A 3.57349e-05
8 *1122:B *350:14 4.82863e-05
9 *1343:A *1036:A 4.82919e-05
10 *1343:A *350:14 0.000467068
11 *1343:A *368:49 0.000150653
12 *337:6 *368:49 0.000271259
13 *169:14 *1122:B 4.82919e-05
14 *302:52 *337:12 0.000185405
*RES
1 *1275:Q *337:6 5.845 
2 *337:6 *337:12 6.145 
3 *337:12 *1122:B 3.1 
4 *337:12 *1123:B 1.6 
5 *337:6 *1343:A 8.29 
*END

*D_NET *338 0.00190487
*CONN
*I *1126:B I *D sky130_fd_sc_hd__nand2_1
*I *1125:B I *D sky130_fd_sc_hd__or2_1
*I *1344:A I *D sky130_fd_sc_hd__buf_2
*I *1276:Q O *D sky130_fd_sc_hd__dfrtp_1
*CAP
1 *1126:B 0
2 *1125:B 2.28399e-05
3 *1344:A 0.000111044
4 *1276:Q 0.000299606
5 *338:21 0.000459264
6 *338:8 0.000847074
7 *1125:B *1125:A 4.77719e-05
8 *1272:D *338:21 0
9 *1276:RESET_B *338:8 9.25496e-05
10 *1276:RESET_B *338:21 0
11 *302:22 *338:8 2.47231e-05
*RES
1 *1276:Q *338:8 7.155 
2 *338:8 *1344:A 5.235 
3 *338:8 *338:21 8.735 
4 *338:21 *1125:B 2.05 
5 *338:21 *1126:B 1.6 
*END

*D_NET *339 0.00304033
*CONN
*I *1135:A I *D sky130_fd_sc_hd__or2_1
*I *1134:A I *D sky130_fd_sc_hd__nand2_1
*I *1139:A1 I *D sky130_fd_sc_hd__a31o_1
*I *1333:X O *D sky130_fd_sc_hd__buf_1
*CAP
1 *1135:A 0
2 *1134:A 3.10136e-05
3 *1139:A1 0.000121479
4 *1333:X 0.000567868
5 *339:18 0.000370048
6 *339:12 0.000785424
7 *339:12 *1035:A 0.00016676
8 *339:12 *361:12 0
9 *339:12 *368:100 0
10 *1135:B *339:18 4.82863e-05
11 *1136:A *1134:A 5.16418e-05
12 *1136:A *339:18 0.000147852
13 *1136:B *339:18 7.60965e-05
14 *1137:B1 *1139:A1 0.00013031
15 *1139:A2 *1139:A1 1.61831e-05
16 *1235:B *339:12 0.000320834
17 *180:12 *1134:A 4.18603e-06
18 *183:10 *339:18 1.96148e-05
19 *302:16 *339:12 5.00159e-05
20 *302:22 *339:12 0.000132714
*RES
1 *1333:X *339:12 17.375 
2 *339:12 *339:18 6.32 
3 *339:18 *1139:A1 5.79 
4 *339:18 *1134:A 4.215 
5 *339:12 *1135:A 1.6 
*END

*D_NET *340 0.00165306
*CONN
*I *1129:B I *D sky130_fd_sc_hd__nor2_1
*I *1130:B I *D sky130_fd_sc_hd__or2_1
*I *1128:B I *D sky130_fd_sc_hd__nand2_1
*I *1345:A I *D sky130_fd_sc_hd__buf_2
*I *1277:Q O *D sky130_fd_sc_hd__dfrtp_1
*CAP
1 *1129:B 0.000320886
2 *1130:B 0
3 *1128:B 0
4 *1345:A 0
5 *1277:Q 0.000179278
6 *340:28 0.000404866
7 *340:19 0.000107544
8 *340:12 0.000202843
9 *1129:B *1129:A 0.000294121
10 *340:28 *1128:A 5.4155e-06
11 acc[15] *340:12 1.83847e-05
12 *1138:B1 *1129:B 0
13 *1138:C1 *1129:B 3.23663e-05
14 *175:6 *1129:B 3.42871e-05
15 *175:6 *340:28 5.30673e-05
*RES
1 *1277:Q *340:12 8.375 
2 *340:12 *1345:A 1.6 
3 *340:12 *340:19 0.45 
4 *340:19 *1128:B 1.6 
5 *340:19 *340:28 1.5 
6 *340:28 *1130:B 1.6 
7 *340:28 *1129:B 6.58 
*END

*D_NET *341 0.00502666
*CONN
*I *1149:B I *D sky130_fd_sc_hd__or2_1
*I *1346:A I *D sky130_fd_sc_hd__buf_2
*I *1154:A2 I *D sky130_fd_sc_hd__a31o_1
*I *1148:B I *D sky130_fd_sc_hd__nand2_1
*I *1278:Q O *D sky130_fd_sc_hd__dfrtp_1
*CAP
1 *1149:B 0
2 *1346:A 0.000495827
3 *1154:A2 0.000120347
4 *1148:B 3.33766e-05
5 *1278:Q 0.000927783
6 *341:40 0.000600588
7 *341:12 0.00017739
8 *341:10 0.00105621
9 *1148:B *1148:A 4.82863e-05
10 *1154:A2 *1149:A 2.92496e-05
11 *1154:A2 *373:12 0.000174512
12 *341:12 *1148:A 4.66108e-05
13 *341:40 *1149:A 0.000141358
14 *1147:A_N *1154:A2 0
15 *1150:A *1148:B 2.30292e-05
16 *1150:A *341:10 2.75229e-05
17 *1150:A *341:12 1.91597e-05
18 *1150:B *341:40 3.39064e-05
19 *1153:C *1148:B 1.85674e-05
20 *1153:C *1154:A2 0
21 *1213:B *341:10 4.21973e-05
22 *1215:A *1154:A2 0
23 *1216:A *1346:A 8.8266e-05
24 *1278:D *341:10 7.65068e-05
25 *1278:RESET_B *341:10 0.000120741
26 *1279:D *1346:A 0.00016569
27 *193:8 *1154:A2 0
28 *195:8 *1148:B 1.61831e-05
29 *197:6 *341:10 4.88478e-05
30 *197:12 *341:40 0
31 *247:14 *1148:B 0.00012657
32 *247:14 *341:10 0.000295574
33 *247:14 *341:12 7.23635e-05
*RES
1 *1278:Q *341:10 14.245 
2 *341:10 *341:12 0.795 
3 *341:12 *1148:B 3.1 
4 *341:12 *1154:A2 8 
5 *341:10 *341:40 6.085 
6 *341:40 *1346:A 10.36 
7 *341:40 *1149:B 1.6 
*END

*D_NET *342 0.00287897
*CONN
*I *1347:A I *D sky130_fd_sc_hd__buf_2
*I *1217:A2 I *D sky130_fd_sc_hd__a21o_1
*I *1153:B I *D sky130_fd_sc_hd__and3_1
*I *1141:B I *D sky130_fd_sc_hd__xnor2_1
*I *1279:Q O *D sky130_fd_sc_hd__dfrtp_1
*CAP
1 *1347:A 0.000241841
2 *1217:A2 1.12822e-05
3 *1153:B 0.000315281
4 *1141:B 0
5 *1279:Q 0.000280545
6 *342:23 0.000370838
7 *342:19 0.000369375
8 *342:10 0.000363804
9 *1347:A *1141:A 4.21314e-05
10 *342:10 *1141:A 3.25831e-05
11 *342:19 *1141:A 0.000179922
12 *1144:A *1347:A 0
13 *1147:A_N *1153:B 8.51602e-05
14 *1153:C *1153:B 5.20968e-05
15 *1216:A *342:10 0
16 *1216:A *342:19 0
17 *1217:B1 *1153:B 0.000163204
18 *1217:B1 *1217:A2 4.82919e-05
19 *1217:B1 *342:19 0
20 *1294:A *1153:B 8.37928e-05
21 *1294:A *1217:A2 8.8266e-05
22 *1294:A *342:23 0.0001249
23 *1337:A *1347:A 2.56523e-05
24 *35:11 *1347:A 0
25 *250:10 *1347:A 0
*RES
1 *1279:Q *342:10 7.725 
2 *342:10 *1141:B 3.6 
3 *342:10 *342:19 2.145 
4 *342:19 *342:23 3.14 
5 *342:23 *1153:B 11.585 
6 *342:23 *1217:A2 2.395 
7 *342:19 *1347:A 7.785 
*END

*D_NET *343 0.0017253
*CONN
*I *1152:C1 I *D sky130_fd_sc_hd__o211a_1
*I *1143:B I *D sky130_fd_sc_hd__nand2_1
*I *1142:B I *D sky130_fd_sc_hd__or2_1
*I *1348:A I *D sky130_fd_sc_hd__buf_2
*I *1280:Q O *D sky130_fd_sc_hd__dfrtp_1
*CAP
1 *1152:C1 9.11814e-05
2 *1143:B 0
3 *1142:B 0
4 *1348:A 5.53732e-05
5 *1280:Q 7.77769e-05
6 *343:18 0.000226379
7 *343:12 0.000510908
8 *343:8 0.00050886
9 *1152:C1 *1152:A2 4.18603e-06
10 *1143:A *343:18 0.000131986
11 *1155:C1 *1152:C1 6.1452e-05
12 *1155:C1 *343:8 5.72004e-05
*RES
1 *1280:Q *343:8 5.235 
2 *343:8 *343:12 6.935 
3 *343:12 *343:18 3.24 
4 *343:18 *1348:A 2.395 
5 *343:18 *1142:B 1.6 
6 *343:12 *1143:B 1.6 
7 *343:8 *1152:C1 5.49 
*END

*D_NET *344 0.00301212
*CONN
*I *1152:A2 I *D sky130_fd_sc_hd__o211a_1
*I *1155:A2 I *D sky130_fd_sc_hd__a211oi_1
*I *1145:B I *D sky130_fd_sc_hd__xnor2_1
*I *1349:A I *D sky130_fd_sc_hd__buf_2
*I *1281:Q O *D sky130_fd_sc_hd__dfrtp_1
*CAP
1 *1152:A2 0.000155389
2 *1155:A2 0.000173136
3 *1145:B 0
4 *1349:A 0.000184254
5 *1281:Q 5.69782e-05
6 *344:10 0.000380231
7 *344:8 0.000594386
8 *344:6 0.000437639
9 *1145:A *1349:A 3.25831e-05
10 *1146:B *1152:A2 0
11 *1146:B *1155:A2 4.92096e-05
12 *1152:C1 *1152:A2 4.18603e-06
13 *1220:A *1152:A2 0
14 *1220:A *1155:A2 1.73877e-05
15 *1220:B *1349:A 0.000208484
16 *1281:CLK *344:8 0.000143669
17 *1281:CLK *344:10 6.6925e-05
18 *1307:A *1349:A 6.5265e-05
19 *35:11 *1349:A 0
20 *192:8 *344:8 6.52265e-05
21 *192:8 *344:10 0.000253946
22 *307:10 *1155:A2 0
23 *307:14 *1155:A2 0
24 *308:8 *1155:A2 0.000123225
*RES
1 *1281:Q *344:6 2.395 
2 *344:6 *344:8 4.59 
3 *344:8 *344:10 4.59 
4 *344:10 *1349:A 10.04 
5 *344:10 *1145:B 1.6 
6 *344:8 *1155:A2 8.885 
7 *344:6 *1152:A2 7.745 
*END

*D_NET *345 0.00300471
*CONN
*I *1092:B I *D sky130_fd_sc_hd__nand2_1
*I *1094:B I *D sky130_fd_sc_hd__nor2_1
*I *1350:A I *D sky130_fd_sc_hd__buf_2
*I *1263:Q O *D sky130_fd_sc_hd__dfrtp_1
*CAP
1 *1092:B 0.000184039
2 *1094:B 0
3 *1350:A 0
4 *1263:Q 0.000438162
5 *345:29 0.000580809
6 *345:10 0.000834932
7 acc[1] *345:10 0
8 acc[1] *345:29 0
9 *1094:A *1092:B 0.000242238
10 *1094:A *345:29 0
11 *1095:A *1092:B 0.000118036
12 *1096:A *345:29 0
13 *1097:B1 *1092:B 0
14 *1262:CLK *1092:B 0.00015829
15 *1262:D *345:29 0.00012657
16 *1263:D *345:10 0
17 *1263:D *345:29 0
18 *141:16 *345:29 4.66108e-05
19 *143:12 *345:29 6.55328e-05
20 *143:14 *1092:B 4.82919e-05
21 *143:14 *345:29 0.000161204
22 *332:32 *345:29 0
*RES
1 *1263:Q *345:10 8.79 
2 *345:10 *1350:A 3.6 
3 *345:10 *345:29 10.22 
4 *345:29 *1094:B 1.6 
5 *345:29 *1092:B 11.135 
*END

*D_NET *346 0.00350234
*CONN
*I *1168:B I *D sky130_fd_sc_hd__nand2_1
*I *1351:A I *D sky130_fd_sc_hd__buf_2
*I *1169:B I *D sky130_fd_sc_hd__or2_1
*I *1282:Q O *D sky130_fd_sc_hd__dfrtp_1
*CAP
1 *1168:B 9.71884e-06
2 *1351:A 0.000446656
3 *1169:B 0
4 *1282:Q 0.000351014
5 *346:12 0.000510207
6 *346:10 0.000424284
7 *1164:A *1351:A 0
8 *1175:A *1351:A 4.46892e-05
9 *1175:C *1351:A 0.000295393
10 *1282:RESET_B *346:10 4.20162e-05
11 *1287:CLK *1168:B 4.82919e-05
12 *1312:A *1351:A 0
13 *210:10 *1351:A 0.000176722
14 *218:14 *346:10 7.70304e-07
15 *304:18 *346:10 7.07975e-05
16 *304:38 *346:10 5.92849e-05
17 *304:47 *346:10 7.75325e-05
18 *304:62 *1351:A 0.000888578
19 *304:62 *346:10 8.09021e-06
20 *310:14 *1168:B 4.82919e-05
21 *310:14 *1351:A 0
22 *312:12 *1351:A 0
*RES
1 *1282:Q *346:10 10.455 
2 *346:10 *346:12 0.795 
3 *346:12 *1169:B 3.6 
4 *346:12 *1351:A 16.395 
5 *346:10 *1168:B 4.05 
*END

*D_NET *347 0.00294181
*CONN
*I *1158:B I *D sky130_fd_sc_hd__or2_1
*I *1157:B I *D sky130_fd_sc_hd__nand2_1
*I *1352:A I *D sky130_fd_sc_hd__buf_2
*I *1283:Q O *D sky130_fd_sc_hd__dfrtp_1
*CAP
1 *1158:B 0.000371795
2 *1157:B 5.02911e-05
3 *1352:A 0.000207851
4 *1283:Q 0
5 *347:19 0.00113071
6 *347:4 0.000916473
7 *1157:A *1158:B 5.7633e-05
8 *1159:B *1158:B 2.08881e-05
9 *1208:A2 *1158:B 2.43962e-05
10 *35:11 *1352:A 0
11 *205:8 *1157:B 0
12 *205:8 *1158:B 0.000158175
13 *311:12 *1158:B 3.60024e-06
*RES
1 *1283:Q *347:4 1.6 
2 *347:4 *1352:A 8.375 
3 *347:4 *347:19 7.695 
4 *347:19 *1157:B 2.47 
5 *347:19 *1158:B 10.37 
*END

*D_NET *348 0.00101252
*CONN
*I *1161:B I *D sky130_fd_sc_hd__nand2_1
*I *1160:B I *D sky130_fd_sc_hd__or2_1
*I *1353:A I *D sky130_fd_sc_hd__buf_2
*I *1284:Q O *D sky130_fd_sc_hd__dfrtp_1
*CAP
1 *1161:B 7.72293e-06
2 *1160:B 0
3 *1353:A 0.00013379
4 *1284:Q 0.000125594
5 *348:8 0.000267107
6 *1160:A *1161:B 2.76781e-05
7 *1160:A *348:8 5.30673e-05
8 *1209:A *1353:A 0
9 *1311:A *1353:A 0
10 *1312:A *1353:A 0
11 *207:10 *348:8 2.49909e-05
12 *304:64 *1161:B 4.82919e-05
13 *304:64 *348:8 0.000272978
14 *312:12 *1353:A 5.13029e-05
*RES
1 *1284:Q *348:8 4.735 
2 *348:8 *1353:A 8 
3 *348:8 *1160:B 1.6 
4 *348:8 *1161:B 2.05 
*END

*D_NET *349 0.00202707
*CONN
*I *1163:B I *D sky130_fd_sc_hd__nand2_1
*I *1354:A I *D sky130_fd_sc_hd__buf_2
*I *1164:B I *D sky130_fd_sc_hd__or2_1
*I *1285:Q O *D sky130_fd_sc_hd__dfrtp_1
*CAP
1 *1163:B 0.000309369
2 *1354:A 0
3 *1164:B 0.000204832
4 *1285:Q 0
5 *349:25 0.000562124
6 *349:4 0.000457588
7 *1163:B *1044:A 0.000177859
8 *1164:B *1044:A 0
9 *349:25 *1044:A 6.36578e-05
10 *349:25 *1356:A 0
11 *1163:A *1163:B 3.293e-05
12 *1164:A *1164:B 7.53115e-05
13 *1285:RESET_B *1164:B 7.87426e-05
14 *1313:A *349:25 0
15 *210:10 *1163:B 2.11084e-05
16 *313:8 *1163:B 4.35432e-05
*RES
1 *1285:Q *349:4 1.6 
2 *349:4 *1164:B 9.14 
3 *349:4 *349:25 7.465 
4 *349:25 *1354:A 1.6 
5 *349:25 *1163:B 6.91 
*END

*D_NET *350 0.00151918
*CONN
*I *1123:A I *D sky130_fd_sc_hd__or2_1
*I *1122:A I *D sky130_fd_sc_hd__nand2_1
*I *1334:X O *D sky130_fd_sc_hd__clkbuf_1
*CAP
1 *1123:A 5.29196e-05
2 *1122:A 0
3 *1334:X 0.000292902
4 *350:14 0.000345821
5 *350:14 *1036:A 6.73665e-05
6 *1122:B *1123:A 3.57349e-05
7 *1122:B *350:14 4.82863e-05
8 *1343:A *350:14 0.000467068
9 *169:14 *1123:A 4.60584e-05
10 *302:52 *350:14 0.000163019
*RES
1 *1334:X *350:14 12.185 
2 *350:14 *1122:A 1.6 
3 *350:14 *1123:A 2.74 
*END

*D_NET *351 0.00409971
*CONN
*I *1355:A I *D sky130_fd_sc_hd__buf_2
*I *1071:B I *D sky130_fd_sc_hd__nand2_1
*I *1072:B I *D sky130_fd_sc_hd__or2_1
*I *1286:Q O *D sky130_fd_sc_hd__dfrtp_1
*CAP
1 *1355:A 0.000446005
2 *1071:B 9.6797e-05
3 *1072:B 2.68391e-05
4 *1286:Q 0.00016224
5 *351:27 0.000623917
6 *351:12 0.000270194
7 *1355:A *370:120 0.000549964
8 *351:12 *370:120 0.000155928
9 *351:27 *370:120 3.73085e-05
10 *1064:B *1355:A 0.000120186
11 *1071:A *1071:B 6.77417e-05
12 *1071:A *1072:B 8.65905e-05
13 *1179:A2 *351:27 0
14 *1288:RESET_B *1355:A 0
15 *1314:A *1355:A 0
16 *1315:A *1355:A 0
17 *110:27 *1355:A 0.000399628
18 *118:8 *1071:B 0.000237243
19 *120:10 *1071:B 3.23663e-05
20 *120:10 *1072:B 0.000122325
21 *120:19 *1071:B 0
22 *301:30 *351:12 7.47215e-05
23 *305:8 *351:12 2.16917e-05
24 *305:12 *351:12 9.35556e-05
25 *314:16 *1071:B 8.49205e-05
26 *314:16 *1072:B 1.91597e-05
27 *314:16 *1355:A 0.000355168
28 *314:16 *351:27 1.52184e-05
29 *315:8 *1355:A 0
*RES
1 *1286:Q *351:12 6.99 
2 *351:12 *1072:B 4.74 
3 *351:12 *351:27 1.425 
4 *351:27 *1071:B 6.735 
5 *351:27 *1355:A 17.73 
*END

*D_NET *352 0.00321631
*CONN
*I *1057:B I *D sky130_fd_sc_hd__nand2_1
*I *1356:A I *D sky130_fd_sc_hd__buf_2
*I *1058:B I *D sky130_fd_sc_hd__or2_1
*I *1287:Q O *D sky130_fd_sc_hd__dfrtp_1
*CAP
1 *1057:B 0.000173458
2 *1356:A 0.00033315
3 *1058:B 3.44475e-05
4 *1287:Q 0.000115137
5 *352:18 0.00053715
6 *352:10 0.000458148
7 *1057:A *1057:B 6.12918e-06
8 *1057:A *1058:B 6.52265e-05
9 *1058:A *1356:A 0
10 *1059:A *352:18 3.18219e-05
11 *1065:A *1058:B 4.82919e-05
12 *1200:A1 *1058:B 2.16917e-05
13 *1200:A1 *352:18 5.16418e-05
14 *1200:A2 *1057:B 7.06865e-05
15 *1200:A2 *352:10 0.000224415
16 *1200:A2 *352:18 3.31282e-05
17 *1202:B *1057:B 5.062e-06
18 *1202:B *1356:A 0
19 *1288:CLK *1057:B 6.28498e-05
20 *1288:CLK *1356:A 0.000142029
21 *1288:CLK *352:10 0.000367681
22 *1315:A *1356:A 0
23 *104:8 *1057:B 0.000122325
24 *104:8 *1058:B 0.000123225
25 *104:21 *1356:A 1.22762e-05
26 *104:21 *352:18 7.21296e-06
27 *224:14 *352:10 2.75229e-05
28 *240:10 *352:10 0.000141599
29 *315:8 *1356:A 0
30 *349:25 *1356:A 0
*RES
1 *1287:Q *352:10 8.235 
2 *352:10 *352:18 6.52 
3 *352:18 *1058:B 5.085 
4 *352:18 *1356:A 10.08 
5 *352:10 *1057:B 6.57 
*END

*D_NET *353 0.00216777
*CONN
*I *1357:A I *D sky130_fd_sc_hd__buf_2
*I *1067:C1 I *D sky130_fd_sc_hd__o211a_1
*I *1061:B I *D sky130_fd_sc_hd__nand2_1
*I *1062:B I *D sky130_fd_sc_hd__or2_1
*I *1288:Q O *D sky130_fd_sc_hd__dfrtp_1
*CAP
1 *1357:A 0.000262198
2 *1067:C1 0
3 *1061:B 0
4 *1062:B 0
5 *1288:Q 0.000160598
6 *353:32 0.000506617
7 *353:17 0.000318517
8 *353:8 0.000234696
9 *1357:A *354:12 2.54606e-05
10 *353:32 *1068:A2 1.94892e-05
11 *353:32 *354:12 4.18603e-06
12 *1060:A *353:32 0.000191649
13 *1062:A *353:8 8.8266e-05
14 *1062:A *353:17 4.99619e-05
15 *1063:B *353:8 4.82863e-05
16 *1067:B1 *353:32 5.37326e-05
17 *1289:D *353:32 7.21296e-06
18 *1318:A *1357:A 5.53249e-06
19 *107:10 *353:32 4.43871e-06
20 *110:12 *353:8 5.05437e-05
21 *316:14 *353:17 4.4465e-05
22 *316:14 *353:32 8.8266e-05
23 *318:10 *1357:A 3.64998e-06
*RES
1 *1288:Q *353:8 4.48 
2 *353:8 *1062:B 1.6 
3 *353:8 *353:17 1.5 
4 *353:17 *1061:B 1.6 
5 *353:17 *353:32 6.545 
6 *353:32 *1067:C1 3.6 
7 *353:32 *1357:A 7.83 
*END

*D_NET *354 0.00303223
*CONN
*I *1358:A I *D sky130_fd_sc_hd__buf_2
*I *1060:B I *D sky130_fd_sc_hd__xnor2_1
*I *1067:A2 I *D sky130_fd_sc_hd__o211a_1
*I *1068:A2 I *D sky130_fd_sc_hd__a211o_1
*I *1289:Q O *D sky130_fd_sc_hd__dfrtp_1
*CAP
1 *1358:A 0.000105364
2 *1060:B 3.55506e-05
3 *1067:A2 0
4 *1068:A2 7.75908e-05
5 *1289:Q 0
6 *354:12 0.000355941
7 *354:6 0.000953826
8 *354:4 0.000745288
9 *1358:A *370:12 0
10 *1060:A *354:12 0.000101004
11 *1066:B *1068:A2 4.18603e-06
12 *1067:B1 *354:12 4.82919e-05
13 *1068:A1 *1068:A2 0.000159269
14 *1289:CLK *354:6 0.000257807
15 *1289:D *354:6 4.92604e-05
16 *1289:D *354:12 1.33293e-05
17 *1357:A *354:12 2.54606e-05
18 *107:10 *1068:A2 0
19 *318:10 *1068:A2 9.50342e-06
20 *318:10 *354:12 6.68849e-05
21 *332:10 *1358:A 0
22 *353:32 *1068:A2 1.94892e-05
23 *353:32 *354:12 4.18603e-06
*RES
1 *1289:Q *354:4 1.6 
2 *354:4 *354:6 8.04 
3 *354:6 *354:12 6.08 
4 *354:12 *1068:A2 5.49 
5 *354:12 *1067:A2 3.6 
6 *354:6 *1060:B 2.215 
7 *354:4 *1358:A 7.235 
*END

*D_NET *355 0.00493693
*CONN
*I *1359:A I *D sky130_fd_sc_hd__buf_2
*I *1054:B I *D sky130_fd_sc_hd__nand2_1
*I *1055:B I *D sky130_fd_sc_hd__or2_1
*I *1290:Q O *D sky130_fd_sc_hd__dfrtp_1
*CAP
1 *1359:A 0.000922648
2 *1054:B 0
3 *1055:B 2.89361e-05
4 *1290:Q 0.000198024
5 *355:25 0.0011574
6 *355:10 0.000461711
7 *1359:A *1194:B 0.000210846
8 *1359:A *1363:A 0.000133763
9 *1359:A *358:10 0.000116165
10 acc[28] *1359:A 1.22505e-05
11 acc[30] *1359:A 1.17114e-05
12 *1054:A *1359:A 0
13 *1055:A *1055:B 1.85674e-05
14 *1055:A *355:25 0.000238919
15 *1056:A *355:25 4.18603e-06
16 *1185:B *355:10 0
17 *1194:A *1359:A 6.18754e-05
18 *1195:B *1359:A 0.000163019
19 *1322:A *1359:A 8.97963e-05
20 *1323:A *1359:A 0
21 *101:40 *1359:A 2.76781e-05
22 *305:82 *1359:A 0.000163204
23 *305:82 *355:25 2.96426e-05
24 *319:14 *1359:A 0.00053284
25 *319:14 *355:25 7.49327e-05
26 *322:12 *1359:A 5.74404e-05
27 *332:10 *1359:A 0
28 *332:32 *1359:A 0.000221375
*RES
1 *1290:Q *355:10 8.765 
2 *355:10 *1055:B 2.215 
3 *355:10 *355:25 8.17 
4 *355:25 *1054:B 1.6 
5 *355:25 *1359:A 26.75 
*END

*D_NET *356 0.000729901
*CONN
*I *1181:B I *D sky130_fd_sc_hd__nor2_1
*I *1360:A I *D sky130_fd_sc_hd__buf_2
*I *1182:B I *D sky130_fd_sc_hd__nand2_1
*I *1291:Q O *D sky130_fd_sc_hd__dfrtp_1
*CAP
1 *1181:B 0
2 *1360:A 8.37705e-05
3 *1182:B 2.29444e-05
4 *1291:Q 8.86884e-05
5 *356:10 0.000195403
6 acc[29] *356:10 0
7 *1182:A *1182:B 8.40213e-05
8 *1182:A *1360:A 5.96707e-05
9 *227:10 *1182:B 4.0843e-05
10 *227:10 *1360:A 1.08758e-05
11 *320:12 *356:10 4.43871e-06
12 *332:32 *356:10 0.000139245
*RES
1 *1291:Q *356:10 7.235 
2 *356:10 *1182:B 2.395 
3 *356:10 *1360:A 3.46 
4 *356:10 *1181:B 1.6 
*END

*D_NET *357 0.00239642
*CONN
*I *1361:A I *D sky130_fd_sc_hd__buf_2
*I *1091:B I *D sky130_fd_sc_hd__nor2_1
*I *1090:B I *D sky130_fd_sc_hd__and2_1
*I *1264:Q O *D sky130_fd_sc_hd__dfrtp_1
*CAP
1 *1361:A 0.000886497
2 *1091:B 4.07024e-05
3 *1090:B 2.05547e-05
4 *1264:Q 0
5 *357:10 0.000228802
6 *357:6 0.00105404
7 *1361:A *1255:A 0
8 *357:10 *1255:A 0
9 *1090:A *1091:B 4.91067e-05
10 *1091:A *1091:B 5.4155e-06
11 *138:10 *1090:B 2.30292e-05
12 *138:10 *1091:B 8.8266e-05
*RES
1 *1264:Q *357:6 3.6 
2 *357:6 *357:10 4.655 
3 *357:10 *1090:B 2.05 
4 *357:10 *1091:B 3.115 
5 *357:6 *1361:A 16.725 
*END

*D_NET *358 0.000517389
*CONN
*I *1362:A I *D sky130_fd_sc_hd__buf_2
*I *1186:B I *D sky130_fd_sc_hd__nor2_1
*I *1187:B I *D sky130_fd_sc_hd__nand2_1
*I *1292:Q O *D sky130_fd_sc_hd__dfrtp_1
*CAP
1 *1362:A 7.11937e-05
2 *1186:B 1.16927e-05
3 *1187:B 0
4 *1292:Q 0
5 *358:10 5.82093e-05
6 *358:4 0.00011771
7 *1186:A *1186:B 4.82863e-05
8 *1359:A *358:10 0.000116165
9 *231:6 *1186:B 4.66108e-05
10 *322:12 *358:10 5.53249e-06
11 *332:32 *358:10 4.19884e-05
*RES
1 *1292:Q *358:4 1.6 
2 *358:4 *358:10 5.38 
3 *358:10 *1187:B 1.6 
4 *358:10 *1186:B 2.05 
5 *358:4 *1362:A 2.665 
*END

*D_NET *359 0.00115355
*CONN
*I *1363:A I *D sky130_fd_sc_hd__buf_2
*I *1194:B I *D sky130_fd_sc_hd__xnor2_1
*I *1293:Q O *D sky130_fd_sc_hd__dfrtp_1
*CAP
1 *1363:A 3.14993e-05
2 *1194:B 5.81033e-05
3 *1293:Q 0.000114062
4 *359:8 0.000203665
5 *1194:A *1194:B 0.000233918
6 *1194:A *1363:A 0.000141599
7 *1195:B *1194:B 2.60908e-05
8 *1359:A *1194:B 0.000210846
9 *1359:A *1363:A 0.000133763
*RES
1 *1293:Q *359:8 4.74 
2 *359:8 *1194:B 6.51 
3 *359:8 *1363:A 5.235 
*END

*D_NET *360 0.00775483
*CONN
*I *1099:A2 I *D sky130_fd_sc_hd__a21o_1
*I *1100:B I *D sky130_fd_sc_hd__xor2_1
*I *1114:A2 I *D sky130_fd_sc_hd__o221ai_4
*I *1101:A2 I *D sky130_fd_sc_hd__o22ai_1
*I *1364:A I *D sky130_fd_sc_hd__buf_2
*I *1265:Q O *D sky130_fd_sc_hd__dfrtp_4
*CAP
1 *1099:A2 5.02911e-05
2 *1100:B 0.000507831
3 *1114:A2 0
4 *1101:A2 9.70608e-05
5 *1364:A 0.000628458
6 *1265:Q 0.000271526
7 *360:43 0.000511037
8 *360:33 0.000921807
9 *360:31 0.000441361
10 *360:10 0.00129105
11 *1364:A *1256:A 5.00612e-05
12 *1364:A *1365:A 0
13 *1364:A *363:10 0.000183043
14 *1364:A *369:20 4.83411e-05
15 *360:10 *1256:A 0.000116544
16 *360:10 *368:18 4.82919e-05
17 *1099:A1 *1100:B 6.92392e-05
18 *1099:A1 *360:43 0.000249928
19 *1099:B1 *1100:B 7.04021e-05
20 *1100:A *1100:B 0.000124895
21 *1100:A *1101:A2 5.56629e-05
22 *1107:A *1364:A 6.44307e-05
23 *1109:A *1364:A 0
24 *1109:B *1364:A 0.00011852
25 *1113:C *360:43 9.54399e-05
26 *1114:B2 *360:43 0.000115035
27 *1262:CLK *360:10 7.76064e-05
28 *1265:RESET_B *360:10 0
29 *1266:D *1364:A 7.23533e-05
30 *1266:D *360:10 4.54719e-05
31 *1270:CLK *1101:A2 0
32 *157:20 *1364:A 0.000467074
33 *159:20 *360:43 0
34 *161:10 *360:43 0
35 *303:30 *360:31 0.000131366
36 *303:36 *1100:B 0
37 *303:36 *1364:A 0
38 *303:36 *360:10 0
39 *303:36 *360:43 0
40 *303:97 *360:10 9.3062e-06
41 *303:97 *360:31 4.41363e-05
42 *324:6 *1364:A 0.000369092
43 *324:6 *360:43 1.56428e-05
44 *324:8 *360:43 0.000160066
45 *324:14 *1101:A2 0.000166346
46 *324:14 *360:43 4.99619e-05
47 *326:14 *1364:A 1.61461e-05
*RES
1 *1265:Q *360:10 9.255 
2 *360:10 *1364:A 23.125 
3 *360:10 *360:31 6.935 
4 *360:31 *360:33 2 
5 *360:33 *360:43 9.53 
6 *360:43 *1101:A2 8 
7 *360:43 *1114:A2 1.6 
8 *360:33 *1100:B 11.79 
9 *360:31 *1099:A2 2.47 
*END

*D_NET *361 0.00153558
*CONN
*I *1125:A I *D sky130_fd_sc_hd__or2_1
*I *1126:A I *D sky130_fd_sc_hd__nand2_1
*I *1335:X O *D sky130_fd_sc_hd__clkbuf_1
*CAP
1 *1125:A 0.000143098
2 *1126:A 0
3 *1335:X 0.000600806
4 *361:12 0.000743905
5 *1125:B *1125:A 4.77719e-05
6 *339:12 *361:12 0
*RES
1 *1335:X *361:12 14.93 
2 *361:12 *1126:A 1.6 
3 *361:12 *1125:A 4.15 
*END

*D_NET *362 0.00144835
*CONN
*I *1110:B I *D sky130_fd_sc_hd__nand2_1
*I *1111:B I *D sky130_fd_sc_hd__or2_1
*I *1365:A I *D sky130_fd_sc_hd__buf_2
*I *1266:Q O *D sky130_fd_sc_hd__dfrtp_1
*CAP
1 *1110:B 9.01067e-05
2 *1111:B 0
3 *1365:A 0.000197937
4 *1266:Q 0.000237294
5 *362:14 0.000525337
6 *362:14 *369:12 8.65905e-05
7 acc[4] *1365:A 6.0143e-05
8 *1111:A *1110:B 4.82919e-05
9 *1111:A *362:14 8.65905e-05
10 *1324:A *1365:A 6.55328e-05
11 *1324:A *362:14 0
12 *1326:A *1365:A 9.50342e-06
13 *1364:A *1365:A 0
14 *157:8 *1110:B 2.05056e-05
15 *157:8 *362:14 2.0514e-05
16 *157:20 *1365:A 0
17 *157:20 *362:14 0
18 *325:10 *362:14 0
*RES
1 *1266:Q *362:14 9.425 
2 *362:14 *1365:A 9.53 
3 *362:14 *1111:B 1.6 
4 *362:14 *1110:B 3.1 
*END

*D_NET *363 0.00122311
*CONN
*I *1108:B I *D sky130_fd_sc_hd__or2_1
*I *1366:A I *D sky130_fd_sc_hd__buf_2
*I *1107:B I *D sky130_fd_sc_hd__nand2_1
*I *1267:Q O *D sky130_fd_sc_hd__dfrtp_1
*CAP
1 *1108:B 0.000180956
2 *1366:A 9.81993e-05
3 *1107:B 0
4 *1267:Q 0
5 *363:10 0.000200685
6 *363:4 0.000283442
7 *1366:A *1260:A 5.05437e-05
8 *1107:A *1366:A 0.000179203
9 *1109:A *363:10 4.70343e-05
10 *1364:A *363:10 0.000183043
*RES
1 *1267:Q *363:4 1.6 
2 *363:4 *363:10 6.145 
3 *363:10 *1107:B 1.6 
4 *363:10 *1366:A 4.15 
5 *363:4 *1108:B 4.135 
*END

*D_NET *364 0.00173706
*CONN
*I *1115:A2 I *D sky130_fd_sc_hd__a21oi_1
*I *1102:B I *D sky130_fd_sc_hd__xnor2_1
*I *1245:A2 I *D sky130_fd_sc_hd__a21oi_1
*I *1367:A I *D sky130_fd_sc_hd__buf_2
*I *1268:Q O *D sky130_fd_sc_hd__dfrtp_1
*CAP
1 *1115:A2 4.60278e-05
2 *1102:B 0
3 *1245:A2 5.34163e-05
4 *1367:A 0.00017434
5 *1268:Q 7.19617e-05
6 *364:20 0.00030719
7 *364:14 0.000231721
8 *364:8 0.000270277
9 *364:14 *1259:A 0
10 *1102:A *1245:A2 0.0001249
11 *1102:A *364:20 9.61248e-05
12 *1115:A1 *364:14 0
13 *1268:D *1115:A2 0.0001249
14 *1268:D *364:8 8.65905e-05
15 *1327:A *1367:A 8.53113e-06
16 *149:10 *364:14 0
17 *303:55 *1245:A2 0.0001249
18 *303:55 *364:20 1.61831e-05
19 *327:8 *1367:A 0
*RES
1 *1268:Q *364:8 3.01 
2 *364:8 *364:14 6.145 
3 *364:14 *364:20 3.5 
4 *364:20 *1367:A 6.285 
5 *364:20 *1245:A2 5.355 
6 *364:14 *1102:B 1.6 
7 *364:8 *1115:A2 2.74 
*END

*D_NET *365 0.0013897
*CONN
*I *1368:A I *D sky130_fd_sc_hd__buf_2
*I *1104:B I *D sky130_fd_sc_hd__nor2_1
*I *1103:B I *D sky130_fd_sc_hd__and2_1
*I *1269:Q O *D sky130_fd_sc_hd__dfrtp_1
*CAP
1 *1368:A 0.000180297
2 *1104:B 0
3 *1103:B 5.23724e-05
4 *1269:Q 0
5 *365:12 0.000350835
6 *365:4 0.00047876
7 *365:12 *1260:A 0
8 *1103:A *1103:B 4.82863e-05
9 *1246:A *365:12 0
10 *1269:RESET_B *1368:A 0.000112349
11 *1269:RESET_B *365:12 0.000120741
12 *151:6 *1103:B 4.60584e-05
*RES
1 *1269:Q *365:4 1.6 
2 *365:4 *365:12 7.9 
3 *365:12 *1103:B 2.74 
4 *365:12 *1104:B 1.6 
5 *365:4 *1368:A 4.045 
*END

*D_NET *366 0.00224909
*CONN
*I *1087:B I *D sky130_fd_sc_hd__nand2_1
*I *1369:A I *D sky130_fd_sc_hd__buf_2
*I *1088:B I *D sky130_fd_sc_hd__or2_1
*I *1270:Q O *D sky130_fd_sc_hd__dfrtp_1
*CAP
1 *1087:B 0
2 *1369:A 0.000444807
3 *1088:B 9.84522e-05
4 *1270:Q 0.000268009
5 *366:12 0.000811268
6 *1369:A *1259:A 0
7 *366:12 *1030:A 0
8 *366:12 *1259:A 0.00013264
9 acc[8] *1369:A 2.75229e-05
10 *1088:A *1088:B 4.82863e-05
11 *1268:RESET_B *1369:A 5.39718e-05
12 *134:12 *366:12 0
13 *330:10 *1369:A 0.00036413
*RES
1 *1270:Q *366:12 10.76 
2 *366:12 *1088:B 3.1 
3 *366:12 *1369:A 15.005 
4 *366:12 *1087:B 1.6 
*END

*D_NET *367 0.00166177
*CONN
*I *1370:A I *D sky130_fd_sc_hd__buf_2
*I *1082:B I *D sky130_fd_sc_hd__or2_1
*I *1081:B I *D sky130_fd_sc_hd__nand2_1
*I *1271:Q O *D sky130_fd_sc_hd__dfrtp_1
*CAP
1 *1370:A 0.00015719
2 *1082:B 0
3 *1081:B 6.2467e-05
4 *1271:Q 0
5 *367:25 0.000380031
6 *367:4 0.000285308
7 acc[12] *1370:A 4.85494e-05
8 acc[12] *367:25 0.000306464
9 acc[9] *1370:A 4.82919e-05
10 *1081:A *1081:B 5.39673e-05
11 *1081:A *367:25 8.58169e-05
12 *1082:A *367:25 7.04821e-05
13 *1271:RESET_B *1081:B 0
14 *1331:A *367:25 0.000163199
*RES
1 *1271:Q *367:4 1.6 
2 *367:4 *1081:B 2.92 
3 *367:4 *367:25 9.31 
4 *367:25 *1082:B 1.6 
5 *367:25 *1370:A 4.48 
*END

*D_NET *368 0.0202729
*CONN
*I *1254:A I *D sky130_fd_sc_hd__inv_2
*I *1030:A I *D sky130_fd_sc_hd__inv_2
*I *1033:A I *D sky130_fd_sc_hd__inv_2
*I *1032:A I *D sky130_fd_sc_hd__inv_2
*I *1031:A I *D sky130_fd_sc_hd__inv_2
*I *1035:A I *D sky130_fd_sc_hd__inv_2
*I *1037:A I *D sky130_fd_sc_hd__inv_2
*I *1038:A I *D sky130_fd_sc_hd__inv_2
*I *1036:A I *D sky130_fd_sc_hd__inv_2
*I *1034:A I *D sky130_fd_sc_hd__inv_2
*I *1302:X O *D sky130_fd_sc_hd__buf_4
*CAP
1 *1254:A 0
2 *1030:A 0.00108432
3 *1033:A 7.40371e-05
4 *1032:A 0
5 *1031:A 0
6 *1035:A 0.000595775
7 *1037:A 0.000319137
8 *1038:A 0
9 *1036:A 0.000786636
10 *1034:A 8.78023e-05
11 *1302:X 0.000162981
12 *368:100 0.00111164
13 *368:90 0.000972963
14 *368:84 0.000995024
15 *368:49 0.00135585
16 *368:28 0.00128579
17 *368:24 0.00123556
18 *368:22 0.00173094
19 *368:18 0.00320466
20 *368:8 0.00130391
21 *1036:A *1128:A 0
22 *1036:A *372:10 0
23 acc[14] *1035:A 3.45679e-05
24 acc[1] *368:8 3.45588e-05
25 *1079:A *368:100 4.82863e-05
26 *1089:B *1030:A 5.42473e-05
27 *1119:B1 *368:90 0
28 *1120:C1 *368:90 0
29 *1227:A *1036:A 2.42236e-05
30 *1228:C *1030:A 0
31 *1235:A *368:90 0.000191521
32 *1235:A *368:100 0.000163204
33 *1263:RESET_B *368:8 0.000272978
34 *1265:D *368:18 7.72706e-05
35 *1268:CLK *1030:A 0
36 *1271:D *1030:A 0
37 *1273:RESET_B *368:90 2.11084e-05
38 *1273:RESET_B *368:100 4.9253e-06
39 *1274:RESET_B *368:84 0
40 *1275:CLK *368:28 0.000211748
41 *1275:D *1034:A 2.49909e-05
42 *1275:RESET_B *1034:A 7.23602e-05
43 *1275:RESET_B *368:49 4.44927e-05
44 *1276:RESET_B *1035:A 7.44006e-05
45 *1277:D *1036:A 0.000101271
46 *1277:RESET_B *1036:A 0
47 *1333:A *1035:A 4.82919e-05
48 *1335:A *1035:A 0.0001249
49 *1340:A *1035:A 0
50 *1340:A *368:100 8.53113e-06
51 *1343:A *1036:A 4.82919e-05
52 *1343:A *368:49 0.000150653
53 *125:14 *368:100 0
54 *126:10 *368:100 4.70343e-05
55 *127:23 *368:100 2.87867e-05
56 *131:10 *368:90 0
57 *134:12 *1030:A 4.70343e-05
58 *136:14 *1030:A 0
59 *166:6 *1033:A 0.000201508
60 *167:14 *368:90 0
61 *178:10 *1036:A 8.68646e-05
62 *184:14 *1037:A 0.000191552
63 *186:12 *1034:A 0.00013521
64 *186:12 *368:49 5.23362e-05
65 *301:12 *1030:A 0
66 *302:22 *368:100 5.05521e-05
67 *302:52 *1036:A 0
68 *330:10 *1030:A 0.000291475
69 *332:32 *368:8 8.8266e-05
70 *334:8 *368:100 0.000354725
71 *337:6 *368:49 0.000271259
72 *339:12 *1035:A 0.00016676
73 *339:12 *368:100 0
74 *350:14 *1036:A 6.73665e-05
75 *360:10 *368:18 4.82919e-05
76 *366:12 *1030:A 0
*RES
1 *1302:X *368:8 5.515 
2 *368:8 *368:18 16.905 
3 *368:18 *368:22 13.575 
4 *368:22 *368:24 3.21 
5 *368:24 *368:28 9.35 
6 *368:28 *1034:A 5.685 
7 *368:28 *368:49 12.845 
8 *368:49 *1036:A 19.19 
9 *368:49 *1038:A 1.6 
10 *368:24 *1037:A 12.335 
11 *368:22 *368:84 9.5 
12 *368:84 *368:90 10.31 
13 *368:90 *368:100 14.665 
14 *368:100 *1035:A 16.145 
15 *368:100 *1031:A 1.6 
16 *368:90 *1032:A 1.6 
17 *368:84 *1033:A 5.43 
18 *368:18 *1030:A 25.595 
19 *368:8 *1254:A 1.6 
*END

*D_NET *369 0.009202
*CONN
*I *1257:A I *D sky130_fd_sc_hd__inv_2
*I *1256:A I *D sky130_fd_sc_hd__inv_2
*I *1258:A I *D sky130_fd_sc_hd__inv_2
*I *1260:A I *D sky130_fd_sc_hd__inv_2
*I *1261:A I *D sky130_fd_sc_hd__inv_2
*I *1259:A I *D sky130_fd_sc_hd__inv_2
*I *1303:X O *D sky130_fd_sc_hd__buf_2
*CAP
1 *1257:A 0
2 *1256:A 0.000479481
3 *1258:A 0
4 *1260:A 0.000464417
5 *1261:A 3.32562e-05
6 *1259:A 0.000596103
7 *1303:X 0.000246514
8 *369:56 0.000858405
9 *369:30 0.00137676
10 *369:20 0.00147239
11 *369:16 0.000934591
12 *369:12 0.000370621
13 acc[3] *1260:A 0.000108647
14 *1107:A *1260:A 4.19006e-05
15 *1109:A *369:20 0
16 *1117:A1 *1259:A 0
17 *1117:A1 *1261:A 0
18 *1117:A2 *369:30 0.000344443
19 *1241:B *369:20 0
20 *1241:B *369:30 4.01019e-05
21 *1265:RESET_B *1256:A 2.11084e-05
22 *1266:RESET_B *1256:A 0
23 *1266:RESET_B *369:12 0.000143266
24 *1267:D *369:30 8.53113e-06
25 *1267:D *369:56 5.39718e-05
26 *1267:RESET_B *369:56 0
27 *1268:RESET_B *1259:A 0
28 *1270:CLK *369:30 8.31173e-05
29 *1329:A *1260:A 0
30 *1364:A *1256:A 5.00612e-05
31 *1364:A *369:20 4.83411e-05
32 *1366:A *1260:A 5.05437e-05
33 *1369:A *1259:A 0
34 *149:10 *1259:A 0
35 *153:20 *1259:A 0
36 *154:6 *1260:A 9.27255e-06
37 *154:10 *369:56 0.000257815
38 *156:6 *369:30 0.000256182
39 *156:8 *369:30 3.74161e-05
40 *157:20 *369:12 8.53113e-06
41 *157:20 *369:20 0
42 *159:6 *369:16 0.000188727
43 *263:12 *1259:A 0
44 *303:36 *369:20 0
45 *303:36 *369:56 0
46 *303:38 *369:56 0
47 *303:55 *1259:A 0.000163199
48 *303:97 *1256:A 0.00011852
49 *360:10 *1256:A 0.000116544
50 *362:14 *369:12 8.65905e-05
51 *364:14 *1259:A 0
52 *365:12 *1260:A 0
53 *366:12 *1259:A 0.00013264
*RES
1 *1303:X *369:12 10.01 
2 *369:12 *369:16 4.865 
3 *369:16 *369:20 5.1075 
4 *369:20 *369:30 14.0125 
5 *369:30 *1259:A 14.625 
6 *369:30 *1261:A 4.215 
7 *369:20 *369:56 9.9575 
8 *369:56 *1260:A 13.505 
9 *369:56 *1258:A 1.6 
10 *369:16 *1256:A 12.585 
11 *369:12 *1257:A 1.6 
*END

*D_NET *370 0.0185822
*CONN
*I *1048:A I *D sky130_fd_sc_hd__inv_2
*I *1045:A I *D sky130_fd_sc_hd__inv_2
*I *1041:A I *D sky130_fd_sc_hd__inv_2
*I *1039:A I *D sky130_fd_sc_hd__inv_2
*I *1047:A I *D sky130_fd_sc_hd__inv_2
*I *1044:A I *D sky130_fd_sc_hd__inv_2
*I *1043:A I *D sky130_fd_sc_hd__inv_2
*I *1042:A I *D sky130_fd_sc_hd__inv_2
*I *1040:A I *D sky130_fd_sc_hd__inv_2
*I *1046:A I *D sky130_fd_sc_hd__inv_2
*I *1304:X O *D sky130_fd_sc_hd__buf_4
*CAP
1 *1048:A 0
2 *1045:A 2.8378e-05
3 *1041:A 0
4 *1039:A 0.00130563
5 *1047:A 2.08101e-05
6 *1044:A 0.000339383
7 *1043:A 0.000160014
8 *1042:A 0.000196467
9 *1040:A 0.000289863
10 *1046:A 0.000295766
11 *1304:X 0.000248078
12 *370:126 0.00193372
13 *370:120 0.0013637
14 *370:55 0.0010158
15 *370:45 0.00215503
16 *370:32 0.00185291
17 *370:30 0.000898421
18 *370:26 0.000554806
19 *370:24 0.00178679
20 *370:12 0.00126108
21 *1058:A *370:120 1.24797e-05
22 *1059:B *370:120 0
23 *1063:A *370:24 0.000142661
24 *1068:B1 *370:24 0.00018012
25 *1159:B *370:45 7.67415e-06
26 *1159:B *370:55 1.4399e-05
27 *1162:A *370:45 4.82919e-05
28 *1163:A *1044:A 0
29 *1163:B *1044:A 0.000177859
30 *1164:A *1044:A 0
31 *1164:B *1044:A 0
32 *1174:A *370:45 0.000176888
33 *1197:A *370:126 0.000278111
34 *1197:B *370:126 8.65961e-05
35 *1199:A *370:120 0
36 *1202:B *1044:A 0
37 *1202:B *370:32 0
38 *1209:B *1043:A 9.28507e-05
39 *1281:CLK *1040:A 0
40 *1281:CLK *370:55 0
41 *1283:D *1042:A 0.000111293
42 *1285:RESET_B *1044:A 0
43 *1286:RESET_B *370:120 0.000158297
44 *1286:RESET_B *370:126 2.75145e-05
45 *1287:D *370:120 0
46 *1288:CLK *1046:A 0
47 *1288:RESET_B *370:26 2.11084e-05
48 *1288:RESET_B *370:30 4.9253e-06
49 *1289:CLK *370:12 0.000183738
50 *1289:RESET_B *370:12 2.75145e-05
51 *1355:A *370:120 0.000549964
52 *1358:A *370:12 0
53 *209:8 *370:45 4.66826e-05
54 *218:14 *1039:A 0
55 *218:14 *370:126 6.42013e-05
56 *222:14 *1046:A 0
57 *245:12 *1043:A 5.02217e-05
58 *301:30 *370:120 9.1566e-05
59 *304:72 *1043:A 0
60 *304:72 *370:55 4.18603e-06
61 *311:12 *1043:A 0
62 *313:8 *1044:A 5.94962e-05
63 *315:8 *370:120 0
64 *349:25 *1044:A 6.36578e-05
65 *351:12 *370:120 0.000155928
66 *351:27 *370:120 3.73085e-05
*RES
1 *1304:X *370:12 10.325 
2 *370:12 *370:24 17.085 
3 *370:24 *370:26 1.14 
4 *370:26 *370:30 8.66 
5 *370:30 *370:32 1.38 
6 *370:32 *1046:A 8.55 
7 *370:32 *370:45 18.32 
8 *370:45 *370:55 9.335 
9 *370:55 *1040:A 8.235 
10 *370:55 *1042:A 7.155 
11 *370:45 *1043:A 8.72 
12 *370:30 *1044:A 10.425 
13 *370:26 *1047:A 1.96 
14 *370:24 *370:120 18.94 
15 *370:120 *370:126 11.175 
16 *370:126 *1039:A 25.475 
17 *370:126 *1041:A 1.6 
18 *370:120 *1045:A 2.05 
19 *370:12 *1048:A 1.6 
*END

*D_NET *371 0.00688994
*CONN
*I *1051:A I *D sky130_fd_sc_hd__inv_2
*I *1052:A I *D sky130_fd_sc_hd__inv_2
*I *1050:A I *D sky130_fd_sc_hd__inv_2
*I *1053:A I *D sky130_fd_sc_hd__inv_2
*I *1049:A I *D sky130_fd_sc_hd__inv_2
*I *1255:A I *D sky130_fd_sc_hd__inv_2
*I *1305:X O *D sky130_fd_sc_hd__buf_2
*CAP
1 *1051:A 1.17375e-05
2 *1052:A 0
3 *1050:A 3.9802e-05
4 *1053:A 0.000267358
5 *1049:A 0.000177734
6 *1255:A 0.000259459
7 *1305:X 0.000158143
8 *371:42 0.000425685
9 *371:20 0.00114921
10 *371:14 0.00113483
11 *371:10 0.00076326
12 *371:8 0.000628853
13 acc[2] *1053:A 0
14 *1192:A1 *371:10 0
15 *1291:CLK *1049:A 0.000469632
16 *1291:CLK *371:20 0.000165698
17 *1291:D *371:20 0
18 *1291:RESET_B *1050:A 2.16917e-05
19 *1291:RESET_B *371:42 6.6199e-05
20 *1292:RESET_B *371:8 9.54399e-05
21 *1293:RESET_B *371:10 9.71067e-05
22 *1309:A *1053:A 0
23 *1321:A *1053:A 0
24 *1361:A *1255:A 0
25 *227:21 *371:10 0
26 *227:21 *371:14 0
27 *231:6 *1051:A 4.82919e-05
28 *232:6 *1051:A 2.75229e-05
29 *319:14 *371:14 4.70343e-05
30 *321:12 *1053:A 0
31 *332:32 *1053:A 0.00054054
32 *332:32 *371:8 9.63449e-05
33 *332:32 *371:10 6.95051e-05
34 *332:32 *371:14 0.000128864
35 *357:10 *1255:A 0
*RES
1 *1305:X *371:8 7.02 
2 *371:8 *371:10 8.265 
3 *371:10 *371:14 7.715 
4 *371:14 *371:20 10.565 
5 *371:20 *1255:A 7.785 
6 *371:20 *1049:A 7.845 
7 *371:14 *371:42 2.1 
8 *371:42 *1053:A 11.825 
9 *371:42 *1050:A 2.41 
10 *371:10 *1052:A 3.6 
11 *371:8 *1051:A 4.05 
*END

*D_NET *372 0.00177014
*CONN
*I *1129:A I *D sky130_fd_sc_hd__nor2_1
*I *1130:A I *D sky130_fd_sc_hd__or2_1
*I *1128:A I *D sky130_fd_sc_hd__nand2_1
*I *1336:X O *D sky130_fd_sc_hd__buf_1
*CAP
1 *1129:A 6.05454e-05
2 *1130:A 0
3 *1128:A 0.000121899
4 *1336:X 0.000445397
5 *372:27 6.05454e-05
6 *372:10 0.000567296
7 *1036:A *1128:A 0
8 *1036:A *372:10 0
9 *1129:B *1129:A 0.000294121
10 *1131:A *1129:A 9.53428e-06
11 *1131:B *1129:A 8.8266e-05
12 *1138:C1 *1129:A 2.75229e-05
13 *1336:A *372:10 0
14 *175:6 *1129:A 8.95933e-05
15 *340:28 *1128:A 5.4155e-06
*RES
1 *1336:X *372:10 9.285 
2 *372:10 *1128:A 5.3175 
3 *372:10 *372:27 2 
4 *372:27 *1130:A 1.6 
5 *372:27 *1129:A 4.48 
*END

*D_NET *373 0.00270341
*CONN
*I *1154:A1 I *D sky130_fd_sc_hd__a31o_1
*I *1148:A I *D sky130_fd_sc_hd__nand2_1
*I *1149:A I *D sky130_fd_sc_hd__or2_1
*I *1337:X O *D sky130_fd_sc_hd__buf_1
*CAP
1 *1154:A1 0
2 *1148:A 2.17924e-05
3 *1149:A 0.000142576
4 *1337:X 0.000764736
5 *373:12 0.000228299
6 *373:10 0.000828667
7 *1148:B *1148:A 4.82863e-05
8 *1150:A *1148:A 8.40213e-05
9 *1151:B1 *373:10 0
10 *1151:B1 *373:12 0
11 *1154:A2 *1149:A 2.92496e-05
12 *1154:A2 *373:12 0.000174512
13 *1154:B1 *373:10 9.50342e-06
14 *1154:B1 *373:12 0.00011852
15 *1155:C1 *373:10 6.52819e-05
16 *193:8 *373:10 0
17 *341:12 *1148:A 4.66108e-05
18 *341:40 *1149:A 0.000141358
*RES
1 *1337:X *373:10 14.64 
2 *373:10 *373:12 2.145 
3 *373:12 *1149:A 6.135 
4 *373:12 *1148:A 4.395 
5 *373:10 *1154:A1 3.6 
*END

*D_NET *374 0.00222634
*CONN
*I *1153:A I *D sky130_fd_sc_hd__and3_1
*I *1217:A1 I *D sky130_fd_sc_hd__a21o_1
*I *1141:A I *D sky130_fd_sc_hd__xnor2_1
*I *1338:X O *D sky130_fd_sc_hd__buf_1
*CAP
1 *1153:A 0.000331833
2 *1217:A1 0
3 *1141:A 0.00011237
4 *1338:X 0
5 *374:17 0.000512067
6 *374:4 0.000292604
7 *1147:A_N *1153:A 0.00015997
8 *1153:C *1153:A 0
9 *1214:A1 *1153:A 4.1286e-06
10 *1214:A2 *1153:A 2.76966e-05
11 *1216:A *1153:A 0
12 *1217:B1 *1153:A 0
13 *1294:A *1153:A 0.000113237
14 *1294:A *374:17 0.000275548
15 *1338:A *1141:A 0
16 *1347:A *1141:A 4.21314e-05
17 *35:11 *1141:A 1.22762e-05
18 *188:21 *1153:A 0
19 *193:8 *1153:A 0
20 *195:8 *1153:A 8.40269e-05
21 *247:14 *1153:A 3.74193e-05
22 *250:10 *1153:A 8.53113e-06
23 *342:10 *1141:A 3.25831e-05
24 *342:19 *1141:A 0.000179922
*RES
1 *1338:X *374:4 1.6 
2 *374:4 *1141:A 8.51 
3 *374:4 *374:17 2.52 
4 *374:17 *1217:A1 1.6 
5 *374:17 *1153:A 11.705 
*END
