*SPEF "ieee 1481-1999"
*DESIGN "acc32"
*DATE "16:15:29 Saturday September 19, 2026"
*VENDOR "The OpenROAD Project"
*PROGRAM "OpenROAD"
*VERSION "edf00dff99f6c40d67a30c0e22a8191c5d2ed9d6"
*DESIGN_FLOW "NAME_SCOPE LOCAL" "PIN_CAP NONE"
*DIVIDER /
*DELIMITER :
*BUS_DELIMITER []
*T_UNIT 1 NS
*C_UNIT 1 PF
*R_UNIT 1 OHM
*L_UNIT 1 HENRY

*NAME_MAP
*3 acc[0]
*4 acc[10]
*5 acc[11]
*6 acc[12]
*7 acc[13]
*8 acc[14]
*9 acc[15]
*10 acc[16]
*11 acc[17]
*12 acc[18]
*13 acc[19]
*14 acc[1]
*15 acc[20]
*16 acc[21]
*17 acc[22]
*18 acc[23]
*19 acc[24]
*20 acc[25]
*21 acc[26]
*22 acc[27]
*23 acc[28]
*24 acc[29]
*25 acc[2]
*26 acc[30]
*27 acc[31]
*28 acc[3]
*29 acc[4]
*30 acc[5]
*31 acc[6]
*32 acc[7]
*33 acc[8]
*34 acc[9]
*35 clk
*36 data_in[0]
*37 data_in[10]
*38 data_in[11]
*39 data_in[12]
*40 data_in[13]
*41 data_in[14]
*42 data_in[15]
*43 data_in[16]
*44 data_in[17]
*45 data_in[18]
*46 data_in[19]
*47 data_in[1]
*48 data_in[20]
*49 data_in[21]
*50 data_in[22]
*51 data_in[23]
*52 data_in[24]
*53 data_in[25]
*54 data_in[26]
*55 data_in[27]
*56 data_in[28]
*57 data_in[29]
*58 data_in[2]
*59 data_in[30]
*60 data_in[31]
*61 data_in[3]
*62 data_in[4]
*63 data_in[5]
*64 data_in[6]
*65 data_in[7]
*66 data_in[8]
*67 data_in[9]
*68 rst
*69 _000_
*70 _001_
*71 _002_
*72 _003_
*73 _004_
*74 _005_
*75 _006_
*76 _007_
*77 _008_
*78 _009_
*79 _010_
*80 _011_
*81 _012_
*82 _013_
*83 _014_
*84 _015_
*85 _016_
*86 _017_
*87 _018_
*88 _019_
*89 _020_
*90 _021_
*91 _022_
*92 _023_
*93 _024_
*94 _025_
*95 _026_
*96 _027_
*97 _028_
*98 _029_
*99 _030_
*100 _031_
*101 _032_
*102 _033_
*103 _034_
*104 _035_
*105 _036_
*106 _037_
*107 _038_
*108 _039_
*109 _040_
*110 _041_
*111 _042_
*112 _043_
*113 _044_
*114 _045_
*115 _046_
*116 _047_
*117 _048_
*118 _049_
*119 _050_
*120 _051_
*121 _052_
*122 _053_
*123 _054_
*124 _055_
*125 _056_
*126 _057_
*127 _058_
*128 _059_
*129 _060_
*130 _061_
*131 _062_
*132 _063_
*133 _064_
*134 _065_
*135 _066_
*136 _067_
*137 _068_
*138 _069_
*139 _070_
*140 _071_
*141 _072_
*142 _073_
*143 _074_
*144 _075_
*145 _076_
*146 _077_
*147 _078_
*148 _079_
*149 _080_
*150 _081_
*151 _082_
*152 _083_
*153 _084_
*154 _085_
*155 _086_
*156 _087_
*157 _088_
*158 _089_
*159 _090_
*160 _091_
*161 _092_
*162 _093_
*163 _094_
*164 _095_
*165 _096_
*166 _097_
*167 _098_
*168 _099_
*169 _100_
*170 _101_
*171 _102_
*172 _103_
*173 _104_
*174 _105_
*175 _106_
*176 _107_
*177 _108_
*178 _109_
*179 _110_
*180 _111_
*181 _112_
*182 _113_
*183 _114_
*184 _115_
*185 _116_
*186 _117_
*187 _118_
*188 _119_
*189 _120_
*190 _121_
*191 _122_
*192 _123_
*193 _124_
*194 _125_
*195 _126_
*196 _127_
*197 _128_
*198 _129_
*199 _130_
*200 _131_
*201 _132_
*202 _133_
*203 _134_
*204 _135_
*205 _136_
*206 _137_
*207 _138_
*208 _139_
*209 _140_
*210 _141_
*211 _142_
*212 _143_
*213 _144_
*214 _145_
*215 _146_
*216 _147_
*217 _148_
*218 _149_
*219 _150_
*220 _151_
*221 _152_
*222 _153_
*223 _154_
*224 _155_
*225 _156_
*226 _157_
*227 _158_
*228 _159_
*229 _160_
*230 _161_
*231 _162_
*232 _163_
*233 _164_
*234 _165_
*235 _166_
*236 _167_
*237 _168_
*238 _169_
*239 _170_
*240 _171_
*241 _172_
*242 _173_
*243 _174_
*244 _175_
*245 _176_
*246 _177_
*247 _178_
*248 _179_
*249 _180_
*250 _181_
*251 _182_
*252 _183_
*253 _184_
*254 _185_
*255 _186_
*256 _187_
*257 _188_
*258 _189_
*259 _190_
*260 _191_
*261 _192_
*262 _193_
*263 _194_
*264 _195_
*265 _196_
*266 _197_
*267 _198_
*268 _199_
*269 adder\.cla_blocks\[0\]\.block\.p\[0\]
*270 adder\.cla_blocks\[0\]\.block\.sum\[1\]
*271 adder\.cla_blocks\[0\]\.block\.sum\[2\]
*272 adder\.cla_blocks\[0\]\.block\.sum\[3\]
*273 adder\.cla_blocks\[1\]\.block\.sum\[0\]
*274 adder\.cla_blocks\[1\]\.block\.sum\[1\]
*275 adder\.cla_blocks\[1\]\.block\.sum\[2\]
*276 adder\.cla_blocks\[1\]\.block\.sum\[3\]
*277 adder\.cla_blocks\[2\]\.block\.sum\[0\]
*278 adder\.cla_blocks\[2\]\.block\.sum\[1\]
*279 adder\.cla_blocks\[2\]\.block\.sum\[2\]
*280 adder\.cla_blocks\[2\]\.block\.sum\[3\]
*281 adder\.cla_blocks\[3\]\.block\.sum\[0\]
*282 adder\.cla_blocks\[3\]\.block\.sum\[1\]
*283 adder\.cla_blocks\[3\]\.block\.sum\[2\]
*284 adder\.cla_blocks\[3\]\.block\.sum\[3\]
*285 adder\.cla_blocks\[4\]\.block\.sum\[0\]
*286 adder\.cla_blocks\[4\]\.block\.sum\[1\]
*287 adder\.cla_blocks\[4\]\.block\.sum\[2\]
*288 adder\.cla_blocks\[4\]\.block\.sum\[3\]
*289 adder\.cla_blocks\[5\]\.block\.sum\[0\]
*290 adder\.cla_blocks\[5\]\.block\.sum\[1\]
*291 adder\.cla_blocks\[5\]\.block\.sum\[2\]
*292 adder\.cla_blocks\[5\]\.block\.sum\[3\]
*293 adder\.cla_blocks\[6\]\.block\.sum\[0\]
*294 adder\.cla_blocks\[6\]\.block\.sum\[1\]
*295 adder\.cla_blocks\[6\]\.block\.sum\[2\]
*296 adder\.cla_blocks\[6\]\.block\.sum\[3\]
*297 adder\.cla_blocks\[7\]\.block\.sum\[0\]
*298 adder\.cla_blocks\[7\]\.block\.sum\[1\]
*299 adder\.cla_blocks\[7\]\.block\.sum\[2\]
*300 adder\.cla_blocks\[7\]\.block\.sum\[3\]
*301 clknet_0_clk
*302 clknet_2_0__leaf_clk
*303 clknet_2_1__leaf_clk
*304 clknet_2_2__leaf_clk
*305 clknet_2_3__leaf_clk
*306 net1
*307 net10
*308 net11
*309 net12
*310 net13
*311 net14
*312 net15
*313 net16
*314 net17
*315 net18
*316 net19
*317 net2
*318 net20
*319 net21
*320 net22
*321 net23
*322 net24
*323 net25
*324 net26
*325 net27
*326 net28
*327 net29
*328 net3
*329 net30
*330 net31
*331 net32
*332 net33
*333 net34
*334 net35
*335 net36
*336 net37
*337 net38
*338 net39
*339 net4
*340 net40
*341 net41
*342 net42
*343 net43
*344 net44
*345 net45
*346 net46
*347 net47
*348 net48
*349 net49
*350 net5
*351 net50
*352 net51
*353 net52
*354 net53
*355 net54
*356 net55
*357 net56
*358 net57
*359 net58
*360 net59
*361 net6
*362 net60
*363 net61
*364 net62
*365 net63
*366 net64
*367 net65
*368 net66
*369 net67
*370 net68
*371 net69
*372 net7
*373 net8
*374 net9
*375 FILLER_0_108
*376 FILLER_0_119
*377 FILLER_0_126
*378 FILLER_0_134
*379 FILLER_0_141
*380 FILLER_0_23
*381 FILLER_0_27
*382 FILLER_0_29
*383 FILLER_0_43
*384 FILLER_0_49
*385 FILLER_0_57
*386 FILLER_0_62
*387 FILLER_0_66
*388 FILLER_0_79
*389 FILLER_0_83
*390 FILLER_0_93
*391 FILLER_0_99
*392 FILLER_10_109
*393 FILLER_10_121
*394 FILLER_10_13
*395 FILLER_10_141
*396 FILLER_10_26
*397 FILLER_10_34
*398 FILLER_10_62
*399 FILLER_10_74
*400 FILLER_10_82
*401 FILLER_10_85
*402 FILLER_10_97
*403 FILLER_11_121
*404 FILLER_11_141
*405 FILLER_11_16
*406 FILLER_11_22
*407 FILLER_11_26
*408 FILLER_11_40
*409 FILLER_11_52
*410 FILLER_11_57
*411 FILLER_11_6
*412 FILLER_11_69
*413 FILLER_11_91
*414 FILLER_12_125
*415 FILLER_12_133
*416 FILLER_12_141
*417 FILLER_12_15
*418 FILLER_12_27
*419 FILLER_12_29
*420 FILLER_12_38
*421 FILLER_12_50
*422 FILLER_12_62
*423 FILLER_12_7
*424 FILLER_12_74
*425 FILLER_12_82
*426 FILLER_12_85
*427 FILLER_13_105
*428 FILLER_13_116
*429 FILLER_13_138
*430 FILLER_13_49
*431 FILLER_13_55
*432 FILLER_13_57
*433 FILLER_13_69
*434 FILLER_13_7
*435 FILLER_13_81
*436 FILLER_13_93
*437 FILLER_14_109
*438 FILLER_14_13
*439 FILLER_14_141
*440 FILLER_14_25
*441 FILLER_14_29
*442 FILLER_14_3
*443 FILLER_14_34
*444 FILLER_14_46
*445 FILLER_14_58
*446 FILLER_14_70
*447 FILLER_14_82
*448 FILLER_14_85
*449 FILLER_14_97
*450 FILLER_15_101
*451 FILLER_15_109
*452 FILLER_15_139
*453 FILLER_15_17
*454 FILLER_15_39
*455 FILLER_15_51
*456 FILLER_15_55
*457 FILLER_15_57
*458 FILLER_15_69
*459 FILLER_15_81
*460 FILLER_15_9
*461 FILLER_15_93
*462 FILLER_15_97
*463 FILLER_16_108
*464 FILLER_16_114
*465 FILLER_16_120
*466 FILLER_16_124
*467 FILLER_16_131
*468 FILLER_16_138
*469 FILLER_16_141
*470 FILLER_16_18
*471 FILLER_16_22
*472 FILLER_16_26
*473 FILLER_16_29
*474 FILLER_16_64
*475 FILLER_16_76
*476 FILLER_16_85
*477 FILLER_17_121
*478 FILLER_17_14
*479 FILLER_17_33
*480 FILLER_17_44
*481 FILLER_17_52
*482 FILLER_17_7
*483 FILLER_17_80
*484 FILLER_17_84
*485 FILLER_18_113
*486 FILLER_18_130
*487 FILLER_18_141
*488 FILLER_18_17
*489 FILLER_18_25
*490 FILLER_18_33
*491 FILLER_18_42
*492 FILLER_18_6
*493 FILLER_18_70
*494 FILLER_19_100
*495 FILLER_19_113
*496 FILLER_19_130
*497 FILLER_19_31
*498 FILLER_19_38
*499 FILLER_19_47
*500 FILLER_19_55
*501 FILLER_19_57
*502 FILLER_19_66
*503 FILLER_19_72
*504 FILLER_19_76
*505 FILLER_1_104
*506 FILLER_1_113
*507 FILLER_1_138
*508 FILLER_1_16
*509 FILLER_1_38
*510 FILLER_1_71
*511 FILLER_20_111
*512 FILLER_20_129
*513 FILLER_20_141
*514 FILLER_20_16
*515 FILLER_20_23
*516 FILLER_20_27
*517 FILLER_20_29
*518 FILLER_20_35
*519 FILLER_20_39
*520 FILLER_20_45
*521 FILLER_20_6
*522 FILLER_20_76
*523 FILLER_20_90
*524 FILLER_20_99
*525 FILLER_21_100
*526 FILLER_21_111
*527 FILLER_21_113
*528 FILLER_21_122
*529 FILLER_21_15
*530 FILLER_21_23
*531 FILLER_21_35
*532 FILLER_21_42
*533 FILLER_21_53
*534 FILLER_21_57
*535 FILLER_21_7
*536 FILLER_21_82
*537 FILLER_21_89
*538 FILLER_21_96
*539 FILLER_22_105
*540 FILLER_22_131
*541 FILLER_22_141
*542 FILLER_22_37
*543 FILLER_22_58
*544 FILLER_22_63
*545 FILLER_23_107
*546 FILLER_23_111
*547 FILLER_23_113
*548 FILLER_23_121
*549 FILLER_23_14
*550 FILLER_23_141
*551 FILLER_23_22
*552 FILLER_23_26
*553 FILLER_23_29
*554 FILLER_23_34
*555 FILLER_23_43
*556 FILLER_23_55
*557 FILLER_23_85
*558 FILLER_2_109
*559 FILLER_2_115
*560 FILLER_2_141
*561 FILLER_2_23
*562 FILLER_2_27
*563 FILLER_2_43
*564 FILLER_2_64
*565 FILLER_2_74
*566 FILLER_2_82
*567 FILLER_2_88
*568 FILLER_3_103
*569 FILLER_3_111
*570 FILLER_3_142
*571 FILLER_3_25
*572 FILLER_3_3
*573 FILLER_3_35
*574 FILLER_3_43
*575 FILLER_3_48
*576 FILLER_3_73
*577 FILLER_3_83
*578 FILLER_3_90
*579 FILLER_4_105
*580 FILLER_4_11
*581 FILLER_4_114
*582 FILLER_4_133
*583 FILLER_4_141
*584 FILLER_4_15
*585 FILLER_4_27
*586 FILLER_4_29
*587 FILLER_4_62
*588 FILLER_4_7
*589 FILLER_4_82
*590 FILLER_5_118
*591 FILLER_5_13
*592 FILLER_5_33
*593 FILLER_5_45
*594 FILLER_5_49
*595 FILLER_5_77
*596 FILLER_5_9
*597 FILLER_6_124
*598 FILLER_6_141
*599 FILLER_6_23
*600 FILLER_6_44
*601 FILLER_6_52
*602 FILLER_6_60
*603 FILLER_6_79
*604 FILLER_6_83
*605 FILLER_6_89
*606 FILLER_6_95
*607 FILLER_7_118
*608 FILLER_7_130
*609 FILLER_7_134
*610 FILLER_7_18
*611 FILLER_7_26
*612 FILLER_7_6
*613 FILLER_7_97
*614 FILLER_8_102
*615 FILLER_8_113
*616 FILLER_8_141
*617 FILLER_8_26
*618 FILLER_8_29
*619 FILLER_8_42
*620 FILLER_8_54
*621 FILLER_8_66
*622 FILLER_8_78
*623 FILLER_8_85
*624 FILLER_8_93
*625 FILLER_9_105
*626 FILLER_9_120
*627 FILLER_9_16
*628 FILLER_9_29
*629 FILLER_9_46
*630 FILLER_9_54
*631 FILLER_9_57
*632 FILLER_9_69
*633 FILLER_9_7
*634 FILLER_9_81
*635 PHY_EDGE_ROW_0_Left_24
*636 PHY_EDGE_ROW_0_Right_0
*637 PHY_EDGE_ROW_10_Left_34
*638 PHY_EDGE_ROW_10_Right_10
*639 PHY_EDGE_ROW_11_Left_35
*640 PHY_EDGE_ROW_11_Right_11
*641 PHY_EDGE_ROW_12_Left_36
*642 PHY_EDGE_ROW_12_Right_12
*643 PHY_EDGE_ROW_13_Left_37
*644 PHY_EDGE_ROW_13_Right_13
*645 PHY_EDGE_ROW_14_Left_38
*646 PHY_EDGE_ROW_14_Right_14
*647 PHY_EDGE_ROW_15_Left_39
*648 PHY_EDGE_ROW_15_Right_15
*649 PHY_EDGE_ROW_16_Left_40
*650 PHY_EDGE_ROW_16_Right_16
*651 PHY_EDGE_ROW_17_Left_41
*652 PHY_EDGE_ROW_17_Right_17
*653 PHY_EDGE_ROW_18_Left_42
*654 PHY_EDGE_ROW_18_Right_18
*655 PHY_EDGE_ROW_19_Left_43
*656 PHY_EDGE_ROW_19_Right_19
*657 PHY_EDGE_ROW_1_Left_25
*658 PHY_EDGE_ROW_1_Right_1
*659 PHY_EDGE_ROW_20_Left_44
*660 PHY_EDGE_ROW_20_Right_20
*661 PHY_EDGE_ROW_21_Left_45
*662 PHY_EDGE_ROW_21_Right_21
*663 PHY_EDGE_ROW_22_Left_46
*664 PHY_EDGE_ROW_22_Right_22
*665 PHY_EDGE_ROW_23_Left_47
*666 PHY_EDGE_ROW_23_Right_23
*667 PHY_EDGE_ROW_2_Left_26
*668 PHY_EDGE_ROW_2_Right_2
*669 PHY_EDGE_ROW_3_Left_27
*670 PHY_EDGE_ROW_3_Right_3
*671 PHY_EDGE_ROW_4_Left_28
*672 PHY_EDGE_ROW_4_Right_4
*673 PHY_EDGE_ROW_5_Left_29
*674 PHY_EDGE_ROW_5_Right_5
*675 PHY_EDGE_ROW_6_Left_30
*676 PHY_EDGE_ROW_6_Right_6
*677 PHY_EDGE_ROW_7_Left_31
*678 PHY_EDGE_ROW_7_Right_7
*679 PHY_EDGE_ROW_8_Left_32
*680 PHY_EDGE_ROW_8_Right_8
*681 PHY_EDGE_ROW_9_Left_33
*682 PHY_EDGE_ROW_9_Right_9
*683 TAP_TAPCELL_ROW_0_48
*684 TAP_TAPCELL_ROW_0_49
*685 TAP_TAPCELL_ROW_0_50
*686 TAP_TAPCELL_ROW_0_51
*687 TAP_TAPCELL_ROW_0_52
*688 TAP_TAPCELL_ROW_10_75
*689 TAP_TAPCELL_ROW_10_76
*690 TAP_TAPCELL_ROW_10_77
*691 TAP_TAPCELL_ROW_11_78
*692 TAP_TAPCELL_ROW_11_79
*693 TAP_TAPCELL_ROW_12_80
*694 TAP_TAPCELL_ROW_12_81
*695 TAP_TAPCELL_ROW_12_82
*696 TAP_TAPCELL_ROW_13_83
*697 TAP_TAPCELL_ROW_13_84
*698 TAP_TAPCELL_ROW_14_85
*699 TAP_TAPCELL_ROW_14_86
*700 TAP_TAPCELL_ROW_14_87
*701 TAP_TAPCELL_ROW_15_88
*702 TAP_TAPCELL_ROW_15_89
*703 TAP_TAPCELL_ROW_16_90
*704 TAP_TAPCELL_ROW_16_91
*705 TAP_TAPCELL_ROW_16_92
*706 TAP_TAPCELL_ROW_17_93
*707 TAP_TAPCELL_ROW_17_94
*708 TAP_TAPCELL_ROW_18_95
*709 TAP_TAPCELL_ROW_18_96
*710 TAP_TAPCELL_ROW_18_97
*711 TAP_TAPCELL_ROW_19_98
*712 TAP_TAPCELL_ROW_19_99
*713 TAP_TAPCELL_ROW_1_53
*714 TAP_TAPCELL_ROW_1_54
*715 TAP_TAPCELL_ROW_20_100
*716 TAP_TAPCELL_ROW_20_101
*717 TAP_TAPCELL_ROW_20_102
*718 TAP_TAPCELL_ROW_21_103
*719 TAP_TAPCELL_ROW_21_104
*720 TAP_TAPCELL_ROW_22_105
*721 TAP_TAPCELL_ROW_22_106
*722 TAP_TAPCELL_ROW_22_107
*723 TAP_TAPCELL_ROW_23_108
*724 TAP_TAPCELL_ROW_23_109
*725 TAP_TAPCELL_ROW_23_110
*726 TAP_TAPCELL_ROW_23_111
*727 TAP_TAPCELL_ROW_23_112
*728 TAP_TAPCELL_ROW_2_55
*729 TAP_TAPCELL_ROW_2_56
*730 TAP_TAPCELL_ROW_2_57
*731 TAP_TAPCELL_ROW_3_58
*732 TAP_TAPCELL_ROW_3_59
*733 TAP_TAPCELL_ROW_4_60
*734 TAP_TAPCELL_ROW_4_61
*735 TAP_TAPCELL_ROW_4_62
*736 TAP_TAPCELL_ROW_5_63
*737 TAP_TAPCELL_ROW_5_64
*738 TAP_TAPCELL_ROW_6_65
*739 TAP_TAPCELL_ROW_6_66
*740 TAP_TAPCELL_ROW_6_67
*741 TAP_TAPCELL_ROW_7_68
*742 TAP_TAPCELL_ROW_7_69
*743 TAP_TAPCELL_ROW_8_70
*744 TAP_TAPCELL_ROW_8_71
*745 TAP_TAPCELL_ROW_8_72
*746 TAP_TAPCELL_ROW_9_73
*747 TAP_TAPCELL_ROW_9_74
*748 _200_
*749 _201_
*750 _202_
*751 _203_
*752 _204_
*753 _205_
*754 _206_
*755 _207_
*756 _208_
*757 _209_
*758 _210_
*759 _211_
*760 _212_
*761 _213_
*762 _214_
*763 _215_
*764 _216_
*765 _217_
*766 _218_
*767 _219_
*768 _220_
*769 _221_
*770 _222_
*771 _223_
*772 _224_
*773 _225_
*774 _226_
*775 _227_
*776 _228_
*777 _229_
*778 _230_
*779 _231_
*780 _232_
*781 _233_
*782 _234_
*783 _235_
*784 _236_
*785 _237_
*786 _238_
*787 _239_
*788 _240_
*789 _241_
*790 _242_
*791 _243_
*792 _244_
*793 _245_
*794 _246_
*795 _247_
*796 _248_
*797 _249_
*798 _250_
*799 _251_
*800 _252_
*801 _253_
*802 _254_
*803 _255_
*804 _256_
*805 _257_
*806 _258_
*807 _259_
*808 _260_
*809 _261_
*810 _262_
*811 _263_
*812 _264_
*813 _265_
*814 _266_
*815 _267_
*816 _268_
*817 _269_
*818 _270_
*819 _271_
*820 _272_
*821 _273_
*822 _274_
*823 _275_
*824 _276_
*825 _277_
*826 _278_
*827 _279_
*828 _280_
*829 _281_
*830 _282_
*831 _283_
*832 _284_
*833 _285_
*834 _286_
*835 _287_
*836 _288_
*837 _289_
*838 _290_
*839 _291_
*840 _292_
*841 _293_
*842 _294_
*843 _295_
*844 _296_
*845 _297_
*846 _298_
*847 _299_
*848 _300_
*849 _301_
*850 _302_
*851 _303_
*852 _304_
*853 _305_
*854 _306_
*855 _307_
*856 _308_
*857 _309_
*858 _310_
*859 _311_
*860 _312_
*861 _313_
*862 _314_
*863 _315_
*864 _316_
*865 _317_
*866 _318_
*867 _319_
*868 _320_
*869 _321_
*870 _322_
*871 _323_
*872 _324_
*873 _325_
*874 _326_
*875 _327_
*876 _328_
*877 _329_
*878 _330_
*879 _331_
*880 _332_
*881 _333_
*882 _334_
*883 _335_
*884 _336_
*885 _337_
*886 _338_
*887 _339_
*888 _340_
*889 _341_
*890 _342_
*891 _343_
*892 _344_
*893 _345_
*894 _346_
*895 _347_
*896 _348_
*897 _349_
*898 _350_
*899 _351_
*900 _352_
*901 _353_
*902 _354_
*903 _355_
*904 _356_
*905 _357_
*906 _358_
*907 _359_
*908 _360_
*909 _361_
*910 _362_
*911 _363_
*912 _364_
*913 _365_
*914 _366_
*915 _367_
*916 _368_
*917 _369_
*918 _370_
*919 _371_
*920 _372_
*921 _373_
*922 _374_
*923 _375_
*924 _376_
*925 _377_
*926 _378_
*927 _379_
*928 _380_
*929 _381_
*930 _382_
*931 _383_
*932 _384_
*933 _385_
*934 _386_
*935 _387_
*936 _388_
*937 _389_
*938 _390_
*939 _391_
*940 _392_
*941 _393_
*942 _394_
*943 _395_
*944 _396_
*945 _397_
*946 _398_
*947 _399_
*948 _400_
*949 _401_
*950 _402_
*951 _403_
*952 _404_
*953 _405_
*954 _406_
*955 _407_
*956 _408_
*957 _409_
*958 _410_
*959 _411_
*960 _412_
*961 _413_
*962 _414_
*963 _415_
*964 _416_
*965 _417_
*966 _418_
*967 _419_
*968 _420_
*969 _421_
*970 _422_
*971 _423_
*972 _424_
*973 _425_
*974 _426_
*975 _427_
*976 _428_
*977 _429_
*978 _430_
*979 _431_
*980 _432_
*981 _433_
*982 _434_
*983 _435_
*984 _436_
*985 _437_
*986 _438_
*987 _439_
*988 _440_
*989 _441_
*990 _442_
*991 _443_
*992 _444_
*993 _445_
*994 _446_
*995 _447_
*996 _448_
*997 _449_
*998 _450_
*999 _451_
*1000 _452_
*1001 _453_
*1002 _454_
*1003 _455_
*1004 _456_
*1005 _457_
*1006 _458_
*1007 _459_
*1008 _460_
*1009 _461_
*1010 _462_
*1011 _463_
*1012 clkbuf_0_clk
*1013 clkbuf_2_0__f_clk
*1014 clkbuf_2_1__f_clk
*1015 clkbuf_2_2__f_clk
*1016 clkbuf_2_3__f_clk
*1017 clkload0
*1018 clkload1
*1019 clkload2
*1020 fanout66
*1021 fanout67
*1022 fanout68
*1023 fanout69
*1024 input1
*1025 input10
*1026 input11
*1027 input12
*1028 input13
*1029 input14
*1030 input15
*1031 input16
*1032 input17
*1033 input18
*1034 input19
*1035 input2
*1036 input20
*1037 input21
*1038 input22
*1039 input23
*1040 input24
*1041 input25
*1042 input26
*1043 input27
*1044 input28
*1045 input29
*1046 input3
*1047 input30
*1048 input31
*1049 input32
*1050 input33
*1051 input4
*1052 input5
*1053 input6
*1054 input7
*1055 input8
*1056 input9
*1057 output34
*1058 output35
*1059 output36
*1060 output37
*1061 output38
*1062 output39
*1063 output40
*1064 output41
*1065 output42
*1066 output43
*1067 output44
*1068 output45
*1069 output46
*1070 output47
*1071 output48
*1072 output49
*1073 output50
*1074 output51
*1075 output52
*1076 output53
*1077 output54
*1078 output55
*1079 output56
*1080 output57
*1081 output58
*1082 output59
*1083 output60
*1084 output61
*1085 output62
*1086 output63
*1087 output64
*1088 output65

*PORTS
acc[0] O
acc[10] O
acc[11] O
acc[12] O
acc[13] O
acc[14] O
acc[15] O
acc[16] O
acc[17] O
acc[18] O
acc[19] O
acc[1] O
acc[20] O
acc[21] O
acc[22] O
acc[23] O
acc[24] O
acc[25] O
acc[26] O
acc[27] O
acc[28] O
acc[29] O
acc[2] O
acc[30] O
acc[31] O
acc[3] O
acc[4] O
acc[5] O
acc[6] O
acc[7] O
acc[8] O
acc[9] O
clk I
data_in[0] I
data_in[10] I
data_in[11] I
data_in[12] I
data_in[13] I
data_in[14] I
data_in[15] I
data_in[16] I
data_in[17] I
data_in[18] I
data_in[19] I
data_in[1] I
data_in[20] I
data_in[21] I
data_in[22] I
data_in[23] I
data_in[24] I
data_in[25] I
data_in[26] I
data_in[27] I
data_in[28] I
data_in[29] I
data_in[2] I
data_in[30] I
data_in[31] I
data_in[3] I
data_in[4] I
data_in[5] I
data_in[6] I
data_in[7] I
data_in[8] I
data_in[9] I
rst I

*D_NET *3 0.0012631
*CONN
*P acc[0] O
*I *1057:X O *D sky130_fd_sc_hd__buf_2
*CAP
1 acc[0] 0.000244537
2 *1057:X 0.000289653
3 *3:8 0.00053419
4 acc[0] acc[30] 0.000114777
5 *3:8 *22:8 0
6 *3:8 *26:10 7.99416e-05
*RES
1 *1057:X *3:8 44.6596 
2 *3:8 acc[0] 9.10133 
*END

*D_NET *4 0.00093947
*CONN
*P acc[10] O
*I *1058:X O *D sky130_fd_sc_hd__buf_2
*CAP
1 acc[10] 0.000465968
2 *1058:X 0.000465968
3 acc[10] acc[12] 0
4 acc[10] *1035:A 0
5 acc[10] *1058:A 7.53384e-06
*RES
1 *1058:X acc[10] 47.0936 
*END

*D_NET *5 0.00158594
*CONN
*P acc[11] O
*I *1059:X O *D sky130_fd_sc_hd__buf_2
*CAP
1 acc[11] 0.000374016
2 *1059:X 0.000299743
3 *5:8 0.000673759
4 acc[11] *1035:A 0
5 acc[11] *1046:A 0
6 *5:8 *794:A 0.000228001
7 *5:8 *123:10 1.04196e-05
*RES
1 *1059:X *5:8 42.4329 
2 *5:8 acc[11] 7.99571 
*END

*D_NET *6 0.000918727
*CONN
*P acc[12] O
*I *1060:X O *D sky130_fd_sc_hd__buf_2
*CAP
1 acc[12] 0.000459364
2 *1060:X 0.000459364
3 acc[12] *1054:A 0
4 acc[10] acc[12] 0
*RES
1 *1060:X acc[12] 47.3836 
*END

*D_NET *7 0.000663891
*CONN
*P acc[13] O
*I *1061:X O *D sky130_fd_sc_hd__buf_2
*CAP
1 acc[13] 0.000244509
2 *1061:X 0.000244509
3 acc[13] acc[14] 0.000124174
4 acc[13] *1061:A 2.33476e-05
5 acc[13] *35:13 2.12457e-05
6 acc[13] *338:19 6.10551e-06
*RES
1 *1061:X acc[13] 47.4037 
*END

*D_NET *8 0.000780792
*CONN
*P acc[14] O
*I *1062:X O *D sky130_fd_sc_hd__buf_2
*CAP
1 acc[14] 0.000227547
2 *1062:X 0.000227547
3 acc[14] *1061:A 0.00012758
4 acc[14] *1062:A 3.89972e-05
5 acc[14] *41:15 3.49463e-05
6 acc[13] acc[14] 0.000124174
*RES
1 *1062:X acc[14] 48.5734 
*END

*D_NET *9 0.0015418
*CONN
*P acc[15] O
*I *1063:X O *D sky130_fd_sc_hd__buf_2
*CAP
1 acc[15] 0.000454695
2 *1063:X 0.000232627
3 *9:8 0.000687322
4 acc[15] *1054:A 0
5 acc[15] *177:10 0
6 acc[15] *340:12 0
7 *9:8 *848:B 6.47688e-05
8 *9:8 *177:10 0.000102389
*RES
1 *1063:X *9:8 41.48 
2 *9:8 acc[15] 9.75643 
*END

*D_NET *10 0.000570132
*CONN
*P acc[16] O
*I *1064:X O *D sky130_fd_sc_hd__buf_2
*CAP
1 acc[16] 0.000193062
2 *1064:X 0.000193062
3 acc[16] acc[18] 8.73702e-05
4 acc[16] *1055:A 7.22469e-05
5 acc[16] *341:35 2.43903e-05
*RES
1 *1064:X acc[16] 47.5169 
*END

*D_NET *11 0.000727692
*CONN
*P acc[17] O
*I *1065:X O *D sky130_fd_sc_hd__buf_2
*CAP
1 acc[17] 0.000257239
2 *1065:X 0.000257239
3 acc[17] *1051:A 8.06147e-05
4 acc[17] *1055:A 0
5 acc[17] *44:17 4.40799e-05
6 acc[17] *342:8 8.85189e-05
7 acc[17] *342:29 0
*RES
1 *1065:X acc[17] 48.5734 
*END

*D_NET *12 0.000653962
*CONN
*P acc[18] O
*I *1066:X O *D sky130_fd_sc_hd__buf_2
*CAP
1 acc[18] 0.000255265
2 *1066:X 0.000255265
3 acc[18] *45:15 3.49463e-05
4 acc[18] *201:10 0
5 acc[18] *343:22 2.11157e-05
6 acc[16] acc[18] 8.73702e-05
*RES
1 *1066:X acc[18] 47.8691 
*END

*D_NET *13 0.0010266
*CONN
*P acc[19] O
*I *1067:X O *D sky130_fd_sc_hd__buf_2
*CAP
1 acc[19] 8.17117e-05
2 *1067:X 0.000357412
3 *13:10 0.000439124
4 acc[19] acc[21] 0
5 acc[19] acc[22] 2.79122e-05
6 *13:10 *17:10 2.49657e-05
7 *13:10 *348:12 5.47927e-05
8 *13:10 *348:23 4.06849e-05
*RES
1 *1067:X *13:10 43.5825 
2 *13:10 acc[19] 8.32853 
*END

*D_NET *14 0.000772675
*CONN
*P acc[1] O
*I *1068:X O *D sky130_fd_sc_hd__buf_2
*CAP
1 acc[1] 0.000341463
2 *1068:X 0.000341463
3 acc[1] acc[3] 8.97484e-05
4 acc[1] acc[5] 0
*RES
1 *1068:X acc[1] 48.1267 
*END

*D_NET *15 0.0005148
*CONN
*P acc[20] O
*I *1069:X O *D sky130_fd_sc_hd__buf_2
*CAP
1 acc[20] 0.00020647
2 *1069:X 0.00020647
3 acc[20] *1026:A 8.06147e-05
4 acc[20] *45:15 0
5 acc[20] *48:17 2.12457e-05
*RES
1 *1069:X acc[20] 47.1648 
*END

*D_NET *16 0.000554693
*CONN
*P acc[21] O
*I *1070:X O *D sky130_fd_sc_hd__buf_2
*CAP
1 acc[21] 0.000246167
2 *1070:X 0.000246167
3 acc[21] acc[22] 2.12457e-05
4 acc[21] *1026:A 0
5 acc[21] *49:17 3.12475e-05
6 acc[21] *347:12 9.86551e-06
7 acc[19] acc[21] 0
*RES
1 *1070:X acc[21] 47.1648 
*END

*D_NET *17 0.00092855
*CONN
*P acc[22] O
*I *1071:X O *D sky130_fd_sc_hd__buf_2
*CAP
1 acc[22] 9.57991e-05
2 *1071:X 0.000316722
3 *17:10 0.000412521
4 *17:10 *348:8 0
5 *17:10 *348:12 2.93845e-05
6 acc[19] acc[22] 2.79122e-05
7 acc[21] acc[22] 2.12457e-05
8 *13:10 *17:10 2.49657e-05
*RES
1 *1071:X *17:10 43.2096 
2 *17:10 acc[22] 8.4816 
*END

*D_NET *18 0.00146326
*CONN
*P acc[23] O
*I *1072:X O *D sky130_fd_sc_hd__buf_2
*CAP
1 acc[23] 0.000731631
2 *1072:X 0
3 *18:6 0.000731631
4 acc[23] *881:B 0
5 acc[23] *1074:A 0
6 acc[23] *20:8 0
7 acc[23] *51:11 0
8 acc[23] *53:9 0
9 acc[23] *241:8 0
*RES
1 *1072:X *18:6 38 
2 *18:6 acc[23] 15.2043 
*END

*D_NET *19 0.00112526
*CONN
*P acc[24] O
*I *1073:X O *D sky130_fd_sc_hd__buf_2
*CAP
1 acc[24] 0.000407899
2 *1073:X 0.000407899
3 acc[24] *52:13 0.000309465
4 acc[24] *53:9 0
*RES
1 *1073:X acc[24] 49.9107 
*END

*D_NET *20 0.001167
*CONN
*P acc[25] O
*I *1074:X O *D sky130_fd_sc_hd__buf_2
*CAP
1 acc[25] 6.5784e-05
2 *1074:X 0.000362984
3 *20:8 0.000428768
4 *20:8 *53:9 0.000309465
5 acc[23] *20:8 0
*RES
1 *1074:X *20:8 48.8854 
2 *20:8 acc[25] 1.50179 
*END

*D_NET *21 0.00104211
*CONN
*P acc[26] O
*I *1075:X O *D sky130_fd_sc_hd__buf_2
*CAP
1 acc[26] 0.000521056
2 *1075:X 0.000521056
3 acc[26] *52:13 0
4 acc[26] *54:13 0
*RES
1 *1075:X acc[26] 49.4343 
*END

*D_NET *22 0.00112559
*CONN
*P acc[27] O
*I *1076:X O *D sky130_fd_sc_hd__buf_2
*CAP
1 acc[27] 6.5784e-05
2 *1076:X 0.000497011
3 *22:8 0.000562795
4 *22:8 *26:10 0
5 *3:8 *22:8 0
*RES
1 *1076:X *22:8 48.8854 
2 *22:8 acc[27] 1.50179 
*END

*D_NET *23 0.000960291
*CONN
*P acc[28] O
*I *1077:X O *D sky130_fd_sc_hd__buf_2
*CAP
1 acc[28] 0.000276785
2 *1077:X 0.000276785
3 acc[28] acc[30] 0.000114777
4 acc[28] *26:10 5.11935e-06
5 acc[28] *60:11 0.000117149
6 acc[28] *333:42 0.000169674
*RES
1 *1077:X acc[28] 49.5353 
*END

*D_NET *24 0.000874404
*CONN
*P acc[29] O
*I *1078:X O *D sky130_fd_sc_hd__buf_2
*CAP
1 acc[29] 0.000311057
2 *1078:X 0.000311057
3 acc[29] acc[31] 0
4 acc[29] *1040:A 7.82427e-05
5 acc[29] *60:11 9.94259e-05
6 acc[29] *333:42 7.46212e-05
*RES
1 *1078:X acc[29] 48.1267 
*END

*D_NET *25 0.000585388
*CONN
*P acc[2] O
*I *1079:X O *D sky130_fd_sc_hd__buf_2
*CAP
1 acc[2] 0.000204132
2 *1079:X 0.000204132
3 acc[2] *1039:A 8.97484e-05
4 acc[2] *57:15 8.73764e-05
5 acc[2] *143:8 0
*RES
1 *1079:X acc[2] 47.8691 
*END

*D_NET *26 0.00163329
*CONN
*P acc[30] O
*I *1080:X O *D sky130_fd_sc_hd__buf_2
*CAP
1 acc[30] 0.000279085
2 *1080:X 0.000286589
3 *26:10 0.000565674
4 acc[30] *60:11 0
5 *26:10 *1080:A 1.59094e-05
6 *26:10 *99:8 8.62876e-05
7 *26:10 *333:42 8.51329e-05
8 *26:10 *371:45 0
9 acc[0] acc[30] 0.000114777
10 acc[28] acc[30] 0.000114777
11 acc[28] *26:10 5.11935e-06
12 *3:8 *26:10 7.99416e-05
13 *22:8 *26:10 0
*RES
1 *1080:X *26:10 44.5768 
2 *26:10 acc[30] 9.35893 
*END

*D_NET *27 0.000663246
*CONN
*P acc[31] O
*I *1081:X O *D sky130_fd_sc_hd__buf_2
*CAP
1 acc[31] 0.000221256
2 *1081:X 0.000221256
3 acc[31] *1040:A 8.06147e-05
4 acc[31] *36:11 0.000114777
5 acc[31] *333:42 2.5343e-05
6 acc[29] acc[31] 0
*RES
1 *1081:X acc[31] 47.4224 
*END

*D_NET *28 0.000522792
*CONN
*P acc[3] O
*I *1082:X O *D sky130_fd_sc_hd__buf_2
*CAP
1 acc[3] 0.000164674
2 *1082:X 0.000164674
3 acc[3] acc[5] 7.89944e-05
4 acc[3] *345:14 2.47015e-05
5 acc[1] acc[3] 8.97484e-05
*RES
1 *1082:X acc[3] 47.1648 
*END

*D_NET *29 0.00136336
*CONN
*P acc[4] O
*I *1083:X O *D sky130_fd_sc_hd__buf_2
*CAP
1 acc[4] 0.000231104
2 *1083:X 0.000129282
3 *29:10 0.000360386
4 acc[4] *62:15 0.000102271
5 acc[4] *63:11 0.000114277
6 *29:10 *62:15 2.47015e-05
7 *29:10 *345:14 0.000120142
8 *29:10 *360:16 0.000281199
*RES
1 *1083:X *29:10 49.8425 
2 *29:10 acc[4] 1.10133 
*END

*D_NET *30 0.00079313
*CONN
*P acc[5] O
*I *1084:X O *D sky130_fd_sc_hd__buf_2
*CAP
1 acc[5] 0.000262351
2 *1084:X 0.000262351
3 acc[5] *63:11 0.000111905
4 acc[5] *345:14 2.43903e-05
5 acc[5] *360:16 5.31385e-05
6 acc[1] acc[5] 0
7 acc[3] acc[5] 7.89944e-05
*RES
1 *1084:X acc[5] 47.7745 
*END

*D_NET *31 0.000983732
*CONN
*P acc[6] O
*I *1085:X O *D sky130_fd_sc_hd__buf_2
*CAP
1 acc[6] 0.000451984
2 *1085:X 0.000451984
3 acc[6] *1085:A 2.4754e-05
4 acc[6] *64:11 0
5 acc[6] *327:22 5.50106e-05
*RES
1 *1085:X acc[6] 47.0936 
*END

*D_NET *32 0.000985307
*CONN
*P acc[7] O
*I *1086:X O *D sky130_fd_sc_hd__buf_2
*CAP
1 acc[7] 0.000443411
2 *1086:X 0.000443411
3 acc[7] *1047:A 0
4 acc[7] *1086:A 4.34745e-05
5 acc[7] *365:16 5.50106e-05
*RES
1 *1086:X acc[7] 47.0936 
*END

*D_NET *33 0.000788762
*CONN
*P acc[8] O
*I *1087:X O *D sky130_fd_sc_hd__buf_2
*CAP
1 acc[8] 0.000265114
2 *1087:X 0.000265114
3 acc[8] *1027:A 0.000114277
4 acc[8] *66:11 0.000111905
5 acc[8] *70:8 0
6 acc[8] *345:21 3.23515e-05
*RES
1 *1087:X acc[8] 48.1267 
*END

*D_NET *34 0.00106955
*CONN
*P acc[9] O
*I *1088:X O *D sky130_fd_sc_hd__buf_2
*CAP
1 acc[9] 0.000507379
2 *1088:X 0.000507379
3 acc[9] *1049:A 0
4 acc[9] *64:11 0
5 acc[9] *367:18 5.47927e-05
*RES
1 *1088:X acc[9] 48.3364 
*END

*D_NET *35 0.0100943
*CONN
*P clk I
*I *1012:A I *D sky130_fd_sc_hd__clkbuf_16
*CAP
1 clk 0.00415007
2 *1012:A 0
3 *35:13 0.00415007
4 *35:13 *803:B 0.000180941
5 *35:13 *68:11 7.82365e-05
6 *35:13 *121:10 0
7 *35:13 *122:10 0.000138718
8 *35:13 *124:23 6.01625e-05
9 *35:13 *125:12 0
10 *35:13 *127:21 6.07929e-05
11 *35:13 *130:18 0.000190227
12 *35:13 *131:10 0.00069178
13 *35:13 *131:27 0.000166522
14 *35:13 *165:21 0
15 *35:13 *255:10 0
16 *35:13 *277:8 0
17 *35:13 *302:109 0
18 *35:13 *303:42 0
19 *35:13 *335:22 0.000205583
20 acc[13] *35:13 2.12457e-05
*RES
1 clk *35:13 43.6804 
2 *35:13 *1012:A 38 
*END

*D_NET *36 0.00146582
*CONN
*P data_in[0] I
*I *1024:A I *D sky130_fd_sc_hd__clkbuf_1
*CAP
1 data_in[0] 0.000423178
2 *1024:A 0
3 *36:11 0.000423178
4 *36:11 *1037:A 7.13508e-05
5 *36:11 *57:15 0
6 *36:11 *333:42 4.7836e-05
7 *36:11 *356:38 0.000241394
8 *36:11 *359:10 0.00014411
9 acc[31] *36:11 0.000114777
*RES
1 data_in[0] *36:11 27.4971 
2 *36:11 *1024:A 23 
*END

*D_NET *37 0.00101143
*CONN
*P data_in[10] I
*I *1035:A I *D sky130_fd_sc_hd__clkbuf_1
*CAP
1 data_in[10] 0.000505717
2 *1035:A 0.000505717
3 acc[10] *1035:A 0
4 acc[11] *1035:A 0
*RES
1 data_in[10] *1035:A 48.2743 
*END

*D_NET *38 0.00133043
*CONN
*P data_in[11] I
*I *1046:A I *D sky130_fd_sc_hd__clkbuf_1
*CAP
1 data_in[11] 0.000578654
2 *1046:A 0.000578654
3 *1046:A *794:A 9.84794e-05
4 *1046:A *1049:A 0
5 *1046:A *328:8 5.50106e-05
6 *1046:A *328:23 9.48381e-06
7 *1046:A *335:22 1.01436e-05
8 acc[11] *1046:A 0
*RES
1 data_in[11] *1046:A 49.8486 
*END

*D_NET *39 0.000492239
*CONN
*P data_in[12] I
*I *1051:A I *D sky130_fd_sc_hd__buf_1
*CAP
1 data_in[12] 0.000195189
2 *1051:A 0.000195189
3 *1051:A *40:17 2.12457e-05
4 *1051:A *41:15 0
5 acc[17] *1051:A 8.06147e-05
*RES
1 data_in[12] *1051:A 47.4311 
*END

*D_NET *40 0.000839116
*CONN
*P data_in[13] I
*I *1052:A I *D sky130_fd_sc_hd__clkbuf_1
*CAP
1 data_in[13] 0.000279707
2 *1052:A 0
3 *40:17 0.000279707
4 *40:17 *1061:A 0
5 *40:17 *41:15 0.000258455
6 *40:17 *337:8 0
7 *1051:A *40:17 2.12457e-05
*RES
1 data_in[13] *40:17 27.5105 
2 *40:17 *1052:A 23 
*END

*D_NET *41 0.00105289
*CONN
*P data_in[14] I
*I *1053:A I *D sky130_fd_sc_hd__clkbuf_1
*CAP
1 data_in[14] 0.000322869
2 *1053:A 0
3 *41:15 0.000322869
4 *41:15 *840:B 5.70419e-05
5 *41:15 *1061:A 0
6 *41:15 *350:6 5.67058e-05
7 acc[14] *41:15 3.49463e-05
8 *1051:A *41:15 0
9 *40:17 *41:15 0.000258455
*RES
1 data_in[14] *41:15 29.5117 
2 *41:15 *1053:A 23 
*END

*D_NET *42 0.0012095
*CONN
*P data_in[15] I
*I *1054:A I *D sky130_fd_sc_hd__buf_1
*CAP
1 data_in[15] 0.000509156
2 *1054:A 0.000509156
3 *1054:A *848:A 2.47127e-05
4 *1054:A *848:B 9.67842e-05
5 *1054:A *177:10 5.50106e-05
6 *1054:A *340:12 1.46784e-05
7 acc[12] *1054:A 0
8 acc[15] *1054:A 0
*RES
1 data_in[15] *1054:A 49.1236 
*END

*D_NET *43 0.000558984
*CONN
*P data_in[16] I
*I *1055:A I *D sky130_fd_sc_hd__buf_1
*CAP
1 data_in[16] 0.000214101
2 *1055:A 0.000214101
3 *1055:A *44:17 4.40799e-05
4 *1055:A *193:8 0
5 *1055:A *341:35 1.44546e-05
6 acc[16] *1055:A 7.22469e-05
7 acc[17] *1055:A 0
*RES
1 data_in[16] *1055:A 48.1354 
*END

*D_NET *44 0.00115336
*CONN
*P data_in[17] I
*I *1056:A I *D sky130_fd_sc_hd__buf_1
*CAP
1 data_in[17] 0.000419741
2 *1056:A 0
3 *44:17 0.000419741
4 *44:17 *859:A 0.000135621
5 *44:17 *859:B 2.93845e-05
6 *44:17 *188:8 6.07084e-05
7 acc[17] *44:17 4.40799e-05
8 *1055:A *44:17 4.40799e-05
*RES
1 data_in[17] *44:17 30.8198 
2 *44:17 *1056:A 23 
*END

*D_NET *45 0.00105054
*CONN
*P data_in[18] I
*I *1025:A I *D sky130_fd_sc_hd__buf_1
*CAP
1 data_in[18] 0.000341324
2 *1025:A 0
3 *45:15 0.000341324
4 *45:15 *870:C1 0
5 *45:15 *48:17 0.000258455
6 *45:15 *307:8 1.94812e-05
7 *45:15 *310:12 5.50106e-05
8 acc[18] *45:15 3.49463e-05
9 acc[20] *45:15 0
*RES
1 data_in[18] *45:15 29.5117 
2 *45:15 *1025:A 23 
*END

*D_NET *46 0.000485027
*CONN
*P data_in[19] I
*I *1026:A I *D sky130_fd_sc_hd__buf_1
*CAP
1 data_in[19] 0.000191583
2 *1026:A 0.000191583
3 *1026:A *49:17 2.12457e-05
4 *1026:A *344:41 0
5 acc[20] *1026:A 8.06147e-05
6 acc[21] *1026:A 0
*RES
1 data_in[19] *1026:A 47.4311 
*END

*D_NET *47 0.00126409
*CONN
*P data_in[1] I
*I *1027:A I *D sky130_fd_sc_hd__clkbuf_1
*CAP
1 data_in[1] 0.000452074
2 *1027:A 0.000452074
3 *1027:A *1039:A 9.22789e-05
4 *1027:A *140:10 0.000124169
5 *1027:A *141:14 0
6 *1027:A *309:10 2.92149e-05
7 *1027:A *345:21 0
8 *1027:A *368:173 0
9 acc[8] *1027:A 0.000114277
*RES
1 data_in[1] *1027:A 49.4407 
*END

*D_NET *48 0.000839116
*CONN
*P data_in[20] I
*I *1028:A I *D sky130_fd_sc_hd__clkbuf_1
*CAP
1 data_in[20] 0.000279707
2 *1028:A 0
3 *48:17 0.000279707
4 *48:17 *870:C1 0
5 acc[20] *48:17 2.12457e-05
6 *45:15 *48:17 0.000258455
*RES
1 data_in[20] *48:17 27.5105 
2 *48:17 *1028:A 23 
*END

*D_NET *49 0.00067366
*CONN
*P data_in[21] I
*I *1029:A I *D sky130_fd_sc_hd__clkbuf_1
*CAP
1 data_in[21] 0.000310583
2 *1029:A 0
3 *49:17 0.000310583
4 *49:17 *347:12 0
5 acc[21] *49:17 3.12475e-05
6 *1026:A *49:17 2.12457e-05
*RES
1 data_in[21] *49:17 27.5105 
2 *49:17 *1029:A 23 
*END

*D_NET *50 0.00126523
*CONN
*P data_in[22] I
*I *1030:A I *D sky130_fd_sc_hd__clkbuf_1
*CAP
1 data_in[22] 0.000617941
2 *1030:A 0
3 *50:11 0.000617941
4 *50:11 *370:134 2.93431e-05
*RES
1 data_in[22] *50:11 28.2364 
2 *50:11 *1030:A 23 
*END

*D_NET *51 0.00163553
*CONN
*P data_in[23] I
*I *1031:A I *D sky130_fd_sc_hd__clkbuf_1
*CAP
1 data_in[23] 0.000713025
2 *1031:A 0
3 *51:11 0.000713025
4 *51:11 *881:B 0.000112665
5 *51:11 *313:8 5.41288e-05
6 *51:11 *370:55 4.26834e-05
7 *51:11 *370:134 0
8 acc[23] *51:11 0
*RES
1 data_in[23] *51:11 30.6186 
2 *51:11 *1031:A 23 
*END

*D_NET *52 0.00161274
*CONN
*P data_in[24] I
*I *1032:A I *D sky130_fd_sc_hd__clkbuf_1
*CAP
1 data_in[24] 0.000554205
2 *1032:A 0
3 *52:13 0.000554205
4 *52:13 *920:A 0.000138155
5 *52:13 *351:38 5.67058e-05
6 acc[24] *52:13 0.000309465
7 acc[26] *52:13 0
*RES
1 data_in[24] *52:13 30.2871 
2 *52:13 *1032:A 23 
*END

*D_NET *53 0.00116863
*CONN
*P data_in[25] I
*I *1033:A I *D sky130_fd_sc_hd__clkbuf_1
*CAP
1 data_in[25] 0.000418139
2 *1033:A 0
3 *53:9 0.000418139
4 *53:9 *1074:A 1.14452e-05
5 *53:9 *370:106 1.14452e-05
6 acc[23] *53:9 0
7 acc[24] *53:9 0
8 *20:8 *53:9 0.000309465
*RES
1 data_in[25] *53:9 27.1386 
2 *53:9 *1033:A 23 
*END

*D_NET *54 0.00166747
*CONN
*P data_in[26] I
*I *1034:A I *D sky130_fd_sc_hd__buf_1
*CAP
1 data_in[26] 0.000660148
2 *1034:A 0
3 *54:13 0.000660148
4 *54:13 *766:A 5.60174e-05
5 *54:13 *786:C1 5.50049e-05
6 *54:13 *55:13 0
7 *54:13 *316:29 2.76611e-06
8 *54:13 *318:8 0.000227208
9 *54:13 *318:18 6.17437e-06
10 acc[26] *54:13 0
*RES
1 data_in[26] *54:13 29.8107 
2 *54:13 *1034:A 23 
*END

*D_NET *55 0.00144935
*CONN
*P data_in[27] I
*I *1036:A I *D sky130_fd_sc_hd__buf_1
*CAP
1 data_in[27] 0.000665318
2 *1036:A 0
3 *55:13 0.000665318
4 *55:13 *766:A 8.1796e-05
5 *55:13 *114:8 4.6318e-06
6 *55:13 *316:29 0
7 *55:13 *318:8 3.22879e-05
8 *54:13 *55:13 0
*RES
1 data_in[27] *55:13 29.3343 
2 *55:13 *1036:A 23 
*END

*D_NET *56 0.000638367
*CONN
*P data_in[28] I
*I *1037:A I *D sky130_fd_sc_hd__clkbuf_1
*CAP
1 data_in[28] 0.00022522
2 *1037:A 0.00022522
3 *1037:A *57:15 8.06147e-05
4 *1037:A *319:8 3.59619e-05
5 *36:11 *1037:A 7.13508e-05
*RES
1 data_in[28] *1037:A 48.4875 
*END

*D_NET *57 0.00173061
*CONN
*P data_in[29] I
*I *1038:A I *D sky130_fd_sc_hd__clkbuf_1
*CAP
1 data_in[29] 0.000543908
2 *1038:A 0
3 *57:15 0.000543908
4 *57:15 *899:A 5.90675e-06
5 *57:15 *1039:A 0
6 *57:15 *69:8 7.39704e-05
7 *57:15 *100:10 1.61361e-05
8 *57:15 *319:8 5.56203e-05
9 *57:15 *333:25 9.4761e-05
10 *57:15 *333:42 0.000139657
11 *57:15 *356:18 1.24376e-05
12 *57:15 *371:32 5.50049e-05
13 *57:15 *371:45 2.13125e-05
14 acc[2] *57:15 8.73764e-05
15 *1037:A *57:15 8.06147e-05
16 *36:11 *57:15 0
*RES
1 data_in[29] *57:15 30.8438 
2 *57:15 *1038:A 23 
*END

*D_NET *58 0.000670642
*CONN
*P data_in[2] I
*I *1039:A I *D sky130_fd_sc_hd__clkbuf_1
*CAP
1 data_in[2] 0.000241625
2 *1039:A 0.000241625
3 *1039:A *810:A 5.36427e-06
4 acc[2] *1039:A 8.97484e-05
5 *1027:A *1039:A 9.22789e-05
6 *57:15 *1039:A 0
*RES
1 data_in[2] *1039:A 47.3365 
*END

*D_NET *59 0.000533142
*CONN
*P data_in[30] I
*I *1040:A I *D sky130_fd_sc_hd__clkbuf_1
*CAP
1 data_in[30] 0.000187142
2 *1040:A 0.000187142
3 *1040:A *333:42 0
4 acc[29] *1040:A 7.82427e-05
5 acc[31] *1040:A 8.06147e-05
*RES
1 data_in[30] *1040:A 47.7832 
*END

*D_NET *60 0.00199246
*CONN
*P data_in[31] I
*I *1041:A I *D sky130_fd_sc_hd__clkbuf_1
*CAP
1 data_in[31] 0.000759426
2 *1041:A 0
3 *60:11 0.000759426
4 *60:11 *96:10 0.000180411
5 *60:11 *354:49 7.66188e-05
6 *60:11 *371:45 0
7 acc[28] *60:11 0.000117149
8 acc[29] *60:11 9.94259e-05
9 acc[30] *60:11 0
*RES
1 data_in[31] *60:11 28.6221 
2 *60:11 *1041:A 23 
*END

*D_NET *61 0.000568295
*CONN
*P data_in[3] I
*I *1042:A I *D sky130_fd_sc_hd__clkbuf_2
*CAP
1 data_in[3] 0.000173207
2 *1042:A 0.000173207
3 *1042:A *62:15 7.89944e-05
4 *1042:A *66:11 8.97484e-05
5 *1042:A *345:14 5.31385e-05
*RES
1 data_in[3] *1042:A 47.5169 
*END

*D_NET *62 0.00152315
*CONN
*P data_in[4] I
*I *1043:A I *D sky130_fd_sc_hd__clkbuf_1
*CAP
1 data_in[4] 0.000537653
2 *1043:A 0
3 *62:15 0.000537653
4 *62:15 *828:A 5.50106e-05
5 *62:15 *831:C 0
6 *62:15 *1083:A 5.50106e-05
7 *62:15 *66:11 0
8 *62:15 *345:14 4.75766e-05
9 *62:15 *360:16 1.22803e-05
10 *62:15 *360:25 7.2e-05
11 acc[4] *62:15 0.000102271
12 *1042:A *62:15 7.89944e-05
13 *29:10 *62:15 2.47015e-05
*RES
1 data_in[4] *62:15 29.6187 
2 *62:15 *1043:A 23 
*END

*D_NET *63 0.00179453
*CONN
*P data_in[5] I
*I *1044:A I *D sky130_fd_sc_hd__clkbuf_1
*CAP
1 data_in[5] 0.000700328
2 *1044:A 0
3 *63:11 0.000700328
4 *63:11 *74:8 2.33476e-05
5 *63:11 *262:10 6.37358e-05
6 *63:11 *369:52 8.06103e-05
7 acc[4] *63:11 0.000114277
8 acc[5] *63:11 0.000111905
*RES
1 data_in[5] *63:11 27.4798 
2 *63:11 *1044:A 23 
*END

*D_NET *64 0.00231172
*CONN
*P data_in[6] I
*I *1045:A I *D sky130_fd_sc_hd__buf_1
*CAP
1 data_in[6] 0.000666487
2 *1045:A 0
3 *64:11 0.000666487
4 *64:11 *823:A 2.02517e-05
5 *64:11 *1085:A 0.000394994
6 *64:11 *150:22 0.000443679
7 *64:11 *327:30 2.95125e-05
8 *64:11 *332:56 0
9 *64:11 *364:14 9.03134e-05
10 acc[6] *64:11 0
11 acc[9] *64:11 0
*RES
1 data_in[6] *64:11 31.3643 
2 *64:11 *1045:A 23 
*END

*D_NET *65 0.00117298
*CONN
*P data_in[7] I
*I *1047:A I *D sky130_fd_sc_hd__clkbuf_1
*CAP
1 data_in[7] 0.0005314
2 *1047:A 0.0005314
3 *1047:A *151:16 0
4 *1047:A *329:6 5.37348e-06
5 *1047:A *365:10 0
6 *1047:A *365:16 0.00010018
7 *1047:A *365:24 4.6318e-06
8 acc[7] *1047:A 0
*RES
1 data_in[7] *1047:A 48.8957 
*END

*D_NET *66 0.00113272
*CONN
*P data_in[8] I
*I *1048:A I *D sky130_fd_sc_hd__clkbuf_1
*CAP
1 data_in[8] 0.000322104
2 *1048:A 0
3 *66:11 0.000322104
4 *66:11 *72:8 0
5 *66:11 *345:14 0.000117182
6 *66:11 *360:10 0.000169674
7 *66:11 *368:173 0
8 acc[8] *66:11 0.000111905
9 *1042:A *66:11 8.97484e-05
10 *62:15 *66:11 0
*RES
1 data_in[8] *66:11 27.2395 
2 *66:11 *1048:A 23 
*END

*D_NET *67 0.00103368
*CONN
*P data_in[9] I
*I *1049:A I *D sky130_fd_sc_hd__clkbuf_1
*CAP
1 data_in[9] 0.000516841
2 *1049:A 0.000516841
3 acc[9] *1049:A 0
4 *1046:A *1049:A 0
*RES
1 data_in[9] *1049:A 48.2743 
*END

*D_NET *68 0.000956096
*CONN
*P rst I
*I *1050:A I *D sky130_fd_sc_hd__dlymetal6s2s_1
*CAP
1 rst 0.00043893
2 *1050:A 0
3 *68:11 0.00043893
4 *68:11 *338:10 0
5 *35:13 *68:11 7.82365e-05
*RES
1 rst *68:11 28.3047 
2 *68:11 *1050:A 23 
*END

*D_NET *69 0.000552473
*CONN
*I *980:RESET_B I *D sky130_fd_sc_hd__dfrtp_1
*I *771:Y O *D sky130_fd_sc_hd__inv_2
*CAP
1 *980:RESET_B 3.92997e-05
2 *771:Y 9.30731e-05
3 *69:8 0.000132373
4 *980:RESET_B *333:8 9.29579e-06
5 *69:8 *970:B 0.000118174
6 *69:8 *333:25 8.62876e-05
7 *57:15 *69:8 7.39704e-05
*RES
1 *771:Y *69:8 40.61 
2 *69:8 *980:RESET_B 15.5489 
*END

*D_NET *70 0.000240566
*CONN
*I *981:RESET_B I *D sky130_fd_sc_hd__dfrtp_1
*I *972:Y O *D sky130_fd_sc_hd__inv_2
*CAP
1 *981:RESET_B 0
2 *972:Y 6.21258e-05
3 *70:8 6.21258e-05
4 *70:8 *345:14 0
5 *70:8 *345:21 0
6 *70:8 *368:173 0.000116314
7 acc[8] *70:8 0
*RES
1 *972:Y *70:8 39.5536 
2 *70:8 *981:RESET_B 15 
*END

*D_NET *71 0.000356683
*CONN
*I *982:RESET_B I *D sky130_fd_sc_hd__dfrtp_1
*I *973:Y O *D sky130_fd_sc_hd__inv_2
*CAP
1 *982:RESET_B 3.67171e-05
2 *973:Y 0.000141624
3 *71:8 0.000178342
4 *71:8 *137:10 0
5 *71:8 *357:25 0
*RES
1 *973:Y *71:8 40.61 
2 *71:8 *982:RESET_B 15.5489 
*END

*D_NET *72 0.000229847
*CONN
*I *983:RESET_B I *D sky130_fd_sc_hd__dfrtp_4
*I *974:Y O *D sky130_fd_sc_hd__inv_2
*CAP
1 *983:RESET_B 0
2 *974:Y 7.84972e-05
3 *72:8 7.84972e-05
4 *72:8 *360:10 0
5 *72:8 *368:173 7.28526e-05
6 *66:11 *72:8 0
*RES
1 *974:Y *72:8 39.9057 
2 *72:8 *983:RESET_B 15 
*END

*D_NET *73 0.000507195
*CONN
*I *984:RESET_B I *D sky130_fd_sc_hd__dfrtp_1
*I *975:Y O *D sky130_fd_sc_hd__inv_2
*CAP
1 *984:RESET_B 0
2 *975:Y 5.70576e-05
3 *73:8 5.70576e-05
4 *73:8 *829:A 0.00019654
5 *73:8 *368:173 0.00019654
*RES
1 *975:Y *73:8 40.61 
2 *73:8 *984:RESET_B 15 
*END

*D_NET *74 0.000428694
*CONN
*I *985:RESET_B I *D sky130_fd_sc_hd__dfrtp_1
*I *976:Y O *D sky130_fd_sc_hd__inv_2
*CAP
1 *985:RESET_B 0
2 *976:Y 0.000106265
3 *74:8 0.000106265
4 *74:8 *262:10 0
5 *74:8 *369:52 0.000192816
6 *63:11 *74:8 2.33476e-05
*RES
1 *976:Y *74:8 40.61 
2 *74:8 *985:RESET_B 15 
*END

*D_NET *75 0.000461875
*CONN
*I *986:RESET_B I *D sky130_fd_sc_hd__dfrtp_1
*I *977:Y O *D sky130_fd_sc_hd__inv_2
*CAP
1 *986:RESET_B 0
2 *977:Y 0.000106794
3 *75:10 0.000106794
4 *75:10 *332:56 0.000110913
5 *75:10 *369:8 0.000110913
6 *75:10 *369:12 2.64616e-05
*RES
1 *977:Y *75:10 40.175 
2 *75:10 *986:RESET_B 15 
*END

*D_NET *76 0.000377522
*CONN
*I *987:RESET_B I *D sky130_fd_sc_hd__dfrtp_1
*I *978:Y O *D sky130_fd_sc_hd__inv_2
*CAP
1 *987:RESET_B 0.000111298
2 *978:Y 0.000111298
3 *987:RESET_B *365:10 1.12709e-05
4 *987:RESET_B *369:84 0.000143655
*RES
1 *978:Y *987:RESET_B 25.4546 
*END

*D_NET *77 0.000359165
*CONN
*I *988:RESET_B I *D sky130_fd_sc_hd__dfrtp_1
*I *979:Y O *D sky130_fd_sc_hd__inv_2
*CAP
1 *988:RESET_B 0.000118042
2 *979:Y 0.000118042
3 *988:RESET_B *369:97 0.00012308
*RES
1 *979:Y *988:RESET_B 25.4546 
*END

*D_NET *78 0.000532606
*CONN
*I *989:RESET_B I *D sky130_fd_sc_hd__dfrtp_1
*I *748:Y O *D sky130_fd_sc_hd__inv_2
*CAP
1 *989:RESET_B 0
2 *748:Y 0.000141639
3 *78:10 0.000141639
4 *78:10 *332:56 0.000194318
5 *78:10 *368:169 5.50106e-05
6 *78:10 *369:97 0
*RES
1 *748:Y *78:10 41.2314 
2 *78:10 *989:RESET_B 15 
*END

*D_NET *79 0.000684386
*CONN
*I *990:RESET_B I *D sky130_fd_sc_hd__dfrtp_1
*I *749:Y O *D sky130_fd_sc_hd__inv_2
*CAP
1 *990:RESET_B 0
2 *749:Y 0.000182637
3 *79:10 0.000182637
4 *79:10 *334:10 0
5 *79:10 *336:14 0.000166522
6 *79:10 *368:74 0.000139357
7 *79:10 *368:100 1.32314e-05
*RES
1 *749:Y *79:10 41.8321 
2 *79:10 *990:RESET_B 15 
*END

*D_NET *80 0.000349919
*CONN
*I *991:RESET_B I *D sky130_fd_sc_hd__dfrtp_1
*I *750:Y O *D sky130_fd_sc_hd__inv_2
*CAP
1 *991:RESET_B 0
2 *750:Y 9.54914e-05
3 *80:10 9.54914e-05
4 *80:10 *953:A 6.71408e-06
5 *80:10 *334:10 0.000114083
6 *80:10 *368:82 3.81391e-05
*RES
1 *750:Y *80:10 40.175 
2 *80:10 *991:RESET_B 15 
*END

*D_NET *81 0.000699318
*CONN
*I *992:RESET_B I *D sky130_fd_sc_hd__dfrtp_1
*I *751:Y O *D sky130_fd_sc_hd__inv_2
*CAP
1 *992:RESET_B 0
2 *751:Y 0.000133232
3 *81:10 0.000133232
4 *81:10 *167:6 9.75779e-05
5 *81:10 *302:109 0.000166522
6 *81:10 *368:116 0.000168754
*RES
1 *751:Y *81:10 41.3557 
2 *81:10 *992:RESET_B 15 
*END

*D_NET *82 0.000196704
*CONN
*I *993:RESET_B I *D sky130_fd_sc_hd__dfrtp_1
*I *752:Y O *D sky130_fd_sc_hd__inv_2
*CAP
1 *993:RESET_B 0
2 *752:Y 9.8352e-05
3 *82:8 9.8352e-05
4 *82:8 *756:A 0
5 *82:8 *337:8 0
*RES
1 *752:Y *82:8 39.5536 
2 *82:8 *993:RESET_B 15 
*END

*D_NET *83 0.00029428
*CONN
*I *994:RESET_B I *D sky130_fd_sc_hd__dfrtp_1
*I *753:Y O *D sky130_fd_sc_hd__inv_2
*CAP
1 *994:RESET_B 0
2 *753:Y 0.00014714
3 *83:8 0.00014714
4 *83:8 *283:8 0
5 *83:8 *302:86 0
6 *83:8 *338:10 0
*RES
1 *753:Y *83:8 40.61 
2 *83:8 *994:RESET_B 15 
*END

*D_NET *84 0.00118681
*CONN
*I *995:RESET_B I *D sky130_fd_sc_hd__dfrtp_1
*I *754:Y O *D sky130_fd_sc_hd__inv_2
*CAP
1 *995:RESET_B 0.000262986
2 *754:Y 0.000262986
3 *995:RESET_B *953:A 2.07145e-05
4 *995:RESET_B *953:B 0.000103469
5 *995:RESET_B *302:78 0.000484827
6 *995:RESET_B *340:8 1.77274e-05
7 *995:RESET_B *372:29 3.40979e-05
*RES
1 *754:Y *995:RESET_B 29.7425 
*END

*D_NET *85 0.000410375
*CONN
*I *996:RESET_B I *D sky130_fd_sc_hd__dfrtp_1
*I *755:Y O *D sky130_fd_sc_hd__inv_2
*CAP
1 *996:RESET_B 0
2 *755:Y 0.000195447
3 *85:10 0.000195447
4 *85:10 *332:39 0
5 *85:10 *368:116 1.94812e-05
*RES
1 *755:Y *85:10 41.2314 
2 *85:10 *996:RESET_B 15 
*END

*D_NET *86 0.000898728
*CONN
*I *997:RESET_B I *D sky130_fd_sc_hd__dfrtp_1
*I *756:Y O *D sky130_fd_sc_hd__inv_2
*CAP
1 *997:RESET_B 0.000336211
2 *756:Y 0.000336211
3 *997:RESET_B *756:A 0.000226306
*RES
1 *756:Y *997:RESET_B 28.4789 
*END

*D_NET *87 0.000452746
*CONN
*I *998:RESET_B I *D sky130_fd_sc_hd__dfrtp_1
*I *757:Y O *D sky130_fd_sc_hd__inv_2
*CAP
1 *998:RESET_B 0
2 *757:Y 0.000215427
3 *87:10 0.000215427
4 *87:10 *757:A 2.18926e-05
5 *87:10 *198:18 0
*RES
1 *757:Y *87:10 41.3557 
2 *87:10 *998:RESET_B 15 
*END

*D_NET *88 0.000461982
*CONN
*I *999:RESET_B I *D sky130_fd_sc_hd__dfrtp_1
*I *758:Y O *D sky130_fd_sc_hd__inv_2
*CAP
1 *999:RESET_B 5.2782e-05
2 *758:Y 0.000153028
3 *88:8 0.00020581
4 *999:RESET_B *288:10 5.03619e-05
5 *88:8 *310:14 0
*RES
1 *758:Y *88:8 40.61 
2 *88:8 *999:RESET_B 16.0254 
*END

*D_NET *89 0.00028924
*CONN
*I *1000:RESET_B I *D sky130_fd_sc_hd__dfrtp_1
*I *759:Y O *D sky130_fd_sc_hd__inv_2
*CAP
1 *1000:RESET_B 0.000123668
2 *759:Y 0.000123668
3 *1000:RESET_B *346:14 4.19048e-05
*RES
1 *759:Y *1000:RESET_B 25.4546 
*END

*D_NET *90 0.000258354
*CONN
*I *1001:RESET_B I *D sky130_fd_sc_hd__dfrtp_1
*I *760:Y O *D sky130_fd_sc_hd__inv_2
*CAP
1 *1001:RESET_B 0
2 *760:Y 4.19718e-05
3 *90:8 4.19718e-05
4 *90:8 *875:B 5.80963e-05
5 *90:8 *344:41 0.000116314
*RES
1 *760:Y *90:8 39.5536 
2 *90:8 *1001:RESET_B 15 
*END

*D_NET *91 0.000381673
*CONN
*I *1002:RESET_B I *D sky130_fd_sc_hd__dfrtp_1
*I *761:Y O *D sky130_fd_sc_hd__inv_2
*CAP
1 *1002:RESET_B 0
2 *761:Y 9.0986e-05
3 *91:8 9.0986e-05
4 *91:8 *291:10 0
5 *91:8 *370:142 0.000199701
*RES
1 *761:Y *91:8 40.61 
2 *91:8 *1002:RESET_B 15 
*END

*D_NET *92 0.000568388
*CONN
*I *1003:RESET_B I *D sky130_fd_sc_hd__dfrtp_1
*I *762:Y O *D sky130_fd_sc_hd__inv_2
*CAP
1 *1003:RESET_B 0
2 *762:Y 0.000124375
3 *92:10 0.000124375
4 *92:10 *313:16 0.000194309
5 *92:10 *370:32 9.88678e-05
6 *92:10 *370:36 6.17437e-06
7 *92:10 *370:55 2.02872e-05
*RES
1 *762:Y *92:10 41.2314 
2 *92:10 *1003:RESET_B 15 
*END

*D_NET *93 0.000361411
*CONN
*I *1004:RESET_B I *D sky130_fd_sc_hd__dfrtp_1
*I *763:Y O *D sky130_fd_sc_hd__inv_2
*CAP
1 *1004:RESET_B 0.000146175
2 *763:Y 0.000146175
3 *1004:RESET_B *763:A 5.3304e-05
4 *1004:RESET_B *351:6 1.57571e-05
*RES
1 *763:Y *1004:RESET_B 25.4546 
*END

*D_NET *94 0.000334173
*CONN
*I *1005:RESET_B I *D sky130_fd_sc_hd__dfrtp_1
*I *764:Y O *D sky130_fd_sc_hd__inv_2
*CAP
1 *1005:RESET_B 0.000103318
2 *764:Y 0.000103318
3 *1005:RESET_B *294:8 0.000127537
*RES
1 *764:Y *1005:RESET_B 25.4546 
*END

*D_NET *95 0.000390674
*CONN
*I *1006:RESET_B I *D sky130_fd_sc_hd__dfrtp_1
*I *765:Y O *D sky130_fd_sc_hd__inv_2
*CAP
1 *1006:RESET_B 0
2 *765:Y 6.1059e-05
3 *95:8 6.1059e-05
4 *95:8 *315:10 0.000199701
5 *95:8 *370:63 6.88552e-05
*RES
1 *765:Y *95:8 40.61 
2 *95:8 *1006:RESET_B 15 
*END

*D_NET *96 0.000510956
*CONN
*I *1007:RESET_B I *D sky130_fd_sc_hd__dfrtp_1
*I *766:Y O *D sky130_fd_sc_hd__inv_2
*CAP
1 *1007:RESET_B 0
2 *766:Y 0.000165273
3 *96:10 0.000165273
4 *96:10 *355:42 0
5 *96:10 *371:45 0
6 *60:11 *96:10 0.000180411
*RES
1 *766:Y *96:10 41.2314 
2 *96:10 *1007:RESET_B 15 
*END

*D_NET *97 0.000204751
*CONN
*I *1008:RESET_B I *D sky130_fd_sc_hd__dfrtp_1
*I *767:Y O *D sky130_fd_sc_hd__inv_2
*CAP
1 *1008:RESET_B 0
2 *767:Y 7.33275e-05
3 *97:8 7.33275e-05
4 *97:8 *767:A 0
5 *97:8 *982:CLK 5.80963e-05
*RES
1 *767:Y *97:8 39.5536 
2 *97:8 *1008:RESET_B 15 
*END

*D_NET *98 0.00057436
*CONN
*I *1009:RESET_B I *D sky130_fd_sc_hd__dfrtp_1
*I *768:Y O *D sky130_fd_sc_hd__inv_2
*CAP
1 *1009:RESET_B 0
2 *768:Y 0.000258659
3 *98:10 0.000258659
4 *98:10 *980:CLK 5.70419e-05
5 *98:10 *305:45 0
6 *98:10 *371:24 0
*RES
1 *768:Y *98:10 42.1843 
2 *98:10 *1009:RESET_B 15 
*END

*D_NET *99 0.000723065
*CONN
*I *1010:RESET_B I *D sky130_fd_sc_hd__dfrtp_1
*I *769:Y O *D sky130_fd_sc_hd__inv_2
*CAP
1 *1010:RESET_B 0
2 *769:Y 0.000148173
3 *99:8 0.000148173
4 *99:8 *1080:A 0.000123698
5 *99:8 *323:14 0.000153773
6 *99:8 *333:42 2.37199e-05
7 *99:8 *358:10 3.92407e-05
8 *26:10 *99:8 8.62876e-05
*RES
1 *769:Y *99:8 42.3707 
2 *99:8 *1010:RESET_B 15 
*END

*D_NET *100 0.000609642
*CONN
*I *1011:RESET_B I *D sky130_fd_sc_hd__dfrtp_1
*I *770:Y O *D sky130_fd_sc_hd__inv_2
*CAP
1 *1011:RESET_B 0
2 *770:Y 0.000194637
3 *100:10 0.000194637
4 *100:10 *319:8 3.83778e-05
5 *100:10 *333:42 0.000162143
6 *100:10 *371:32 3.7122e-06
7 *57:15 *100:10 1.61361e-05
*RES
1 *770:Y *100:10 41.3557 
2 *100:10 *1011:RESET_B 15 
*END

*D_NET *101 0.00361619
*CONN
*I *909:C1 I *D sky130_fd_sc_hd__o211a_1
*I *907:A1 I *D sky130_fd_sc_hd__a31o_1
*I *774:A I *D sky130_fd_sc_hd__nand2_1
*I *902:A I *D sky130_fd_sc_hd__nand2_1
*I *772:Y O *D sky130_fd_sc_hd__nand2_1
*CAP
1 *909:C1 0.000290079
2 *907:A1 0.000129085
3 *774:A 9.83823e-05
4 *902:A 0
5 *772:Y 0
6 *101:40 0.000672659
7 *101:18 0.000488855
8 *101:4 0.000643968
9 *774:A *226:12 5.57117e-05
10 *774:A *226:21 1.4345e-05
11 *907:A1 *907:A3 0.000181131
12 *907:A1 *234:12 5.50106e-05
13 *907:A1 *238:10 4.34973e-05
14 *909:C1 *907:A3 3.34129e-05
15 *909:C1 *909:A1 0
16 *909:C1 *228:25 2.30292e-05
17 *909:C1 *231:20 1.7992e-05
18 *909:C1 *305:77 3.0647e-05
19 *101:18 *773:A 2.47702e-05
20 *101:18 *102:10 0.000123469
21 *101:18 *226:12 5.50049e-05
22 *101:18 *228:25 0
23 *101:18 *230:8 0.000113153
24 *101:18 *305:41 2.72257e-05
25 *101:18 *305:73 1.75239e-05
26 *101:18 *355:19 9.5877e-05
27 *101:40 *228:25 0.000107011
28 *101:40 *231:20 4.21594e-06
29 *101:40 *305:77 0.00018319
30 *101:40 *355:19 8.6949e-05
*RES
1 *772:Y *101:4 23 
2 *101:4 *101:18 37.4779 
3 *101:18 *902:A 23 
4 *101:18 *774:A 25.5686 
5 *101:4 *101:40 21.1729 
6 *101:40 *907:A1 41.0036 
7 *101:40 *909:C1 42.7021 
*END

*D_NET *102 0.00083519
*CONN
*I *774:B I *D sky130_fd_sc_hd__nand2_1
*I *773:X O *D sky130_fd_sc_hd__or2_1
*CAP
1 *774:B 0
2 *773:X 0.00025322
3 *102:10 0.00025322
4 *102:10 *103:8 0.000113153
5 *102:10 *230:8 8.4047e-05
6 *102:10 *305:41 8.08139e-06
7 *101:18 *102:10 0.000123469
*RES
1 *773:X *102:10 41.9564 
2 *102:10 *774:B 38 
*END

*D_NET *103 0.00196083
*CONN
*I *897:C1 I *D sky130_fd_sc_hd__a311o_1
*I *898:A I *D sky130_fd_sc_hd__xnor2_1
*I *774:Y O *D sky130_fd_sc_hd__nand2_1
*CAP
1 *897:C1 0
2 *898:A 2.63249e-05
3 *774:Y 0.000100603
4 *103:25 0.000122616
5 *103:12 0.000566363
6 *103:8 0.000518025
7 *898:A *1016:A 2.93747e-05
8 *103:8 *230:8 2.70469e-05
9 *103:12 *1016:A 0.000103647
10 *103:12 *297:10 1.94693e-05
11 *103:12 *305:8 0.000160727
12 *103:12 *305:41 4.06849e-05
13 *103:25 *1019:A 0
14 *103:25 *117:39 1.14452e-05
15 *103:25 *224:40 2.95125e-05
16 *103:25 *225:10 9.18423e-05
17 *102:10 *103:8 0.000113153
*RES
1 *774:Y *103:8 40.2579 
2 *103:8 *103:12 24.6736 
3 *103:12 *898:A 23.6214 
4 *103:12 *103:25 32.61 
5 *103:25 *897:C1 23 
*END

*D_NET *104 0.00175967
*CONN
*I *783:A I *D sky130_fd_sc_hd__or2_1
*I *777:A I *D sky130_fd_sc_hd__nand2_1
*I *918:B1_N I *D sky130_fd_sc_hd__a21bo_1
*I *775:Y O *D sky130_fd_sc_hd__nand2_1
*CAP
1 *783:A 0.000171223
2 *777:A 2.1727e-05
3 *918:B1_N 0
4 *775:Y 0.000252706
5 *104:19 0.000368266
6 *104:12 0.000428022
7 *777:A *777:B 4.00259e-06
8 *783:A *112:8 0
9 *104:12 *775:A 0.000117401
10 *104:12 *776:B 1.56762e-05
11 *104:12 *918:A2 0.000180212
12 *104:19 *776:B 5.67058e-05
13 *104:19 *777:B 5.67058e-05
14 *104:19 *918:A1 8.70252e-05
*RES
1 *775:Y *104:12 28.5721 
2 *104:12 *918:B1_N 23 
3 *104:12 *104:19 3.95643 
4 *104:19 *777:A 23.4971 
5 *104:19 *783:A 26.0243 
*END

*D_NET *105 0.00107752
*CONN
*I *777:B I *D sky130_fd_sc_hd__nand2_1
*I *918:A1 I *D sky130_fd_sc_hd__a21bo_1
*I *776:X O *D sky130_fd_sc_hd__or2_1
*CAP
1 *777:B 3.94368e-05
2 *918:A1 0.000148855
3 *776:X 0
4 *105:4 0.000188292
5 *918:A1 *775:A 0.000347172
6 *918:A1 *776:B 0.000182826
7 *918:A1 *918:A2 2.32004e-05
8 *777:A *777:B 4.00259e-06
9 *104:19 *777:B 5.67058e-05
10 *104:19 *918:A1 8.70252e-05
*RES
1 *776:X *105:4 23 
2 *105:4 *918:A1 27.93 
3 *105:4 *777:B 24.1186 
*END

*D_NET *106 0.0011819
*CONN
*I *782:A I *D sky130_fd_sc_hd__or2_1
*I *917:A I *D sky130_fd_sc_hd__xnor2_1
*I *777:Y O *D sky130_fd_sc_hd__nand2_1
*CAP
1 *782:A 0.000198344
2 *917:A 0.000186921
3 *777:Y 0.000101725
4 *106:10 0.000385265
5 *106:8 0.000101725
6 *782:A *782:B 5.3304e-05
7 *917:A *370:80 9.84794e-05
8 *106:8 *782:B 0
9 *106:8 *314:10 5.61414e-05
*RES
1 *777:Y *106:8 40.2579 
2 *106:8 *106:10 15 
3 *106:10 *917:A 26.48 
4 *106:10 *782:A 26.48 
*END

*D_NET *107 0.00236917
*CONN
*I *784:A I *D sky130_fd_sc_hd__nor2_1
*I *922:A I *D sky130_fd_sc_hd__xor2_1
*I *788:A1 I *D sky130_fd_sc_hd__o21a_1
*I *778:Y O *D sky130_fd_sc_hd__xnor2_1
*CAP
1 *784:A 9.12758e-05
2 *922:A 0
3 *788:A1 0
4 *778:Y 8.46706e-05
5 *107:25 0.000155557
6 *107:18 0.000244142
7 *107:12 0.000387568
8 *107:8 0.000163816
9 *784:A *784:B 0.000207793
10 *784:A *113:10 0.000274078
11 *784:A *296:10 4.95081e-05
12 *107:8 *921:A 0
13 *107:8 *115:10 7.03869e-05
14 *107:8 *242:8 1.19692e-05
15 *107:12 *922:B 0.000139346
16 *107:18 *115:10 0.000246739
17 *107:18 *116:8 7.03869e-05
18 *107:18 *242:8 0
19 *107:25 *784:B 1.76557e-05
20 *107:25 *922:B 0.000129522
21 *107:25 *113:10 2.4754e-05
*RES
1 *778:Y *107:8 39.9057 
2 *107:8 *107:12 16.5743 
3 *107:12 *107:18 35.7793 
4 *107:18 *788:A1 23 
5 *107:12 *107:25 2.05071 
6 *107:25 *922:A 23 
7 *107:25 *784:A 27.4743 
*END

*D_NET *108 0.001247
*CONN
*I *781:A I *D sky130_fd_sc_hd__nand2_1
*I *921:A I *D sky130_fd_sc_hd__and3_1
*I *779:Y O *D sky130_fd_sc_hd__nand2_1
*CAP
1 *781:A 9.2879e-05
2 *921:A 0.000208887
3 *779:Y 0
4 *108:6 0.000301766
5 *781:A *766:A 9.58714e-05
6 *781:A *316:29 3.7877e-05
7 *781:A *316:37 5.01986e-05
8 *781:A *353:20 6.16439e-05
9 *921:A *242:8 6.07611e-06
10 *921:A *316:37 0.000169683
11 *921:A *351:38 0
12 *921:A *353:16 5.09165e-05
13 *921:A *353:20 0.000171197
14 *107:8 *921:A 0
*RES
1 *779:Y *108:6 38 
2 *108:6 *921:A 42.3707 
3 *108:6 *781:A 40.4443 
*END

*D_NET *109 0.000503023
*CONN
*I *781:B I *D sky130_fd_sc_hd__nand2_1
*I *780:X O *D sky130_fd_sc_hd__or2_1
*CAP
1 *781:B 0
2 *780:X 0.00016756
3 *109:10 0.00016756
4 *109:10 *316:37 8.97844e-05
5 *109:10 *351:38 7.81176e-05
*RES
1 *780:X *109:10 41.3557 
2 *109:10 *781:B 38 
*END

*D_NET *110 0.00376558
*CONN
*I *783:B I *D sky130_fd_sc_hd__or2_1
*I *782:B I *D sky130_fd_sc_hd__or2_1
*I *920:A I *D sky130_fd_sc_hd__xnor2_1
*I *781:Y O *D sky130_fd_sc_hd__nand2_1
*CAP
1 *783:B 0
2 *782:B 0.000192948
3 *920:A 0.000457687
4 *781:Y 8.26866e-05
5 *110:23 0.000390857
6 *110:6 0.000738283
7 *782:B *314:10 0
8 *782:B *351:38 0.000302348
9 *920:A *766:A 0.000467453
10 *920:A *920:B 7.88828e-05
11 *920:A *351:38 5.50049e-05
12 *920:A *370:55 0.000108985
13 *920:A *370:106 9.84851e-05
14 *110:6 *766:A 0.000167786
15 *110:6 *351:38 5.3304e-05
16 *110:23 *314:10 0
17 *110:23 *315:10 0
18 *110:23 *351:38 0.000379413
19 *782:A *782:B 5.3304e-05
20 *52:13 *920:A 0.000138155
21 *106:8 *782:B 0
*RES
1 *781:Y *110:6 25.0507 
2 *110:6 *920:A 35.1179 
3 *110:6 *110:23 20.075 
4 *110:23 *782:B 42.64 
5 *110:23 *783:B 38 
*END

*D_NET *111 0.00106511
*CONN
*I *919:B1 I *D sky130_fd_sc_hd__a21o_1
*I *788:A2 I *D sky130_fd_sc_hd__o21a_1
*I *782:X O *D sky130_fd_sc_hd__or2_1
*CAP
1 *919:B1 0
2 *788:A2 0.000194943
3 *782:X 0.000194713
4 *111:12 0.000194943
5 *111:10 0.000194713
6 *788:A2 *116:12 4.34745e-05
7 *788:A2 *116:18 9.84851e-05
8 *788:A2 *117:14 2.64616e-05
9 *788:A2 *118:53 2.93747e-05
10 *111:10 *116:8 0
11 *111:10 *118:53 3.70094e-05
12 *111:10 *224:40 1.01436e-05
13 *111:10 *242:8 4.08537e-05
14 *111:10 *351:38 0
*RES
1 *782:X *111:10 41.0036 
2 *111:10 *111:12 15 
3 *111:12 *788:A2 26.9771 
4 *111:12 *919:B1 23 
*END

*D_NET *112 0.00176035
*CONN
*I *784:B I *D sky130_fd_sc_hd__nor2_1
*I *921:B I *D sky130_fd_sc_hd__and3_1
*I *783:X O *D sky130_fd_sc_hd__or2_1
*CAP
1 *784:B 0.000467535
2 *921:B 0
3 *783:X 0.000171706
4 *112:8 0.000639241
5 *784:B *921:C 1.40314e-06
6 *784:B *922:B 0.000171888
7 *784:B *296:10 5.67058e-05
8 *112:8 *921:C 6.17437e-06
9 *112:8 *922:B 2.02517e-05
10 *783:A *112:8 0
11 *784:A *784:B 0.000207793
12 *107:25 *784:B 1.76557e-05
*RES
1 *783:X *112:8 26.3764 
2 *112:8 *921:B 23 
3 *112:8 *784:B 31.6379 
*END

*D_NET *113 0.00148341
*CONN
*I *786:B1 I *D sky130_fd_sc_hd__a211o_1
*I *784:Y O *D sky130_fd_sc_hd__nor2_1
*CAP
1 *786:B1 0
2 *784:Y 0.000437235
3 *113:10 0.000437235
4 *113:10 *114:8 8.05936e-05
5 *113:10 *115:10 0
6 *113:10 *318:18 0.000215782
7 *113:10 *354:27 1.37349e-05
8 *784:A *113:10 0.000274078
9 *107:25 *113:10 2.4754e-05
*RES
1 *784:Y *113:10 46.555 
2 *113:10 *786:B1 38 
*END

*D_NET *114 0.000431738
*CONN
*I *786:C1 I *D sky130_fd_sc_hd__a211o_1
*I *785:X O *D sky130_fd_sc_hd__o211a_1
*CAP
1 *786:C1 1.80505e-05
2 *785:X 0.000113016
3 *114:8 0.000131066
4 *786:C1 *766:A 2.93747e-05
5 *54:13 *786:C1 5.50049e-05
6 *55:13 *114:8 4.6318e-06
7 *113:10 *114:8 8.05936e-05
*RES
1 *785:X *114:8 40.2579 
2 *114:8 *786:C1 38.6214 
*END

*D_NET *115 0.00131457
*CONN
*I *787:A I *D sky130_fd_sc_hd__inv_2
*I *786:X O *D sky130_fd_sc_hd__a211o_1
*CAP
1 *787:A 0
2 *786:X 0.000387966
3 *115:10 0.000387966
4 *115:10 *766:A 5.50049e-05
5 *115:10 *785:B1 0.000166504
6 *115:10 *242:8 0
7 *115:10 *353:20 0
8 *107:8 *115:10 7.03869e-05
9 *107:18 *115:10 0.000246739
10 *113:10 *115:10 0
*RES
1 *786:X *115:10 46.5136 
2 *115:10 *787:A 38 
*END

*D_NET *116 0.00259209
*CONN
*I *788:B1 I *D sky130_fd_sc_hd__o21a_1
*I *896:A1 I *D sky130_fd_sc_hd__a31oi_1
*I *897:A1 I *D sky130_fd_sc_hd__a311o_1
*I *787:Y O *D sky130_fd_sc_hd__inv_2
*CAP
1 *788:B1 0
2 *896:A1 0.000460702
3 *897:A1 0.000126456
4 *787:Y 8.66267e-05
5 *116:18 0.000745178
6 *116:12 0.000182631
7 *116:8 0.000111238
8 *896:A1 *789:A 4.36926e-05
9 *896:A1 *896:B1 0.000120062
10 *896:A1 *117:18 0.000135037
11 *896:A1 *225:10 0.000139346
12 *897:A1 *789:A 0
13 *897:A1 *896:B1 0
14 *897:A1 *117:14 1.58805e-05
15 *897:A1 *117:18 5.50106e-05
16 *897:A1 *118:53 6.7177e-06
17 *897:A1 *224:40 6.71027e-05
18 *116:8 *118:53 0
19 *116:8 *242:8 0
20 *116:18 *117:14 4.59507e-05
21 *116:18 *118:53 3.81141e-05
22 *788:A2 *116:12 4.34745e-05
23 *788:A2 *116:18 9.84851e-05
24 *107:18 *116:8 7.03869e-05
25 *111:10 *116:8 0
*RES
1 *787:Y *116:8 39.9057 
2 *116:8 *116:12 15.6214 
3 *116:12 *116:18 18.3557 
4 *116:18 *897:A1 41.2729 
5 *116:18 *896:A1 45.1879 
6 *116:12 *788:B1 23 
*END

*D_NET *117 0.00166012
*CONN
*I *897:B1 I *D sky130_fd_sc_hd__a311o_1
*I *896:B1 I *D sky130_fd_sc_hd__a31oi_1
*I *788:X O *D sky130_fd_sc_hd__o21a_1
*CAP
1 *897:B1 0
2 *896:B1 0.000134148
3 *788:X 0.000163933
4 *117:39 4.56799e-05
5 *117:18 0.000233902
6 *117:14 0.000218007
7 *896:B1 *789:A 0.000114769
8 *896:B1 *225:10 0.000139346
9 *117:14 *118:53 0.000113536
10 *117:18 *224:40 9.8971e-06
11 *117:39 *224:40 6.25829e-05
12 *117:39 *225:10 1.4471e-05
13 *788:A2 *117:14 2.64616e-05
14 *896:A1 *896:B1 0.000120062
15 *896:A1 *117:18 0.000135037
16 *897:A1 *896:B1 0
17 *897:A1 *117:14 1.58805e-05
18 *897:A1 *117:18 5.50106e-05
19 *103:25 *117:39 1.14452e-05
20 *116:18 *117:14 4.59507e-05
*RES
1 *788:X *117:14 40.9414 
2 *117:14 *117:18 16.5743 
3 *117:18 *896:B1 27.1429 
4 *117:18 *117:39 31.2325 
5 *117:39 *897:B1 23 
*END

*D_NET *118 0.00455245
*CONN
*I *791:A I *D sky130_fd_sc_hd__nand2_1
*I *897:A2 I *D sky130_fd_sc_hd__a311o_1
*I *919:A1 I *D sky130_fd_sc_hd__a21o_1
*I *916:A I *D sky130_fd_sc_hd__nand2_1
*I *896:A2 I *D sky130_fd_sc_hd__a31oi_1
*I *789:Y O *D sky130_fd_sc_hd__nand2_1
*CAP
1 *791:A 0
2 *897:A2 0
3 *919:A1 0
4 *916:A 0
5 *896:A2 0
6 *789:Y 0.000190519
7 *118:53 0.000297877
8 *118:34 0.000685939
9 *118:25 0.00064121
10 *118:17 0.00040088
11 *118:6 0.00033825
12 *118:6 *789:A 0.0002248
13 *118:17 *789:A 8.14093e-05
14 *118:17 *790:A 5.67058e-05
15 *118:17 *791:B 5.67058e-05
16 *118:17 *224:6 5.98028e-05
17 *118:17 *301:40 0.000360023
18 *118:25 *915:A 0
19 *118:25 *240:10 2.4754e-05
20 *118:25 *370:80 0
21 *118:34 *916:B 0.000137651
22 *118:34 *224:21 0.000443679
23 *118:34 *224:40 5.67058e-05
24 *118:34 *240:10 1.32314e-05
25 *118:53 *224:40 0.000257557
26 *788:A2 *118:53 2.93747e-05
27 *897:A1 *118:53 6.7177e-06
28 *111:10 *118:53 3.70094e-05
29 *116:8 *118:53 0
30 *116:18 *118:53 3.81141e-05
31 *117:14 *118:53 0.000113536
*RES
1 *789:Y *118:6 26.0036 
2 *118:6 *896:A2 23 
3 *118:6 *118:17 5.42714 
4 *118:17 *118:25 34.4121 
5 *118:25 *916:A 23 
6 *118:25 *118:34 8.265 
7 *118:34 *919:A1 23 
8 *118:34 *118:53 36.6286 
9 *118:53 *897:A2 23 
10 *118:17 *791:A 23 
*END

*D_NET *119 0.000105752
*CONN
*I *791:B I *D sky130_fd_sc_hd__nand2_1
*I *790:X O *D sky130_fd_sc_hd__or2_1
*CAP
1 *791:B 8.37909e-06
2 *790:X 8.37909e-06
3 *791:B *224:6 3.22879e-05
4 *118:17 *791:B 5.67058e-05
*RES
1 *790:X *791:B 46.6214 
*END

*D_NET *120 0.00345586
*CONN
*I *914:A I *D sky130_fd_sc_hd__and3_1
*I *895:B1 I *D sky130_fd_sc_hd__a21o_1
*I *894:B1 I *D sky130_fd_sc_hd__a21oi_1
*I *791:Y O *D sky130_fd_sc_hd__nand2_1
*CAP
1 *914:A 0.00014502
2 *895:B1 0.00020895
3 *894:B1 0.000310297
4 *791:Y 0.000426322
5 *120:10 0.000582347
6 *120:8 0.000634442
7 *894:B1 *223:8 1.32939e-05
8 *894:B1 *293:8 0
9 *894:B1 *304:110 0.000156058
10 *895:B1 *224:6 0.000227407
11 *895:B1 *304:6 0.000139352
12 *914:A *914:B 0
13 *914:A *915:A 0
14 *120:8 *224:6 0.000612372
15 *120:10 *914:B 0
16 *120:10 *293:8 0
*RES
1 *791:Y *120:8 44.815 
2 *120:8 *120:10 1.20143 
3 *120:10 *894:B1 43.8829 
4 *120:10 *895:B1 43.3857 
5 *120:8 *914:A 40.61 
*END

*D_NET *121 0.00155335
*CONN
*I *804:B1 I *D sky130_fd_sc_hd__o21a_1
*I *795:A I *D sky130_fd_sc_hd__nand2_1
*I *792:Y O *D sky130_fd_sc_hd__nand2_1
*CAP
1 *804:B1 0
2 *795:A 0.000106035
3 *792:Y 0.00025867
4 *121:12 0.000106035
5 *121:10 0.00025867
6 *795:A *796:A 1.18939e-05
7 *795:A *804:A2 5.50106e-05
8 *795:A *125:6 0.000182826
9 *795:A *302:124 9.76358e-05
10 *121:10 *793:A 0.000141052
11 *121:10 *122:10 4.48671e-05
12 *121:10 *125:12 0.000248989
13 *121:10 *335:8 2.93845e-05
14 *121:10 *335:12 1.22822e-05
15 *35:13 *121:10 0
*RES
1 *792:Y *121:10 43.8414 
2 *121:10 *121:12 15 
3 *121:12 *795:A 26.5214 
4 *121:12 *804:B1 23 
*END

*D_NET *122 0.000454331
*CONN
*I *804:A1 I *D sky130_fd_sc_hd__o21a_1
*I *793:Y O *D sky130_fd_sc_hd__nor2_1
*CAP
1 *804:A1 0
2 *793:Y 0.00010787
3 *122:10 0.00010787
4 *122:10 *335:12 5.50049e-05
5 *35:13 *122:10 0.000138718
6 *121:10 *122:10 4.48671e-05
*RES
1 *793:Y *122:10 40.5271 
2 *122:10 *804:A1 38 
*END

*D_NET *123 0.000599553
*CONN
*I *795:B I *D sky130_fd_sc_hd__nand2_1
*I *794:X O *D sky130_fd_sc_hd__or2_1
*CAP
1 *795:B 0
2 *794:X 0.000282265
3 *123:10 0.000282265
4 *123:10 *125:12 2.46036e-05
5 *123:10 *317:8 0
6 *123:10 *335:22 0
7 *5:8 *123:10 1.04196e-05
*RES
1 *794:X *123:10 41.8321 
2 *123:10 *795:B 38 
*END

*D_NET *124 0.00614206
*CONN
*I *803:A I *D sky130_fd_sc_hd__or3_1
*I *802:A I *D sky130_fd_sc_hd__or3_1
*I *953:A I *D sky130_fd_sc_hd__xnor2_1
*I *795:Y O *D sky130_fd_sc_hd__nand2_1
*CAP
1 *803:A 0.000259504
2 *802:A 6.2558e-05
3 *953:A 0.000709821
4 *795:Y 0
5 *124:23 0.000986839
6 *124:4 0.0013746
7 *802:A *127:10 5.50106e-05
8 *802:A *127:21 2.18409e-05
9 *802:A *368:142 9.8355e-05
10 *803:A *803:B 0.000382583
11 *803:A *803:C 0.000345564
12 *803:A *950:B1_N 0.000114083
13 *803:A *127:21 0.000249515
14 *803:A *129:33 4.85126e-05
15 *803:A *367:10 0
16 *953:A *750:A 2.30292e-05
17 *953:A *797:B 9.8971e-06
18 *953:A *953:B 0.000106382
19 *953:A *125:6 0.000401899
20 *953:A *372:29 4.52198e-05
21 *124:23 *804:A2 0.000130423
22 *124:23 *125:6 0.000141052
23 *124:23 *127:21 6.25829e-05
24 *124:23 *302:124 3.93158e-05
25 *124:23 *328:23 0.000138195
26 *124:23 *331:8 0
27 *124:23 *335:22 0.000247687
28 *995:RESET_B *953:A 2.07145e-05
29 *35:13 *124:23 6.01625e-05
30 *80:10 *953:A 6.71408e-06
*RES
1 *795:Y *124:4 23 
2 *124:4 *953:A 34.3514 
3 *124:4 *124:23 27.1593 
4 *124:23 *802:A 39.5743 
5 *124:23 *803:A 46.5964 
*END

*D_NET *125 0.00294614
*CONN
*I *804:A2 I *D sky130_fd_sc_hd__o21a_1
*I *798:A I *D sky130_fd_sc_hd__nand2_1
*I *952:B1_N I *D sky130_fd_sc_hd__a21bo_1
*I *796:Y O *D sky130_fd_sc_hd__nand2_1
*CAP
1 *804:A2 2.46919e-05
2 *798:A 3.87857e-05
3 *952:B1_N 5.86452e-05
4 *796:Y 0.000112434
5 *125:12 0.000354559
6 *125:6 0.000394255
7 *798:A *798:B 0
8 *798:A *127:10 4.2573e-05
9 *798:A *368:142 2.93845e-05
10 *804:A2 *302:124 3.53115e-05
11 *952:B1_N *798:B 5.50049e-05
12 *952:B1_N *127:10 1.24376e-05
13 *952:B1_N *368:142 2.02872e-05
14 *125:6 *796:A 0.000185428
15 *125:6 *797:B 1.76557e-05
16 *125:6 *126:10 1.73399e-05
17 *125:12 *131:10 0
18 *125:12 *133:12 0.000354778
19 *125:12 *302:124 7.76364e-06
20 *795:A *804:A2 5.50106e-05
21 *795:A *125:6 0.000182826
22 *953:A *125:6 0.000401899
23 *35:13 *125:12 0
24 *121:10 *125:12 0.000248989
25 *123:10 *125:12 2.46036e-05
26 *124:23 *804:A2 0.000130423
27 *124:23 *125:6 0.000141052
*RES
1 *796:Y *125:6 28.8621 
2 *125:6 *125:12 36.1314 
3 *125:12 *952:B1_N 24.0979 
4 *125:12 *798:A 24.1186 
5 *125:6 *804:A2 24.5743 
*END

*D_NET *126 0.00115759
*CONN
*I *798:B I *D sky130_fd_sc_hd__nand2_1
*I *952:A1 I *D sky130_fd_sc_hd__a21bo_1
*I *797:X O *D sky130_fd_sc_hd__or2_1
*CAP
1 *798:B 0.000124113
2 *952:A1 0
3 *797:X 0.000253576
4 *126:12 0.000124113
5 *126:10 0.000253576
6 *798:B *257:21 5.50106e-05
7 *798:B *368:100 3.04516e-05
8 *798:B *368:142 0.00012612
9 *126:10 *302:124 0.000118285
10 *126:10 *334:10 0
11 *798:A *798:B 0
12 *952:B1_N *798:B 5.50049e-05
13 *125:6 *126:10 1.73399e-05
*RES
1 *797:X *126:10 43.3443 
2 *126:10 *126:12 15 
3 *126:12 *952:A1 23 
4 *126:12 *798:B 26.1693 
*END

*D_NET *127 0.00393697
*CONN
*I *803:B I *D sky130_fd_sc_hd__or3_1
*I *951:A I *D sky130_fd_sc_hd__xnor2_1
*I *802:B I *D sky130_fd_sc_hd__or3_1
*I *798:Y O *D sky130_fd_sc_hd__nand2_1
*CAP
1 *803:B 0.000158217
2 *951:A 0.000414217
3 *802:B 0
4 *798:Y 0.000158905
5 *127:21 0.000803761
6 *127:10 0.000390232
7 *803:B *131:27 9.26098e-05
8 *803:B *165:21 0
9 *951:A *950:A2 0.000310641
10 *951:A *951:B 5.50049e-05
11 *951:A *257:6 0.000136743
12 *127:10 *131:10 9.84794e-05
13 *127:10 *368:142 6.18949e-05
14 *127:21 *130:18 0.000187986
15 *798:A *127:10 4.2573e-05
16 *802:A *127:10 5.50106e-05
17 *802:A *127:21 2.18409e-05
18 *803:A *803:B 0.000382583
19 *803:A *127:21 0.000249515
20 *952:B1_N *127:10 1.24376e-05
21 *35:13 *803:B 0.000180941
22 *35:13 *127:21 6.07929e-05
23 *124:23 *127:21 6.25829e-05
*RES
1 *798:Y *127:10 26.9979 
2 *127:10 *802:B 23 
3 *127:10 *127:21 19.9921 
4 *127:21 *951:A 45.6643 
5 *127:21 *803:B 44.1314 
*END

*D_NET *128 0.00262122
*CONN
*I *803:C I *D sky130_fd_sc_hd__or3_1
*I *950:B1_N I *D sky130_fd_sc_hd__a21bo_1
*I *801:A I *D sky130_fd_sc_hd__nand2_1
*I *799:Y O *D sky130_fd_sc_hd__nand2_1
*CAP
1 *803:C 0.000119952
2 *950:B1_N 0.000219616
3 *801:A 0
4 *799:Y 0.000105193
5 *128:23 0.000558195
6 *128:10 0.000218626
7 *128:8 0.000105193
8 *803:C *165:21 4.21594e-06
9 *803:C *256:8 0.00030457
10 *803:C *301:10 0
11 *950:B1_N *950:A2 2.02872e-05
12 *950:B1_N *129:33 2.80852e-05
13 *950:B1_N *130:10 4.08664e-05
14 *950:B1_N *130:18 9.41704e-05
15 *950:B1_N *256:8 6.16531e-05
16 *128:8 *129:33 0
17 *128:8 *332:56 0
18 *128:8 *367:10 4.334e-05
19 *128:23 *950:A2 1.24376e-05
20 *128:23 *130:10 0.000157768
21 *128:23 *256:12 5.3304e-05
22 *128:23 *278:14 1.40958e-05
23 *803:A *803:C 0.000345564
24 *803:A *950:B1_N 0.000114083
*RES
1 *799:Y *128:8 39.9057 
2 *128:8 *128:10 15 
3 *128:10 *801:A 23 
4 *128:10 *128:23 19.35 
5 *128:23 *950:B1_N 41.6043 
6 *128:23 *803:C 42.7229 
*END

*D_NET *129 0.00180533
*CONN
*I *801:B I *D sky130_fd_sc_hd__nand2_1
*I *950:A1 I *D sky130_fd_sc_hd__a21bo_1
*I *800:X O *D sky130_fd_sc_hd__or2_1
*CAP
1 *801:B 0
2 *950:A1 0
3 *800:X 0
4 *129:33 0.000236648
5 *129:12 0.000350966
6 *129:4 0.000587615
7 *129:12 *131:10 4.58924e-05
8 *129:12 *133:12 7.28526e-05
9 *129:12 *368:142 0.00030805
10 *129:33 *130:10 5.67058e-05
11 *129:33 *278:14 5.67058e-05
12 *129:33 *368:142 1.32939e-05
13 *803:A *129:33 4.85126e-05
14 *950:B1_N *129:33 2.80852e-05
15 *128:8 *129:33 0
*RES
1 *800:X *129:4 23 
2 *129:4 *129:12 35.8621 
3 *129:12 *950:A1 23 
4 *129:4 *129:33 34.5364 
5 *129:33 *801:B 23 
*END

*D_NET *130 0.00144095
*CONN
*I *949:A I *D sky130_fd_sc_hd__xnor2_1
*I *802:C I *D sky130_fd_sc_hd__or3_1
*I *801:Y O *D sky130_fd_sc_hd__nand2_1
*CAP
1 *949:A 0
2 *802:C 0
3 *801:Y 0.000129316
4 *130:18 0.000120751
5 *130:10 0.000250066
6 *130:10 *950:A2 5.3304e-05
7 *130:10 *256:12 4.08664e-05
8 *130:10 *278:14 2.4754e-05
9 *130:18 *950:A2 9.41704e-05
10 *950:B1_N *130:10 4.08664e-05
11 *950:B1_N *130:18 9.41704e-05
12 *35:13 *130:18 0.000190227
13 *127:21 *130:18 0.000187986
14 *128:23 *130:10 0.000157768
15 *129:33 *130:10 5.67058e-05
*RES
1 *801:Y *130:10 26.6457 
2 *130:10 *130:18 33.7079 
3 *130:18 *802:C 23 
4 *130:10 *949:A 23 
*END

*D_NET *131 0.00426057
*CONN
*I *837:B1 I *D sky130_fd_sc_hd__a211oi_1
*I *838:A1 I *D sky130_fd_sc_hd__o211ai_1
*I *802:X O *D sky130_fd_sc_hd__or3_1
*CAP
1 *837:B1 0
2 *838:A1 0
3 *802:X 0.000445139
4 *131:27 0.00076058
5 *131:12 0.00076058
6 *131:10 0.000445139
7 *131:10 *133:12 0
8 *131:27 *838:A2 9.5877e-05
9 *131:27 *838:C1 5.3304e-05
10 *131:27 *947:A 2.93747e-05
11 *131:27 *992:CLK 1.76557e-05
12 *131:27 *992:D 2.93845e-05
13 *131:27 *165:6 3.59635e-05
14 *131:27 *165:21 0
15 *131:27 *166:12 0.000478416
16 *131:27 *166:16 1.38758e-05
17 *803:B *131:27 9.26098e-05
18 *35:13 *131:10 0.00069178
19 *35:13 *131:27 0.000166522
20 *125:12 *131:10 0
21 *127:10 *131:10 9.84794e-05
22 *129:12 *131:10 4.58924e-05
*RES
1 *802:X *131:10 48.3986 
2 *131:10 *131:12 15 
3 *131:12 *838:A1 23 
4 *131:12 *131:27 42.5529 
5 *131:27 *837:B1 23 
*END

*D_NET *132 0.000417251
*CONN
*I *838:C1 I *D sky130_fd_sc_hd__o211ai_1
*I *803:X O *D sky130_fd_sc_hd__or3_1
*CAP
1 *838:C1 0.00014202
2 *803:X 0.00014202
3 *838:C1 *838:A2 2.32004e-05
4 *838:C1 *133:12 5.67058e-05
5 *838:C1 *134:18 0
6 *131:27 *838:C1 5.3304e-05
*RES
1 *803:X *838:C1 49.0243 
*END

*D_NET *133 0.00201015
*CONN
*I *838:B1 I *D sky130_fd_sc_hd__o211ai_1
*I *804:X O *D sky130_fd_sc_hd__o21a_1
*CAP
1 *838:B1 0
2 *804:X 0
3 *133:12 0.000523125
4 *133:6 0.000523125
5 *133:12 *167:6 6.17437e-06
6 *133:12 *302:109 4.06408e-05
7 *133:12 *302:124 0.00043275
8 *838:C1 *133:12 5.67058e-05
9 *125:12 *133:12 0.000354778
10 *129:12 *133:12 7.28526e-05
11 *131:10 *133:12 0
*RES
1 *804:X *133:6 38 
2 *133:6 *133:12 29.2721 
3 *133:12 *838:B1 23 
*END

*D_NET *134 0.00319056
*CONN
*I *807:A I *D sky130_fd_sc_hd__nand2_1
*I *948:A I *D sky130_fd_sc_hd__nand2_1
*I *838:A2 I *D sky130_fd_sc_hd__o211ai_1
*I *805:Y O *D sky130_fd_sc_hd__nand2_1
*CAP
1 *807:A 0
2 *948:A 0
3 *838:A2 0.00027795
4 *805:Y 0.000188484
5 *134:18 0.000894403
6 *134:10 0.000804937
7 *134:10 *806:A 4.66047e-05
8 *134:10 *806:B 5.50049e-05
9 *134:10 *135:8 6.32792e-05
10 *134:10 *303:21 0
11 *134:10 *303:60 0
12 *134:10 *330:18 2.54046e-05
13 *134:18 *135:8 6.07611e-06
14 *134:18 *136:20 5.3304e-05
15 *134:18 *161:10 0.000438462
16 *134:18 *255:10 0.000148678
17 *134:18 *303:21 0
18 *134:18 *369:97 6.88922e-05
19 *838:C1 *838:A2 2.32004e-05
20 *838:C1 *134:18 0
21 *131:27 *838:A2 9.5877e-05
*RES
1 *805:Y *134:10 41.48 
2 *134:10 *134:18 28.1329 
3 *134:18 *838:A2 27.4743 
4 *134:18 *948:A 23 
5 *134:10 *807:A 38 
*END

*D_NET *135 0.000325094
*CONN
*I *807:B I *D sky130_fd_sc_hd__nand2_1
*I *806:X O *D sky130_fd_sc_hd__or2_1
*CAP
1 *807:B 0
2 *806:X 5.73903e-05
3 *135:8 5.73903e-05
4 *135:8 *369:97 0.000140958
5 *134:10 *135:8 6.32792e-05
6 *134:18 *135:8 6.07611e-06
*RES
1 *806:X *135:8 39.9057 
2 *135:8 *807:B 38 
*END

*D_NET *136 0.00174285
*CONN
*I *837:C1 I *D sky130_fd_sc_hd__a211oi_1
*I *836:B1 I *D sky130_fd_sc_hd__a21o_1
*I *946:A I *D sky130_fd_sc_hd__nand3_1
*I *807:Y O *D sky130_fd_sc_hd__nand2_1
*CAP
1 *837:C1 0
2 *836:B1 0
3 *946:A 0
4 *807:Y 6.84668e-05
5 *136:20 0.00019213
6 *136:12 0.00033514
7 *136:6 0.000211477
8 *136:6 *303:27 7.73389e-05
9 *136:12 *837:A2 5.3304e-05
10 *136:12 *165:21 0
11 *136:12 *166:12 0.000328321
12 *136:12 *303:27 0.000185176
13 *136:20 *165:21 0
14 *136:20 *166:12 0
15 *136:20 *255:10 0
16 *136:20 *301:10 0.000238194
17 *134:18 *136:20 5.3304e-05
*RES
1 *807:Y *136:6 24.5743 
2 *136:6 *136:12 4.59857 
3 *136:12 *136:20 33.9357 
4 *136:20 *946:A 23 
5 *136:12 *836:B1 23 
6 *136:6 *837:C1 23 
*END

*D_NET *137 0.00314081
*CONN
*I *816:A I *D sky130_fd_sc_hd__nor3_2
*I *966:A1 I *D sky130_fd_sc_hd__o21a_1
*I *968:A I *D sky130_fd_sc_hd__nor2_1
*I *817:B1 I *D sky130_fd_sc_hd__a21o_1
*I *808:X O *D sky130_fd_sc_hd__and2_1
*CAP
1 *816:A 0
2 *966:A1 2.34823e-05
3 *968:A 0
4 *817:B1 0.000239628
5 *808:X 0.000219041
6 *137:24 0.000514746
7 *137:18 0.000633924
8 *137:10 0.000554365
9 *817:B1 *832:B1 1.83564e-05
10 *817:B1 *145:21 0.0001958
11 *817:B1 *303:21 0
12 *817:B1 *324:24 7.56417e-05
13 *817:B1 *366:10 0
14 *966:A1 *966:A2 0
15 *966:A1 *144:8 0
16 *137:10 *138:10 6.07929e-05
17 *137:10 *142:10 0
18 *137:10 *357:8 5.41288e-05
19 *137:10 *357:15 6.17437e-06
20 *137:10 *357:25 1.97329e-05
21 *137:18 *966:B1 6.33627e-05
22 *137:18 *138:10 6.07611e-06
23 *137:18 *142:10 0
24 *137:18 *144:8 0.000185428
25 *137:18 *145:19 0
26 *137:24 *966:A2 5.50106e-05
27 *137:24 *966:B1 2.24411e-05
28 *137:24 *145:19 0.000186605
29 *137:24 *145:21 6.07611e-06
30 *137:24 *366:10 0
31 *137:24 *366:34 0
32 *71:8 *137:10 0
*RES
1 *808:X *137:10 42.4121 
2 *137:10 *137:18 20.655 
3 *137:18 *137:24 21.1729 
4 *137:24 *817:B1 43.7793 
5 *137:24 *968:A 38 
6 *137:18 *966:A1 23.4971 
7 *137:10 *816:A 38 
*END

*D_NET *138 0.00214873
*CONN
*I *966:A2 I *D sky130_fd_sc_hd__o21a_1
*I *816:B I *D sky130_fd_sc_hd__nor3_2
*I *809:Y O *D sky130_fd_sc_hd__nor2_1
*CAP
1 *966:A2 0.000211913
2 *816:B 0
3 *809:Y 0.000332868
4 *138:12 0.000211913
5 *138:10 0.000332868
6 *966:A2 *966:B1 0.000425179
7 *966:A2 *967:A 0.00020568
8 *966:A2 *967:B 0
9 *966:A2 *144:8 3.53115e-05
10 *966:A2 *145:6 0.000129522
11 *138:10 *808:A 1.76557e-05
12 *138:10 *357:8 5.12254e-05
13 *138:10 *357:15 7.27182e-05
14 *966:A1 *966:A2 0
15 *137:10 *138:10 6.07929e-05
16 *137:18 *138:10 6.07611e-06
17 *137:24 *966:A2 5.50106e-05
*RES
1 *809:Y *138:10 42.9093 
2 *138:10 *138:12 15 
3 *138:12 *816:B 23 
4 *138:12 *966:A2 30.83 
*END

*D_NET *139 0.000797893
*CONN
*I *811:A I *D sky130_fd_sc_hd__inv_2
*I *815:B1 I *D sky130_fd_sc_hd__o21a_1
*I *810:Y O *D sky130_fd_sc_hd__nand2_1
*CAP
1 *811:A 0
2 *815:B1 5.93984e-05
3 *810:Y 6.17645e-05
4 *139:10 5.93984e-05
5 *139:8 6.17645e-05
6 *815:B1 *965:B 0.000141954
7 *815:B1 *141:6 5.50106e-05
8 *815:B1 *141:14 0.000139346
9 *139:8 *810:A 6.57551e-05
10 *139:8 *815:A2 3.47781e-05
11 *139:8 *143:10 0.000114092
12 *139:8 *309:10 4.6318e-06
*RES
1 *810:Y *139:8 39.9057 
2 *139:8 *139:10 15 
3 *139:10 *815:B1 25.0507 
4 *139:10 *811:A 23 
*END

*D_NET *140 0.000921815
*CONN
*I *813:A I *D sky130_fd_sc_hd__nor2_1
*I *811:Y O *D sky130_fd_sc_hd__inv_2
*CAP
1 *813:A 0.000117064
2 *811:Y 0.000177133
3 *140:10 0.000294197
4 *813:A *309:10 2.93747e-05
5 *813:A *366:34 0.000126847
6 *140:10 *141:6 4.34973e-05
7 *140:10 *141:14 6.17437e-06
8 *140:10 *309:10 3.35885e-06
9 *1027:A *140:10 0.000124169
*RES
1 *811:Y *140:10 41.0036 
2 *140:10 *813:A 41.0243 
*END

*D_NET *141 0.00140015
*CONN
*I *815:A1 I *D sky130_fd_sc_hd__o21a_1
*I *813:B I *D sky130_fd_sc_hd__nor2_1
*I *812:Y O *D sky130_fd_sc_hd__nor2_1
*CAP
1 *815:A1 0
2 *813:B 0
3 *812:Y 0.000116483
4 *141:14 0.0002653
5 *141:6 0.000381783
6 *141:6 *812:A 5.50106e-05
7 *141:14 *965:B 9.61128e-05
8 *141:14 *142:10 0.000138727
9 *141:14 *144:8 9.84851e-05
10 *141:14 *270:8 0
11 *141:14 *309:10 0
12 *141:14 *368:173 4.21594e-06
13 *815:B1 *141:6 5.50106e-05
14 *815:B1 *141:14 0.000139346
15 *1027:A *141:14 0
16 *140:10 *141:6 4.34973e-05
17 *140:10 *141:14 6.17437e-06
*RES
1 *812:Y *141:6 25.5271 
2 *141:6 *141:14 36.4421 
3 *141:14 *813:B 23 
4 *141:6 *815:A1 23 
*END

*D_NET *142 0.000496369
*CONN
*I *965:A I *D sky130_fd_sc_hd__xnor2_1
*I *813:Y O *D sky130_fd_sc_hd__nor2_1
*CAP
1 *965:A 0
2 *813:Y 0.000156201
3 *142:10 0.000156201
4 *142:10 *815:A2 0
5 *142:10 *270:8 2.79004e-05
6 *142:10 *366:34 1.73399e-05
7 *137:10 *142:10 0
8 *137:18 *142:10 0
9 *141:14 *142:10 0.000138727
*RES
1 *813:Y *142:10 40.8793 
2 *142:10 *965:A 38 
*END

*D_NET *143 0.00270342
*CONN
*I *971:A I *D sky130_fd_sc_hd__and2_1
*I *965:B I *D sky130_fd_sc_hd__xnor2_1
*I *815:A2 I *D sky130_fd_sc_hd__o21a_1
*I *814:Y O *D sky130_fd_sc_hd__nand2_1
*CAP
1 *971:A 2.43163e-05
2 *965:B 0.000250736
3 *815:A2 0.000102271
4 *814:Y 0.000155146
5 *143:10 0.000623648
6 *143:8 0.000450103
7 *815:A2 *309:10 1.08015e-05
8 *965:B *144:8 2.79543e-05
9 *971:A *970:A 1.40958e-05
10 *971:A *971:B 5.67058e-05
11 *971:A *357:25 9.84794e-05
12 *143:8 *970:A 0.000302339
13 *143:8 *970:B 0.00012837
14 *143:8 *333:25 3.72639e-05
15 *143:10 *810:A 3.42537e-05
16 acc[2] *143:8 0
17 *815:B1 *965:B 0.000141954
18 *139:8 *815:A2 3.47781e-05
19 *139:8 *143:10 0.000114092
20 *141:14 *965:B 9.61128e-05
21 *142:10 *815:A2 0
*RES
1 *814:Y *143:8 43.075 
2 *143:8 *143:10 5.075 
3 *143:10 *815:A2 39.9679 
4 *143:10 *965:B 43.2821 
5 *143:8 *971:A 39.0979 
*END

*D_NET *144 0.00174523
*CONN
*I *966:B1 I *D sky130_fd_sc_hd__o21a_1
*I *816:C I *D sky130_fd_sc_hd__nor3_2
*I *815:X O *D sky130_fd_sc_hd__o21a_1
*CAP
1 *966:B1 8.19945e-05
2 *816:C 0
3 *815:X 0.000361541
4 *144:8 0.000443535
5 *965:B *144:8 2.79543e-05
6 *966:A1 *144:8 0
7 *966:A2 *966:B1 0.000425179
8 *966:A2 *144:8 3.53115e-05
9 *137:18 *966:B1 6.33627e-05
10 *137:18 *144:8 0.000185428
11 *137:24 *966:B1 2.24411e-05
12 *141:14 *144:8 9.84851e-05
*RES
1 *815:X *144:8 30.3121 
2 *144:8 *816:C 23 
3 *144:8 *966:B1 27.5779 
*END

*D_NET *145 0.00360832
*CONN
*I *968:B I *D sky130_fd_sc_hd__nor2_1
*I *819:B1 I *D sky130_fd_sc_hd__o22ai_1
*I *832:B1 I *D sky130_fd_sc_hd__o221ai_4
*I *967:A I *D sky130_fd_sc_hd__nor2_1
*I *816:Y O *D sky130_fd_sc_hd__nor3_2
*CAP
1 *968:B 0
2 *819:B1 2.01521e-05
3 *832:B1 0.000242792
4 *967:A 0.00021685
5 *816:Y 9.35888e-05
6 *145:21 0.000511317
7 *145:19 0.000622239
8 *145:6 0.000684306
9 *819:B1 *324:16 9.84851e-05
10 *819:B1 *330:12 9.84851e-05
11 *832:B1 *831:C 5.70419e-05
12 *832:B1 *832:A2 0
13 *832:B1 *146:12 0.000192087
14 *832:B1 *148:8 0
15 *832:B1 *303:21 0
16 *832:B1 *360:38 0
17 *967:A *967:B 2.8936e-05
18 *145:19 *147:10 0
19 *145:21 *818:B 0
20 *145:21 *147:10 0
21 *817:B1 *832:B1 1.83564e-05
22 *817:B1 *145:21 0.0001958
23 *966:A2 *967:A 0.00020568
24 *966:A2 *145:6 0.000129522
25 *137:18 *145:19 0
26 *137:24 *145:19 0.000186605
27 *137:24 *145:21 6.07611e-06
*RES
1 *816:Y *145:6 24.5743 
2 *145:6 *967:A 26.8529 
3 *145:6 *145:19 21.4836 
4 *145:19 *145:21 5.42714 
5 *145:21 *832:B1 42.9093 
6 *145:21 *819:B1 39.0979 
7 *145:19 *968:B 38 
*END

*D_NET *146 0.00104419
*CONN
*I *819:B2 I *D sky130_fd_sc_hd__o22ai_1
*I *832:B2 I *D sky130_fd_sc_hd__o221ai_4
*I *817:X O *D sky130_fd_sc_hd__a21o_1
*CAP
1 *819:B2 2.77807e-05
2 *832:B2 0
3 *817:X 0
4 *146:12 0.000165752
5 *146:4 0.000193533
6 *819:B2 *817:A2 0.000172996
7 *819:B2 *324:16 0.000185434
8 *146:12 *817:A2 5.3304e-05
9 *146:12 *954:A 0
10 *146:12 *303:21 0
11 *146:12 *324:16 5.3304e-05
12 *832:B1 *146:12 0.000192087
*RES
1 *817:X *146:4 23 
2 *146:4 *146:12 33.5836 
3 *146:12 *832:B2 23 
4 *146:4 *819:B2 25.0507 
*END

*D_NET *147 0.000539272
*CONN
*I *969:A I *D sky130_fd_sc_hd__xnor2_1
*I *818:X O *D sky130_fd_sc_hd__xor2_1
*CAP
1 *969:A 0
2 *818:X 0.000216031
3 *147:10 0.000216031
4 *147:10 *818:B 8.1796e-05
5 *147:10 *272:8 2.5415e-05
6 *147:10 *303:75 0
7 *145:19 *147:10 0
8 *145:21 *147:10 0
*RES
1 *818:X *147:10 41.8321 
2 *147:10 *969:A 38 
*END

*D_NET *148 0.00124726
*CONN
*I *955:A I *D sky130_fd_sc_hd__nand2_1
*I *954:A I *D sky130_fd_sc_hd__or2_1
*I *819:Y O *D sky130_fd_sc_hd__o22ai_1
*CAP
1 *955:A 7.78781e-05
2 *954:A 0.000170914
3 *819:Y 9.4026e-05
4 *148:8 0.000342818
5 *954:A *159:23 0
6 *954:A *260:10 0
7 *954:A *324:45 1.19692e-05
8 *955:A *831:C 0.000159061
9 *955:A *832:A2 5.50106e-05
10 *955:A *360:25 0.00021477
11 *148:8 *324:45 6.7177e-06
12 *148:8 *360:38 0.000114092
13 *832:B1 *148:8 0
14 *146:12 *954:A 0
*RES
1 *819:Y *148:8 39.9057 
2 *148:8 *954:A 40.9621 
3 *148:8 *955:A 41.5007 
*END

*D_NET *149 0.00169728
*CONN
*I *824:A I *D sky130_fd_sc_hd__or3_1
*I *960:B1 I *D sky130_fd_sc_hd__a21oi_1
*I *961:A I *D sky130_fd_sc_hd__and3_1
*I *820:Y O *D sky130_fd_sc_hd__xnor2_1
*CAP
1 *824:A 3.17998e-05
2 *960:B1 0.000113065
3 *961:A 0
4 *820:Y 0.000227902
5 *149:19 0.000156606
6 *149:12 1.17411e-05
7 *149:10 0.000227902
8 *824:A *960:A2 0.000141052
9 *824:A *961:C 4.04303e-05
10 *824:A *369:39 5.50106e-05
11 *960:B1 *960:A1 6.70895e-05
12 *960:B1 *960:A2 0.000196166
13 *960:B1 *961:C 5.84338e-05
14 *960:B1 *263:10 5.37348e-06
15 *960:B1 *264:12 0.000184527
16 *149:10 *963:A2 0.000117401
17 *149:10 *963:B1 5.67058e-05
18 *149:10 *151:16 0
19 *149:10 *162:8 0
20 *149:10 *369:35 6.07611e-06
*RES
1 *820:Y *149:10 41.6043 
2 *149:10 *149:12 15 
3 *149:12 *961:A 23 
4 *149:12 *149:19 0.497143 
5 *149:19 *960:B1 27.5986 
6 *149:19 *824:A 24.5743 
*END

*D_NET *150 0.00281514
*CONN
*I *824:B I *D sky130_fd_sc_hd__or3_1
*I *823:A I *D sky130_fd_sc_hd__nor2_1
*I *833:B1 I *D sky130_fd_sc_hd__a21oi_1
*I *821:X O *D sky130_fd_sc_hd__and2_1
*CAP
1 *824:B 0.000163979
2 *823:A 2.59704e-05
3 *833:B1 0
4 *821:X 0
5 *150:22 0.000304123
6 *150:12 0.00049609
7 *150:6 0.000329976
8 *823:A *822:A 0
9 *823:A *151:8 1.4345e-05
10 *823:A *151:16 5.90675e-06
11 *824:B *961:C 7.70737e-05
12 *824:B *154:8 9.41704e-05
13 *824:B *156:10 0
14 *824:B *261:10 5.94125e-05
15 *824:B *365:24 3.20914e-05
16 *150:12 *961:C 1.01436e-05
17 *150:12 *151:16 0.000173716
18 *150:12 *152:8 0.000169674
19 *150:12 *365:24 7.80457e-05
20 *150:22 *1085:A 5.50106e-05
21 *150:22 *151:16 1.94812e-05
22 *150:22 *327:8 0.00014196
23 *150:22 *327:22 5.67058e-05
24 *150:22 *327:30 4.334e-05
25 *64:11 *823:A 2.02517e-05
26 *64:11 *150:22 0.000443679
*RES
1 *821:X *150:6 38 
2 *150:6 *150:12 19.9921 
3 *150:12 *150:22 37.685 
4 *150:22 *833:B1 23 
5 *150:12 *823:A 23.8493 
6 *150:6 *824:B 41.0036 
*END

*D_NET *151 0.00283026
*CONN
*I *823:B I *D sky130_fd_sc_hd__nor2_1
*I *834:B2 I *D sky130_fd_sc_hd__o22a_1
*I *824:C I *D sky130_fd_sc_hd__or3_1
*I *822:Y O *D sky130_fd_sc_hd__nor2_1
*CAP
1 *823:B 0
2 *834:B2 0.000242058
3 *824:C 0
4 *822:Y 8.67448e-05
5 *151:16 0.000685692
6 *151:8 0.000530379
7 *834:B2 *834:A1 9.84794e-05
8 *834:B2 *961:C 3.70094e-05
9 *834:B2 *261:10 0.000178773
10 *834:B2 *368:169 0.000252144
11 *834:B2 *369:35 0.000323856
12 *151:8 *822:A 0
13 *151:8 *329:14 7.53384e-06
14 *151:8 *365:16 2.77477e-05
15 *151:8 *365:24 5.50106e-05
16 *151:16 *961:C 6.16531e-05
17 *151:16 *963:A1 0
18 *151:16 *162:8 0
19 *151:16 *327:22 0
20 *151:16 *365:16 2.02517e-05
21 *151:16 *365:24 0
22 *151:16 *369:35 9.48381e-06
23 *823:A *151:8 1.4345e-05
24 *823:A *151:16 5.90675e-06
25 *1047:A *151:16 0
26 *149:10 *151:16 0
27 *150:12 *151:16 0.000173716
28 *150:22 *151:16 1.94812e-05
*RES
1 *822:Y *151:8 25.0714 
2 *151:8 *151:16 23.2029 
3 *151:16 *824:C 38 
4 *151:16 *834:B2 45.8921 
5 *151:8 *823:B 23 
*END

*D_NET *152 0.000808243
*CONN
*I *964:A I *D sky130_fd_sc_hd__xnor2_1
*I *823:Y O *D sky130_fd_sc_hd__nor2_1
*CAP
1 *964:A 0.000143822
2 *823:Y 8.59867e-05
3 *152:8 0.000229809
4 *964:A *987:D 1.24376e-05
5 *152:8 *365:24 0.000166513
6 *150:12 *152:8 0.000169674
*RES
1 *823:Y *152:8 40.2579 
2 *152:8 *964:A 40.0507 
*END

*D_NET *153 0.00409108
*CONN
*I *831:A I *D sky130_fd_sc_hd__nor3_1
*I *835:A1 I *D sky130_fd_sc_hd__o31a_1
*I *834:A1 I *D sky130_fd_sc_hd__o22a_1
*I *824:X O *D sky130_fd_sc_hd__or3_1
*CAP
1 *831:A 0.000409856
2 *835:A1 0.000265278
3 *834:A1 2.01797e-05
4 *824:X 9.93074e-05
5 *153:19 0.00103095
6 *153:8 0.000475305
7 *831:A *831:C 0.000228608
8 *831:A *989:CLK 2.72055e-05
9 *831:A *161:10 4.02446e-05
10 *831:A *303:21 2.29192e-05
11 *834:A1 *368:169 9.84794e-05
12 *835:A1 *835:A2 2.18506e-05
13 *835:A1 *835:A3 0.000653238
14 *835:A1 *835:B1 0.000269775
15 *835:A1 *1014:A 6.68919e-05
16 *835:A1 *164:10 1.24376e-05
17 *835:A1 *303:8 5.12328e-05
18 *153:8 *154:27 2.79004e-05
19 *153:8 *162:8 0
20 *153:8 *369:35 0.000114083
21 *153:19 *989:CLK 5.68527e-05
22 *153:19 *157:29 0
23 *153:19 *163:8 0
24 *153:19 *261:10 0
25 *834:B2 *834:A1 9.84794e-05
*RES
1 *824:X *153:8 40.2579 
2 *153:8 *834:A1 39.0979 
3 *153:8 *153:19 5.42714 
4 *153:19 *835:A1 46.7414 
5 *153:19 *831:A 44.7114 
*END

*D_NET *154 0.00320458
*CONN
*I *827:A I *D sky130_fd_sc_hd__nand2_1
*I *961:B I *D sky130_fd_sc_hd__and3_1
*I *834:A2 I *D sky130_fd_sc_hd__o22a_1
*I *960:A1 I *D sky130_fd_sc_hd__a21oi_1
*I *825:Y O *D sky130_fd_sc_hd__nand2_1
*CAP
1 *827:A 5.36792e-05
2 *961:B 0
3 *834:A2 0
4 *960:A1 0.000152898
5 *825:Y 0
6 *154:27 5.73746e-05
7 *154:21 7.74324e-05
8 *154:8 0.000913069
9 *154:4 0.000793793
10 *827:A *825:B 4.37033e-05
11 *827:A *827:B 2.02517e-05
12 *827:A *156:8 1.03955e-05
13 *827:A *369:84 6.17437e-06
14 *960:A1 *960:A2 0.000162211
15 *960:A1 *264:12 0
16 *960:A1 *369:27 0
17 *154:8 *960:A2 0.000340884
18 *154:8 *369:39 0.00028866
19 *154:8 *369:48 3.71251e-05
20 *154:8 *369:84 2.98648e-05
21 *154:27 *162:8 2.79004e-05
22 *824:B *154:8 9.41704e-05
23 *960:B1 *960:A1 6.70895e-05
24 *153:8 *154:27 2.79004e-05
*RES
1 *825:Y *154:4 23 
2 *154:4 *154:8 14.935 
3 *154:8 *960:A1 26.9979 
4 *154:8 *154:21 0.497143 
5 *154:21 *154:27 31.2014 
6 *154:27 *834:A2 23 
7 *154:21 *961:B 23 
8 *154:4 *827:A 24.595 
*END

*D_NET *155 0.000770015
*CONN
*I *827:B I *D sky130_fd_sc_hd__nand2_1
*I *826:X O *D sky130_fd_sc_hd__or2_1
*CAP
1 *827:B 0.000203411
2 *826:X 7.86745e-05
3 *155:8 0.000282086
4 *827:B *825:B 4.37033e-05
5 *155:8 *345:14 0.000141888
6 *827:A *827:B 2.02517e-05
*RES
1 *826:X *155:8 39.9057 
2 *155:8 *827:B 41.5007 
*END

*D_NET *156 0.00629268
*CONN
*I *957:B1 I *D sky130_fd_sc_hd__a21o_1
*I *831:B I *D sky130_fd_sc_hd__nor3_1
*I *835:A2 I *D sky130_fd_sc_hd__o31a_1
*I *958:A I *D sky130_fd_sc_hd__nand3_1
*I *827:Y O *D sky130_fd_sc_hd__nand2_1
*CAP
1 *957:B1 0
2 *831:B 0.000230601
3 *835:A2 0.000367806
4 *958:A 0
5 *827:Y 0.000495
6 *156:35 0.00105314
7 *156:25 0.000724034
8 *156:10 0.000433987
9 *156:8 0.000659682
10 *831:B *989:CLK 7.03766e-05
11 *831:B *163:8 2.01531e-05
12 *831:B *303:21 5.97612e-05
13 *831:B *369:97 0
14 *835:A2 *835:A3 0.00044107
15 *156:8 *825:B 5.67058e-05
16 *156:8 *369:39 0.000487147
17 *156:8 *369:48 8.6949e-05
18 *156:8 *369:84 8.52481e-05
19 *156:10 *987:CLK 0.000296035
20 *156:10 *261:10 0
21 *156:10 *329:14 3.20914e-05
22 *156:25 *956:A 0.000140259
23 *156:25 *958:C 4.23714e-05
24 *156:25 *959:A 6.07078e-05
25 *156:25 *987:CLK 1.14452e-05
26 *156:25 *261:10 0
27 *156:25 *303:90 0.000158229
28 *156:35 *959:A 4.2573e-05
29 *156:35 *989:CLK 0.000114357
30 *156:35 *163:8 2.54046e-05
31 *156:35 *261:6 5.50049e-05
32 *156:35 *278:14 1.02949e-05
33 *824:B *156:10 0
34 *827:A *156:8 1.03955e-05
35 *835:A1 *835:A2 2.18506e-05
*RES
1 *827:Y *156:8 46.2443 
2 *156:8 *156:10 4.01857 
3 *156:10 *958:A 38 
4 *156:10 *156:25 20.7586 
5 *156:25 *156:35 22.9336 
6 *156:35 *835:A2 43.8829 
7 *156:35 *831:B 42.2879 
8 *156:25 *957:B1 23 
*END

*D_NET *157 0.00612815
*CONN
*I *830:A I *D sky130_fd_sc_hd__nand2_1
*I *957:A1 I *D sky130_fd_sc_hd__a21o_1
*I *958:B I *D sky130_fd_sc_hd__nand3_1
*I *835:A3 I *D sky130_fd_sc_hd__o31a_1
*I *828:Y O *D sky130_fd_sc_hd__nand2_1
*CAP
1 *830:A 0.000164219
2 *957:A1 0
3 *958:B 0.000191208
4 *835:A3 0.000374988
5 *828:Y 6.54012e-05
6 *157:29 0.000312941
7 *157:18 0.0013255
8 *157:8 0.0010584
9 *830:A *159:6 8.78363e-05
10 *830:A *362:8 9.47227e-05
11 *835:A3 *303:8 2.07355e-05
12 *835:A3 *303:84 0.000272377
13 *958:B *958:C 0.000138727
14 *958:B *261:10 4.58924e-05
15 *958:B *368:169 5.83407e-05
16 *157:8 *828:A 6.07611e-06
17 *157:8 *829:A 7.80251e-05
18 *157:8 *362:21 0.000166522
19 *157:18 *829:A 3.3123e-05
20 *157:18 *829:B 1.01436e-05
21 *157:18 *954:B 1.39956e-05
22 *157:18 *984:CLK 6.82611e-05
23 *157:18 *159:6 4.46485e-05
24 *157:18 *303:84 0.000169834
25 *157:18 *303:90 4.00259e-06
26 *157:18 *362:21 5.24393e-05
27 *157:29 *958:C 1.14452e-05
28 *157:29 *259:8 0.000157309
29 *157:29 *261:10 6.7177e-06
30 *157:29 *303:90 0
31 *835:A1 *835:A3 0.000653238
32 *835:A2 *835:A3 0.00044107
33 *153:19 *157:29 0
*RES
1 *828:Y *157:8 40.2579 
2 *157:8 *157:18 27.1179 
3 *157:18 *835:A3 34.1029 
4 *157:18 *157:29 17.61 
5 *157:29 *958:B 41.9771 
6 *157:29 *957:A1 38 
7 *157:8 *830:A 41.5007 
*END

*D_NET *158 0.000569241
*CONN
*I *830:B I *D sky130_fd_sc_hd__nand2_1
*I *829:X O *D sky130_fd_sc_hd__or2_1
*CAP
1 *830:B 0
2 *829:X 0.000246303
3 *158:10 0.000246303
4 *158:10 *345:14 7.66341e-05
*RES
1 *829:X *158:10 41.8321 
2 *158:10 *830:B 38 
*END

*D_NET *159 0.00417244
*CONN
*I *955:B I *D sky130_fd_sc_hd__nand2_1
*I *831:C I *D sky130_fd_sc_hd__nor3_1
*I *954:B I *D sky130_fd_sc_hd__or2_1
*I *830:Y O *D sky130_fd_sc_hd__nand2_1
*CAP
1 *955:B 0
2 *831:C 0.000572114
3 *954:B 0.00023562
4 *830:Y 0.000667838
5 *159:23 0.000722861
6 *159:6 0.0010542
7 *831:C *832:A2 1.57571e-05
8 *831:C *832:C1 3.93404e-05
9 *831:C *161:10 1.57925e-05
10 *831:C *260:10 9.84851e-05
11 *831:C *360:25 3.17516e-05
12 *954:B *984:CLK 0.000114248
13 *954:B *303:84 1.32314e-05
14 *159:23 *974:A 0
15 *159:23 *324:45 0
16 *830:A *159:6 8.78363e-05
17 *831:A *831:C 0.000228608
18 *832:B1 *831:C 5.70419e-05
19 *954:A *159:23 0
20 *955:A *831:C 0.000159061
21 *62:15 *831:C 0
22 *157:18 *954:B 1.39956e-05
23 *157:18 *159:6 4.46485e-05
*RES
1 *830:Y *159:6 31.2443 
2 *159:6 *954:B 26.9979 
3 *159:6 *159:23 31.9057 
4 *159:23 *831:C 35.5736 
5 *159:23 *955:B 23 
*END

*D_NET *160 0.00019109
*CONN
*I *832:C1 I *D sky130_fd_sc_hd__o221ai_4
*I *831:Y O *D sky130_fd_sc_hd__nor3_1
*CAP
1 *832:C1 4.67461e-05
2 *831:Y 4.67461e-05
3 *832:C1 *161:10 5.82576e-05
4 *831:C *832:C1 3.93404e-05
*RES
1 *831:Y *832:C1 47.6157 
*END

*D_NET *161 0.00257914
*CONN
*I *946:B I *D sky130_fd_sc_hd__nand3_1
*I *837:A1 I *D sky130_fd_sc_hd__a211oi_1
*I *836:A1 I *D sky130_fd_sc_hd__a21o_1
*I *832:Y O *D sky130_fd_sc_hd__o221ai_4
*CAP
1 *946:B 0
2 *837:A1 0.000134148
3 *836:A1 0
4 *832:Y 0.000393289
5 *161:14 0.000242602
6 *161:10 0.000501743
7 *837:A1 *164:23 1.14452e-05
8 *837:A1 *301:10 5.15096e-05
9 *837:A1 *303:27 0.000139357
10 *837:A1 *332:56 2.3529e-05
11 *161:10 *946:C 5.3304e-05
12 *161:14 *164:23 0.000240426
13 *161:14 *301:10 0.000235024
14 *831:A *161:10 4.02446e-05
15 *831:C *161:10 1.57925e-05
16 *832:C1 *161:10 5.82576e-05
17 *134:18 *161:10 0.000438462
*RES
1 *832:Y *161:10 31.6379 
2 *161:10 *161:14 18.3143 
3 *161:14 *836:A1 38 
4 *161:14 *837:A1 40.4236 
5 *161:10 *946:B 23 
*END

*D_NET *162 0.00109291
*CONN
*I *834:B1 I *D sky130_fd_sc_hd__o22a_1
*I *833:Y O *D sky130_fd_sc_hd__a21oi_1
*CAP
1 *834:B1 0
2 *833:Y 0.000501913
3 *162:8 0.000501913
4 *162:8 *963:A1 0
5 *162:8 *963:B1 0
6 *162:8 *163:8 6.07611e-06
7 *162:8 *263:10 0
8 *162:8 *327:22 0
9 *162:8 *327:30 5.51058e-05
10 *162:8 *332:56 0
11 *162:8 *369:27 0
12 *162:8 *369:35 0
13 *162:8 *369:97 0
14 *149:10 *162:8 0
15 *151:16 *162:8 0
16 *153:8 *162:8 0
17 *154:27 *162:8 2.79004e-05
*RES
1 *833:Y *162:8 45.8921 
2 *162:8 *834:B1 38 
*END

*D_NET *163 0.00129814
*CONN
*I *835:B1 I *D sky130_fd_sc_hd__o31a_1
*I *834:X O *D sky130_fd_sc_hd__o22a_1
*CAP
1 *835:B1 9.79219e-05
2 *834:X 0.000271657
3 *163:8 0.000369579
4 *835:B1 *1014:A 0.00010018
5 *163:8 *989:CLK 0
6 *163:8 *369:97 0.000137392
7 *831:B *163:8 2.01531e-05
8 *835:A1 *835:B1 0.000269775
9 *153:19 *163:8 0
10 *156:35 *163:8 2.54046e-05
11 *162:8 *163:8 6.07611e-06
*RES
1 *834:X *163:8 43.7793 
2 *163:8 *835:B1 41.0036 
*END

*D_NET *164 0.00175208
*CONN
*I *837:A2 I *D sky130_fd_sc_hd__a211oi_1
*I *836:A2 I *D sky130_fd_sc_hd__a21o_1
*I *946:C I *D sky130_fd_sc_hd__nand3_1
*I *835:X O *D sky130_fd_sc_hd__o31a_1
*CAP
1 *837:A2 2.32701e-05
2 *836:A2 0
3 *946:C 4.09526e-05
4 *835:X 0.000189695
5 *164:23 0.000137781
6 *164:10 0.000345159
7 *837:A2 *303:27 5.3304e-05
8 *164:10 *1013:A 5.37348e-06
9 *164:10 *1014:A 2.80394e-05
10 *164:10 *301:10 7.03869e-05
11 *164:10 *332:56 0.00021673
12 *164:23 *301:10 7.64851e-06
13 *164:23 *332:56 0.00026282
14 *835:A1 *164:10 1.24376e-05
15 *837:A1 *164:23 1.14452e-05
16 *136:12 *837:A2 5.3304e-05
17 *161:10 *946:C 5.3304e-05
18 *161:14 *164:23 0.000240426
*RES
1 *835:X *164:10 42.06 
2 *164:10 *946:C 38.6214 
3 *164:10 *164:23 18.6664 
4 *164:23 *836:A2 23 
5 *164:23 *837:A2 23.6214 
*END

*D_NET *165 0.00089725
*CONN
*I *948:B I *D sky130_fd_sc_hd__nand2_1
*I *947:A I *D sky130_fd_sc_hd__and2_1
*I *836:X O *D sky130_fd_sc_hd__a21o_1
*CAP
1 *948:B 0
2 *947:A 1.39194e-05
3 *836:X 6.11267e-05
4 *165:21 0.000152968
5 *165:6 0.000228014
6 *947:A *992:CLK 5.67058e-05
7 *165:6 *992:CLK 1.32314e-05
8 *165:6 *166:12 9.84851e-05
9 *165:6 *303:27 9.00923e-05
10 *165:21 *255:10 0.000113153
11 *803:B *165:21 0
12 *803:C *165:21 4.21594e-06
13 *35:13 *165:21 0
14 *131:27 *947:A 2.93747e-05
15 *131:27 *165:6 3.59635e-05
16 *131:27 *165:21 0
17 *136:12 *165:21 0
18 *136:20 *165:21 0
*RES
1 *836:X *165:6 25.0507 
2 *165:6 *947:A 23.6214 
3 *165:6 *165:21 33.1071 
4 *165:21 *948:B 23 
*END

*D_NET *166 0.00454406
*CONN
*I *839:A I *D sky130_fd_sc_hd__or2_1
*I *855:A1 I *D sky130_fd_sc_hd__o211a_1
*I *837:Y O *D sky130_fd_sc_hd__a211oi_1
*CAP
1 *839:A 1.17411e-05
2 *855:A1 0.000307246
3 *837:Y 0.000251915
4 *166:16 0.00119669
5 *166:12 0.00112962
6 *855:A1 *855:B1 2.46296e-05
7 *855:A1 *992:D 1.5769e-05
8 *855:A1 *167:18 2.70716e-05
9 *855:A1 *168:10 5.50049e-05
10 *855:A1 *336:8 1.0119e-05
11 *166:12 *255:10 6.38845e-05
12 *166:12 *277:8 1.01436e-05
13 *166:12 *301:10 0
14 *166:12 *303:27 2.80394e-05
15 *166:12 *303:42 2.24973e-05
16 *166:16 *992:CLK 4.79544e-05
17 *166:16 *992:D 0.000325858
18 *166:16 *303:27 9.67842e-05
19 *131:27 *166:12 0.000478416
20 *131:27 *166:16 1.38758e-05
21 *136:12 *166:12 0.000328321
22 *136:20 *166:12 0
23 *165:6 *166:12 9.84851e-05
*RES
1 *837:Y *166:12 45.9129 
2 *166:12 *166:16 28.0086 
3 *166:16 *855:A1 27.3293 
4 *166:16 *839:A 23.4971 
*END

*D_NET *167 0.00228787
*CONN
*I *839:B I *D sky130_fd_sc_hd__or2_1
*I *855:A2 I *D sky130_fd_sc_hd__o211a_1
*I *838:Y O *D sky130_fd_sc_hd__o211ai_1
*CAP
1 *839:B 0
2 *855:A2 0
3 *838:Y 0.00027612
4 *167:29 0.000135815
5 *167:18 0.000315191
6 *167:6 0.000727126
7 *167:6 *751:A 2.64616e-05
8 *167:18 *855:B1 2.3707e-05
9 *167:18 *168:14 4.6595e-05
10 *167:18 *183:21 0.000139352
11 *167:18 *332:39 0.000206359
12 *167:18 *336:10 0.000114092
13 *167:18 *336:38 8.68839e-05
14 *167:29 *168:10 5.93485e-05
15 *167:29 *368:116 0
16 *855:A1 *167:18 2.70716e-05
17 *81:10 *167:6 9.75779e-05
18 *133:12 *167:6 6.17437e-06
*RES
1 *838:Y *167:6 27.9093 
2 *167:6 *167:18 37.105 
3 *167:18 *855:A2 23 
4 *167:6 *167:29 32.61 
5 *167:29 *839:B 23 
*END

*D_NET *168 0.00254907
*CONN
*I *939:A I *D sky130_fd_sc_hd__xor2_1
*I *940:A1 I *D sky130_fd_sc_hd__a21bo_1
*I *839:X O *D sky130_fd_sc_hd__or2_1
*CAP
1 *939:A 0
2 *940:A1 0
3 *839:X 0.00017983
4 *168:24 0.000319421
5 *168:14 0.000410726
6 *168:10 0.000271135
7 *168:10 *992:D 2.64616e-05
8 *168:10 *183:21 3.82956e-05
9 *168:10 *281:8 0.000138718
10 *168:10 *336:38 0
11 *168:10 *368:116 0
12 *168:14 *852:B 4.17736e-05
13 *168:14 *183:21 0.000141052
14 *168:24 *852:B 9.82009e-05
15 *168:24 *855:B1 6.54152e-05
16 *168:24 *181:14 0.000140935
17 *168:24 *183:8 5.3304e-05
18 *168:24 *183:21 4.2573e-05
19 *168:24 *183:36 9.30926e-05
20 *168:24 *184:10 5.40241e-05
21 *168:24 *186:10 3.22879e-05
22 *168:24 *332:39 0.000240873
23 *855:A1 *168:10 5.50049e-05
24 *167:18 *168:14 4.6595e-05
25 *167:29 *168:10 5.93485e-05
*RES
1 *839:X *168:10 42.2879 
2 *168:10 *168:14 17.5271 
3 *168:14 *168:24 37.8921 
4 *168:24 *940:A1 23 
5 *168:14 *939:A 23 
*END

*D_NET *169 0.00294286
*CONN
*I *842:A I *D sky130_fd_sc_hd__nand2_1
*I *856:B2 I *D sky130_fd_sc_hd__o221ai_1
*I *942:B1_N I *D sky130_fd_sc_hd__a21bo_1
*I *840:Y O *D sky130_fd_sc_hd__nand2_1
*CAP
1 *842:A 7.1089e-05
2 *856:B2 0.000144558
3 *942:B1_N 0
4 *840:Y 4.04929e-05
5 *169:23 0.000215647
6 *169:21 0.000586968
7 *169:6 0.000627461
8 *842:A *851:B 9.03784e-05
9 *842:A *857:B1 4.32475e-05
10 *842:A *171:10 6.17437e-06
11 *856:B2 *851:B 0.000340163
12 *856:B2 *857:B1 0.000145926
13 *856:B2 *179:10 1.14452e-05
14 *856:B2 *253:8 0
15 *169:6 *841:A 1.73399e-05
16 *169:6 *350:6 4.04598e-06
17 *169:21 *841:A 4.24356e-05
18 *169:21 *842:B 1.14876e-05
19 *169:21 *857:B1 5.97612e-05
20 *169:21 *942:A1 0.000329407
21 *169:21 *171:10 1.29528e-05
22 *169:21 *302:32 0.000141879
*RES
1 *840:Y *169:6 23.6214 
2 *169:6 *942:B1_N 23 
3 *169:6 *169:21 38.8657 
4 *169:21 *169:23 15 
5 *169:23 *856:B2 42.7229 
6 *169:23 *842:A 39.8229 
*END

*D_NET *170 0.00106663
*CONN
*I *842:B I *D sky130_fd_sc_hd__nand2_1
*I *942:A1 I *D sky130_fd_sc_hd__a21bo_1
*I *841:X O *D sky130_fd_sc_hd__or2_1
*CAP
1 *842:B 3.80374e-05
2 *942:A1 0.00018317
3 *841:X 0
4 *170:4 0.000221207
5 *842:B *841:A 3.98523e-06
6 *842:B *171:10 5.50106e-05
7 *942:A1 *840:A 0
8 *942:A1 *840:B 0
9 *942:A1 *841:A 0.000139941
10 *942:A1 *171:10 5.50049e-05
11 *942:A1 *252:16 2.93747e-05
12 *169:21 *842:B 1.14876e-05
13 *169:21 *942:A1 0.000329407
*RES
1 *841:X *170:4 23 
2 *170:4 *942:A1 28.9036 
3 *170:4 *842:B 24.1186 
*END

*D_NET *171 0.00149451
*CONN
*I *941:A I *D sky130_fd_sc_hd__xnor2_1
*I *851:A I *D sky130_fd_sc_hd__nor2_1
*I *842:Y O *D sky130_fd_sc_hd__nand2_1
*CAP
1 *941:A 7.79132e-05
2 *851:A 9.70472e-05
3 *842:Y 0.000206597
4 *171:10 0.000381557
5 *851:A *282:8 5.67058e-05
6 *851:A *302:32 5.67058e-05
7 *941:A *851:B 0.000181125
8 *941:A *852:A 8.16912e-05
9 *941:A *282:8 5.3304e-05
10 *171:10 *857:B1 0.000136486
11 *171:10 *252:16 0
12 *171:10 *302:32 3.62323e-05
13 *842:A *171:10 6.17437e-06
14 *842:B *171:10 5.50106e-05
15 *942:A1 *171:10 5.50049e-05
16 *169:21 *171:10 1.29528e-05
*RES
1 *842:Y *171:10 41.48 
2 *171:10 *851:A 39.7193 
3 *171:10 *941:A 40.5271 
*END

*D_NET *172 0.000643143
*CONN
*I *944:A1 I *D sky130_fd_sc_hd__a21bo_1
*I *845:A I *D sky130_fd_sc_hd__nand2_1
*I *843:X O *D sky130_fd_sc_hd__or2_1
*CAP
1 *944:A1 0
2 *845:A 0
3 *843:X 0.000119501
4 *172:12 0.000150248
5 *172:6 0.000269748
6 *172:6 *856:A1 0.000103647
7 *172:12 *845:B 0
8 *172:12 *368:10 0
*RES
1 *843:X *172:6 25.5271 
2 *172:6 *172:12 32.61 
3 *172:12 *845:A 23 
4 *172:6 *944:A1 23 
*END

*D_NET *173 0.0025783
*CONN
*I *845:B I *D sky130_fd_sc_hd__nand2_1
*I *944:B1_N I *D sky130_fd_sc_hd__a21bo_1
*I *856:A1 I *D sky130_fd_sc_hd__o221ai_1
*I *844:Y O *D sky130_fd_sc_hd__nand2_1
*CAP
1 *845:B 0.000194916
2 *944:B1_N 0
3 *856:A1 0.000441724
4 *844:Y 0.000192593
5 *173:12 0.000441724
6 *173:10 0.000387509
7 *845:B *844:A 2.70366e-05
8 *845:B *361:8 8.51432e-05
9 *845:B *368:10 0
10 *856:A1 *843:B 4.00259e-06
11 *856:A1 *944:A2 0.000355822
12 *856:A1 *253:12 4.34745e-05
13 *856:A1 *254:10 0.000185434
14 *173:10 *844:A 8.98578e-05
15 *173:10 *254:10 2.5415e-05
16 *173:10 *368:10 0
17 *172:6 *856:A1 0.000103647
18 *172:12 *845:B 0
*RES
1 *844:Y *173:10 41.0036 
2 *173:10 *173:12 15 
3 *173:12 *856:A1 33.0671 
4 *173:12 *944:B1_N 23 
5 *173:10 *845:B 42.06 
*END

*D_NET *174 0.00215782
*CONN
*I *943:A I *D sky130_fd_sc_hd__xnor2_1
*I *850:A I *D sky130_fd_sc_hd__or2_1
*I *845:Y O *D sky130_fd_sc_hd__nand2_1
*CAP
1 *943:A 0
2 *850:A 0.00039911
3 *845:Y 0.000407421
4 *174:10 0.000806531
5 *850:A *945:A 0.000400204
6 *850:A *176:10 0
7 *850:A *253:8 1.83667e-05
8 *850:A *283:8 5.58171e-05
9 *850:A *368:10 0
10 *850:A *368:65 0
11 *174:10 *253:8 7.03663e-05
12 *174:10 *368:10 0
*RES
1 *845:Y *174:10 43.8621 
2 *174:10 *850:A 46.0993 
3 *174:10 *943:A 38 
*END

*D_NET *175 0.00109115
*CONN
*I *849:A I *D sky130_fd_sc_hd__nand2_1
*I *856:C1 I *D sky130_fd_sc_hd__o221ai_1
*I *846:Y O *D sky130_fd_sc_hd__nand2_1
*CAP
1 *849:A 0
2 *856:C1 0
3 *846:Y 4.26039e-05
4 *175:16 0.000336563
5 *175:8 0.000379167
6 *175:8 *847:A 0.000120893
7 *175:8 *847:B 4.07902e-05
8 *175:8 *372:37 1.3867e-05
9 *175:16 *177:10 1.01436e-05
10 *175:16 *185:8 7.51453e-06
11 *175:16 *302:57 0
12 *175:16 *302:78 0
13 *175:16 *332:35 0
14 *175:16 *340:30 1.14452e-05
15 *175:16 *368:65 0.000128159
*RES
1 *846:Y *175:8 24.595 
2 *175:8 *175:16 35.8414 
3 *175:16 *856:C1 23 
4 *175:8 *849:A 23 
*END

*D_NET *176 0.00073445
*CONN
*I *856:A2 I *D sky130_fd_sc_hd__o221ai_1
*I *847:Y O *D sky130_fd_sc_hd__nor2_1
*CAP
1 *856:A2 0
2 *847:Y 0.000233304
3 *176:10 0.000233304
4 *176:10 *332:35 0.000226977
5 *176:10 *368:65 4.08641e-05
6 *850:A *176:10 0
*RES
1 *847:Y *176:10 41.7286 
2 *176:10 *856:A2 38 
*END

*D_NET *177 0.00124769
*CONN
*I *849:B I *D sky130_fd_sc_hd__nand2_1
*I *848:X O *D sky130_fd_sc_hd__or2_1
*CAP
1 *849:B 1.87926e-05
2 *848:X 0.000299957
3 *177:10 0.00031875
4 *849:B *847:A 2.93335e-05
5 *849:B *847:B 5.56279e-05
6 *177:10 *753:A 0
7 *177:10 *848:B 4.78497e-05
8 *177:10 *340:12 0.000111852
9 *177:10 *340:30 3.61808e-05
10 *177:10 *372:37 0.000161804
11 acc[15] *177:10 0
12 *1054:A *177:10 5.50106e-05
13 *9:8 *177:10 0.000102389
14 *175:16 *177:10 1.01436e-05
*RES
1 *848:X *177:10 44.6493 
2 *177:10 *849:B 38.6214 
*END

*D_NET *178 0.00251563
*CONN
*I *850:B I *D sky130_fd_sc_hd__or2_1
*I *945:A I *D sky130_fd_sc_hd__xnor2_1
*I *849:Y O *D sky130_fd_sc_hd__nand2_1
*CAP
1 *850:B 0
2 *945:A 0.0003444
3 *849:Y 0.000190441
4 *178:8 0.000534841
5 *945:A *179:10 0.00014428
6 *945:A *284:10 0.000184402
7 *945:A *332:35 6.03813e-05
8 *945:A *368:10 7.8211e-05
9 *945:A *368:42 0.000343493
10 *178:8 *847:B 0.000227446
11 *178:8 *332:35 7.53303e-06
12 *850:A *945:A 0.000400204
*RES
1 *849:Y *178:8 26.3764 
2 *178:8 *945:A 34.2893 
3 *178:8 *850:B 23 
*END

*D_NET *179 0.00252948
*CONN
*I *851:B I *D sky130_fd_sc_hd__nor2_1
*I *856:B1 I *D sky130_fd_sc_hd__o221ai_1
*I *850:X O *D sky130_fd_sc_hd__or2_1
*CAP
1 *851:B 0.000504049
2 *856:B1 0
3 *850:X 0.000187018
4 *179:10 0.000691067
5 *851:B *857:B1 4.48731e-05
6 *851:B *282:8 2.32004e-05
7 *851:B *302:32 1.14154e-05
8 *179:10 *253:8 0
9 *179:10 *332:35 0.000139346
10 *179:10 *368:65 0.000161121
11 *842:A *851:B 9.03784e-05
12 *856:B2 *851:B 0.000340163
13 *856:B2 *179:10 1.14452e-05
14 *941:A *851:B 0.000181125
15 *945:A *179:10 0.00014428
*RES
1 *850:X *179:10 42.5364 
2 *179:10 *856:B1 38 
3 *179:10 *851:B 48.9164 
*END

*D_NET *180 0.00237755
*CONN
*I *855:B1 I *D sky130_fd_sc_hd__o211a_1
*I *857:A3 I *D sky130_fd_sc_hd__a31o_1
*I *851:Y O *D sky130_fd_sc_hd__nor2_1
*CAP
1 *855:B1 0.000561347
2 *857:A3 0
3 *851:Y 8.20009e-05
4 *180:14 0.000678789
5 *180:8 0.000199442
6 *855:B1 *183:36 0.000308113
7 *855:B1 *186:10 3.91058e-05
8 *855:B1 *252:6 7.03934e-05
9 *855:B1 *336:8 6.17437e-06
10 *180:8 *857:B1 5.21024e-05
11 *180:8 *252:16 0
12 *180:8 *302:38 0
13 *180:14 *252:6 1.24376e-05
14 *180:14 *252:16 0.000221997
15 *180:14 *339:8 3.18969e-05
16 *855:A1 *855:B1 2.46296e-05
17 *167:18 *855:B1 2.3707e-05
18 *168:24 *855:B1 6.54152e-05
*RES
1 *851:Y *180:8 39.5536 
2 *180:8 *180:14 18.0243 
3 *180:14 *857:A3 23 
4 *180:14 *855:B1 33.2536 
*END

*D_NET *181 0.000985991
*CONN
*I *854:A I *D sky130_fd_sc_hd__and2_1
*I *940:B1_N I *D sky130_fd_sc_hd__a21bo_1
*I *852:Y O *D sky130_fd_sc_hd__nand2_1
*CAP
1 *854:A 0
2 *940:B1_N 0
3 *852:Y 5.09554e-05
4 *181:14 0.000178294
5 *181:6 0.00022925
6 *181:6 *852:B 5.67058e-05
7 *181:14 *852:A 0
8 *181:14 *182:10 0.000188916
9 *181:14 *183:36 0.000140935
10 *181:14 *336:46 0
11 *168:24 *181:14 0.000140935
*RES
1 *852:Y *181:6 24.0979 
2 *181:6 *181:14 34.1843 
3 *181:14 *940:B1_N 23 
4 *181:6 *854:A 23 
*END

*D_NET *182 0.00102266
*CONN
*I *854:B I *D sky130_fd_sc_hd__and2_1
*I *853:X O *D sky130_fd_sc_hd__or2_1
*CAP
1 *854:B 2.42721e-05
2 *853:X 0.000293191
3 *182:10 0.000317463
4 *854:B *852:B 5.79559e-05
5 *182:10 *183:36 2.59343e-05
6 *182:10 *186:10 8.62876e-05
7 *182:10 *336:38 2.86398e-05
8 *182:10 *336:46 0
9 *181:14 *182:10 0.000188916
*RES
1 *853:X *182:10 43.6964 
2 *182:10 *854:B 38.6214 
*END

*D_NET *183 0.00222041
*CONN
*I *940:A2 I *D sky130_fd_sc_hd__a21bo_1
*I *855:C1 I *D sky130_fd_sc_hd__o211a_1
*I *939:B I *D sky130_fd_sc_hd__xor2_1
*I *854:X O *D sky130_fd_sc_hd__and2_1
*CAP
1 *940:A2 0
2 *855:C1 0
3 *939:B 0
4 *854:X 0
5 *183:36 0.000187233
6 *183:21 0.000160338
7 *183:8 0.000276247
8 *183:4 0.000303142
9 *183:8 *852:B 4.93812e-05
10 *183:21 *281:8 0.000140949
11 *183:21 *336:10 6.4393e-05
12 *183:21 *336:38 4.4382e-05
13 *183:36 *186:10 1.16915e-05
14 *855:B1 *183:36 0.000308113
15 *167:18 *183:21 0.000139352
16 *168:10 *183:21 3.82956e-05
17 *168:14 *183:21 0.000141052
18 *168:24 *183:8 5.3304e-05
19 *168:24 *183:21 4.2573e-05
20 *168:24 *183:36 9.30926e-05
21 *181:14 *183:36 0.000140935
22 *182:10 *183:36 2.59343e-05
*RES
1 *854:X *183:4 23 
2 *183:4 *183:8 2.42357 
3 *183:8 *939:B 23 
4 *183:8 *183:21 35.0129 
5 *183:21 *855:C1 23 
6 *183:4 *183:36 35.0543 
7 *183:36 *940:A2 23 
*END

*D_NET *184 0.00155241
*CONN
*I *858:A I *D sky130_fd_sc_hd__or2_1
*I *869:A1 I *D sky130_fd_sc_hd__o211ai_1
*I *855:X O *D sky130_fd_sc_hd__o211a_1
*CAP
1 *858:A 0
2 *869:A1 5.58574e-05
3 *855:X 0.000286409
4 *184:14 0.000105946
5 *184:10 0.000336497
6 *869:A1 *858:B 3.22051e-05
7 *869:A1 *187:10 2.69729e-05
8 *869:A1 *198:12 0.000146822
9 *184:10 *858:B 0
10 *184:10 *186:10 0
11 *184:10 *198:12 6.15719e-05
12 *184:10 *332:39 0.000374665
13 *184:14 *187:10 4.96207e-05
14 *184:14 *198:12 2.1819e-05
15 *168:24 *184:10 5.40241e-05
*RES
1 *855:X *184:10 44.1729 
2 *184:10 *184:14 16.0979 
3 *184:14 *869:A1 25.5686 
4 *184:14 *858:A 23 
*END

*D_NET *185 0.00233258
*CONN
*I *857:B1 I *D sky130_fd_sc_hd__a31o_1
*I *856:Y O *D sky130_fd_sc_hd__o221ai_1
*CAP
1 *857:B1 0.000543385
2 *856:Y 0.000209099
3 *185:8 0.000752484
4 *857:B1 *852:A 0.000193379
5 *857:B1 *853:A 2.77955e-05
6 *857:B1 *252:16 0
7 *857:B1 *252:27 7.76364e-06
8 *857:B1 *253:8 0
9 *857:B1 *302:32 4.16868e-05
10 *857:B1 *302:38 0
11 *857:B1 *339:8 3.91386e-05
12 *185:8 *368:65 2.79364e-05
13 *842:A *857:B1 4.32475e-05
14 *851:B *857:B1 4.48731e-05
15 *856:B2 *857:B1 0.000145926
16 *169:21 *857:B1 5.97612e-05
17 *171:10 *857:B1 0.000136486
18 *175:16 *185:8 7.51453e-06
19 *180:8 *857:B1 5.21024e-05
*RES
1 *856:Y *185:8 40.5271 
2 *185:8 *857:B1 49.7346 
*END

*D_NET *186 0.00137123
*CONN
*I *858:B I *D sky130_fd_sc_hd__or2_1
*I *869:A2 I *D sky130_fd_sc_hd__o211ai_1
*I *857:X O *D sky130_fd_sc_hd__a31o_1
*CAP
1 *858:B 0.000122721
2 *869:A2 0
3 *857:X 0.000386812
4 *186:10 0.000509533
5 *858:B *869:C1 3.70187e-05
6 *858:B *187:10 0.000100069
7 *858:B *198:12 1.34995e-05
8 *186:10 *336:46 0
9 *855:B1 *186:10 3.91058e-05
10 *869:A1 *858:B 3.22051e-05
11 *168:24 *186:10 3.22879e-05
12 *182:10 *186:10 8.62876e-05
13 *183:36 *186:10 1.16915e-05
14 *184:10 *858:B 0
15 *184:10 *186:10 0
*RES
1 *857:X *186:10 44.5457 
2 *186:10 *869:A2 38 
3 *186:10 *858:B 40.6514 
*END

*D_NET *187 0.0020142
*CONN
*I *930:A I *D sky130_fd_sc_hd__nand2_1
*I *931:A I *D sky130_fd_sc_hd__xor2_1
*I *858:X O *D sky130_fd_sc_hd__or2_1
*CAP
1 *930:A 0
2 *931:A 0
3 *858:X 0.000371678
4 *187:27 0.000262592
5 *187:12 0.000262592
6 *187:10 0.000371678
7 *187:10 *869:C1 0.000163823
8 *187:10 *198:12 7.43025e-06
9 *187:10 *247:31 2.04854e-05
10 *187:27 *197:19 2.60152e-05
11 *187:27 *247:10 0.000171155
12 *187:27 *247:14 4.67488e-05
13 *187:27 *341:8 7.83309e-05
14 *187:27 *341:12 5.50049e-05
15 *858:B *187:10 0.000100069
16 *869:A1 *187:10 2.69729e-05
17 *184:14 *187:10 4.96207e-05
*RES
1 *858:X *187:10 43.8621 
2 *187:10 *187:12 15 
3 *187:12 *931:A 23 
4 *187:12 *187:27 35.51 
5 *187:27 *930:A 23 
*END

*D_NET *188 0.00255949
*CONN
*I *933:A I *D sky130_fd_sc_hd__and3_1
*I *865:A_N I *D sky130_fd_sc_hd__and2b_1
*I *932:B1 I *D sky130_fd_sc_hd__a21oi_1
*I *859:Y O *D sky130_fd_sc_hd__xnor2_1
*CAP
1 *933:A 0.00012118
2 *865:A_N 0
3 *932:B1 0
4 *859:Y 0.00034418
5 *188:23 0.000167171
6 *188:16 0.000108814
7 *188:8 0.000498986
8 *933:A *933:B 8.38096e-05
9 *933:A *933:C 0.000109325
10 *933:A *194:31 8.52481e-05
11 *933:A *249:10 5.50106e-05
12 *188:8 *859:A 1.03836e-05
13 *188:8 *865:B 2.80512e-05
14 *188:8 *935:A1 6.24154e-05
15 *188:8 *194:16 5.50106e-05
16 *188:8 *194:31 0.000139346
17 *188:8 *248:12 0.0002263
18 *188:8 *374:23 2.93845e-05
19 *188:16 *932:A1 0.000110913
20 *188:16 *934:A 2.93845e-05
21 *188:16 *194:31 0
22 *188:16 *248:12 0.000136486
23 *188:23 *933:B 1.39431e-05
24 *188:23 *194:31 8.34394e-05
25 *44:17 *188:8 6.07084e-05
*RES
1 *859:Y *188:8 30.3121 
2 *188:8 *188:16 32.5271 
3 *188:16 *932:B1 23 
4 *188:8 *188:23 1.09786 
5 *188:23 *865:A_N 23 
6 *188:23 *933:A 26.9564 
*END

*D_NET *189 0.00123031
*CONN
*I *937:A1 I *D sky130_fd_sc_hd__a21bo_1
*I *862:A I *D sky130_fd_sc_hd__nand2_1
*I *860:X O *D sky130_fd_sc_hd__or2_1
*CAP
1 *937:A1 3.42813e-05
2 *862:A 0.000117357
3 *860:X 0.000143168
4 *189:10 0.000294806
5 *862:A *862:B 0.000246748
6 *862:A *864:B 7.98155e-05
7 *937:A1 *343:16 1.94812e-05
8 *189:10 *861:A 5.50106e-05
9 *189:10 *861:B 1.40958e-05
10 *189:10 *862:B 5.33597e-05
11 *189:10 *864:B 1.80023e-05
12 *189:10 *190:8 8.62876e-05
13 *189:10 *201:10 1.22803e-05
14 *189:10 *251:10 5.56203e-05
*RES
1 *860:X *189:10 41.3557 
2 *189:10 *862:A 41.3143 
3 *189:10 *937:A1 38.6214 
*END

*D_NET *190 0.00135662
*CONN
*I *937:B1_N I *D sky130_fd_sc_hd__a21bo_1
*I *862:B I *D sky130_fd_sc_hd__nand2_1
*I *861:Y O *D sky130_fd_sc_hd__nand2_1
*CAP
1 *937:B1_N 9.88988e-05
2 *862:B 0.000149981
3 *861:Y 3.62107e-05
4 *190:8 0.00028509
5 *862:B *191:8 1.24376e-05
6 *862:B *201:10 0.000303269
7 *937:B1_N *343:16 8.19644e-06
8 *190:8 *201:10 7.6144e-05
9 *862:A *862:B 0.000246748
10 *189:10 *862:B 5.33597e-05
11 *189:10 *190:8 8.62876e-05
*RES
1 *861:Y *190:8 39.2014 
2 *190:8 *862:B 42.64 
3 *190:8 *937:B1_N 39.0979 
*END

*D_NET *191 0.0010718
*CONN
*I *936:A I *D sky130_fd_sc_hd__xnor2_1
*I *864:A I *D sky130_fd_sc_hd__nor2_1
*I *862:Y O *D sky130_fd_sc_hd__nand2_1
*CAP
1 *936:A 0
2 *864:A 2.00578e-05
3 *862:Y 9.05612e-05
4 *191:23 0.00032302
5 *191:8 0.000433639
6 *191:23 *864:B 0
7 *191:23 *250:10 0.000192087
8 *862:B *191:8 1.24376e-05
*RES
1 *862:Y *191:8 24.595 
2 *191:8 *864:A 23.4971 
3 *191:8 *191:23 35.9657 
4 *191:23 *936:A 23 
*END

*D_NET *192 0.00189163
*CONN
*I *938:A I *D sky130_fd_sc_hd__xnor2_1
*I *864:B I *D sky130_fd_sc_hd__nor2_1
*I *863:Y O *D sky130_fd_sc_hd__xnor2_1
*CAP
1 *938:A 6.199e-05
2 *864:B 0.000357963
3 *863:Y 0.000209503
4 *192:10 0.000629457
5 *864:B *201:10 0
6 *864:B *250:10 6.95768e-05
7 *864:B *251:10 0.000354769
8 *864:B *310:14 0
9 *938:A *310:12 3.16665e-05
10 *192:10 *863:A 4.6595e-05
11 *192:10 *870:A1 3.22879e-05
12 *192:10 *201:10 0
13 *192:10 *310:14 0
14 *192:10 *344:8 0
15 *862:A *864:B 7.98155e-05
16 *189:10 *864:B 1.80023e-05
17 *191:23 *864:B 0
*RES
1 *863:Y *192:10 41.48 
2 *192:10 *864:B 46.9486 
3 *192:10 *938:A 39.0979 
*END

*D_NET *193 0.00182652
*CONN
*I *865:B I *D sky130_fd_sc_hd__and2b_1
*I *871:C I *D sky130_fd_sc_hd__and3_1
*I *864:Y O *D sky130_fd_sc_hd__nor2_1
*CAP
1 *865:B 0.000170324
2 *871:C 0.000126199
3 *864:Y 0.000289252
4 *193:8 0.000585776
5 *865:B *935:A1 9.67842e-05
6 *865:B *248:12 0.000102093
7 *865:B *250:10 9.84794e-05
8 *871:C *200:8 2.3529e-05
9 *871:C *342:16 1.56662e-06
10 *871:C *342:29 0.000141189
11 *871:C *374:23 8.16356e-05
12 *193:8 *200:8 8.16459e-05
13 *193:8 *201:10 0
14 *193:8 *250:10 0
15 *193:8 *341:35 0
16 *1055:A *193:8 0
17 *188:8 *865:B 2.80512e-05
*RES
1 *864:Y *193:8 42.3707 
2 *193:8 *871:C 40.8379 
3 *193:8 *865:B 41.9564 
*END

*D_NET *194 0.00340444
*CONN
*I *869:B1 I *D sky130_fd_sc_hd__o211ai_1
*I *872:A3 I *D sky130_fd_sc_hd__a31o_1
*I *865:X O *D sky130_fd_sc_hd__and2b_1
*CAP
1 *869:B1 0
2 *872:A3 0
3 *865:X 0
4 *194:31 0.000560839
5 *194:16 0.000600235
6 *194:4 0.00116107
7 *194:16 *932:A1 0
8 *194:16 *195:8 0
9 *194:16 *200:8 0
10 *194:16 *248:12 1.62015e-05
11 *194:16 *250:10 0.000105175
12 *194:16 *341:27 0.0001804
13 *194:16 *341:35 1.76557e-05
14 *194:31 *869:C1 5.79559e-05
15 *194:31 *932:A1 2.54046e-05
16 *194:31 *247:31 0.00017774
17 *194:31 *248:12 0
18 *194:31 *249:10 0.000138718
19 *933:A *194:31 8.52481e-05
20 *188:8 *194:16 5.50106e-05
21 *188:8 *194:31 0.000139346
22 *188:16 *194:31 0
23 *188:23 *194:31 8.34394e-05
*RES
1 *865:X *194:4 23 
2 *194:4 *194:16 40.15 
3 *194:16 *872:A3 23 
4 *194:4 *194:31 40.6471 
5 *194:31 *869:B1 23 
*END

*D_NET *195 0.00147076
*CONN
*I *868:A I *D sky130_fd_sc_hd__and2_1
*I *933:B I *D sky130_fd_sc_hd__and3_1
*I *932:A1 I *D sky130_fd_sc_hd__a21oi_1
*I *866:Y O *D sky130_fd_sc_hd__nand2_1
*CAP
1 *868:A 0.000110189
2 *933:B 0.00022873
3 *932:A1 0.000145656
4 *866:Y 0
5 *195:8 0.00045357
6 *195:4 0.000189372
7 *868:A *867:A 3.53115e-05
8 *868:A *373:21 6.26126e-05
9 *932:A1 *248:12 1.12487e-05
10 *933:A *933:B 8.38096e-05
11 *188:16 *932:A1 0.000110913
12 *188:23 *933:B 1.39431e-05
13 *194:16 *932:A1 0
14 *194:16 *195:8 0
15 *194:31 *932:A1 2.54046e-05
*RES
1 *866:Y *195:4 23 
2 *195:4 *195:8 16.2014 
3 *195:8 *932:A1 40.9621 
4 *195:8 *933:B 41.48 
5 *195:4 *868:A 25.5686 
*END

*D_NET *196 0.000275027
*CONN
*I *868:B I *D sky130_fd_sc_hd__and2_1
*I *867:X O *D sky130_fd_sc_hd__or2_1
*CAP
1 *868:B 3.67082e-05
2 *867:X 3.67082e-05
3 *868:B *867:A 0.00014428
4 *868:B *197:6 5.73309e-05
*RES
1 *867:X *868:B 47.5743 
*END

*D_NET *197 0.00162237
*CONN
*I *931:B I *D sky130_fd_sc_hd__xor2_1
*I *869:C1 I *D sky130_fd_sc_hd__o211ai_1
*I *930:B I *D sky130_fd_sc_hd__nand2_1
*I *868:X O *D sky130_fd_sc_hd__and2_1
*CAP
1 *931:B 0
2 *869:C1 0.000166828
3 *930:B 2.30556e-05
4 *868:X 0.000116409
5 *197:19 0.000309186
6 *197:6 0.000281822
7 *869:C1 *198:12 7.53384e-06
8 *869:C1 *247:10 8.9458e-05
9 *869:C1 *249:10 0
10 *197:6 *867:A 4.93812e-05
11 *197:6 *341:12 3.22051e-05
12 *197:6 *341:23 2.69729e-05
13 *197:19 *247:10 0.000148044
14 *197:19 *341:12 2.93335e-05
15 *858:B *869:C1 3.70187e-05
16 *868:B *197:6 5.73309e-05
17 *187:10 *869:C1 0.000163823
18 *187:27 *197:19 2.60152e-05
19 *194:31 *869:C1 5.79559e-05
*RES
1 *868:X *197:6 26.0036 
2 *197:6 *930:B 23.4971 
3 *197:6 *197:19 18.2314 
4 *197:19 *869:C1 42.06 
5 *197:19 *931:B 38 
*END

*D_NET *198 0.00551002
*CONN
*I *889:A1 I *D sky130_fd_sc_hd__a211o_1
*I *874:A I *D sky130_fd_sc_hd__nand2_1
*I *869:Y O *D sky130_fd_sc_hd__o211ai_1
*CAP
1 *889:A1 0
2 *874:A 0.000190757
3 *869:Y 0.000250128
4 *198:39 0.000345645
5 *198:18 0.00140813
6 *198:12 0.00112186
7 *874:A *1000:CLK 9.67842e-05
8 *874:A *203:27 8.48249e-05
9 *874:A *217:18 2.31591e-05
10 *874:A *346:14 7.53303e-06
11 *198:12 *332:39 1.90488e-05
12 *198:18 *757:A 2.39018e-05
13 *198:18 *1000:CLK 5.56356e-05
14 *198:18 *1000:D 7.40718e-05
15 *198:18 *247:10 0
16 *198:18 *304:14 0
17 *198:18 *304:28 0
18 *198:18 *332:39 0.000772107
19 *198:18 *341:8 5.31156e-05
20 *198:18 *346:14 9.03364e-06
21 *198:18 *370:21 7.27411e-05
22 *198:18 *370:32 0.000187525
23 *198:39 *214:28 5.0419e-05
24 *198:39 *215:31 0.000151056
25 *198:39 *217:18 0.000177781
26 *198:39 *304:12 6.02033e-05
27 *198:39 *304:14 1.58805e-05
28 *198:39 *370:32 0
29 *858:B *198:12 1.34995e-05
30 *869:A1 *198:12 0.000146822
31 *869:C1 *198:12 7.53384e-06
32 *87:10 *198:18 0
33 *184:10 *198:12 6.15719e-05
34 *184:14 *198:12 2.1819e-05
35 *187:10 *198:12 7.43025e-06
*RES
1 *869:Y *198:12 43.1786 
2 *198:12 *198:18 35.9836 
3 *198:18 *874:A 26.9771 
4 *198:18 *198:39 35.125 
5 *198:39 *889:A1 38 
*END

*D_NET *199 0.000206595
*CONN
*I *873:B1 I *D sky130_fd_sc_hd__a211oi_1
*I *870:X O *D sky130_fd_sc_hd__o211a_1
*CAP
1 *873:B1 0
2 *870:X 3.73681e-05
3 *199:8 3.73681e-05
4 *199:8 *201:10 8.85189e-05
5 *199:8 *308:14 4.334e-05
*RES
1 *870:X *199:8 39.2014 
2 *199:8 *873:B1 38 
*END

*D_NET *200 0.00091348
*CONN
*I *872:B1 I *D sky130_fd_sc_hd__a31o_1
*I *871:X O *D sky130_fd_sc_hd__and3_1
*CAP
1 *872:B1 1.50079e-05
2 *871:X 0.000230226
3 *200:8 0.000245234
4 *872:B1 *341:27 5.50049e-05
5 *872:B1 *373:21 5.50049e-05
6 *200:8 *248:12 0
7 *200:8 *250:10 6.6869e-05
8 *200:8 *342:29 0.000140958
9 *871:C *200:8 2.3529e-05
10 *193:8 *200:8 8.16459e-05
11 *194:16 *200:8 0
*RES
1 *871:X *200:8 42.7229 
2 *200:8 *872:B1 38.6214 
*END

*D_NET *201 0.00218589
*CONN
*I *873:C1 I *D sky130_fd_sc_hd__a211oi_1
*I *872:X O *D sky130_fd_sc_hd__a31o_1
*CAP
1 *873:C1 0
2 *872:X 0
3 *201:10 0.000807806
4 *201:6 0.000807806
5 *201:10 *870:B1 0
6 *201:10 *250:10 0
7 *201:10 *251:10 0
8 *201:10 *307:16 0
9 *201:10 *308:14 4.16868e-05
10 *201:10 *341:35 4.83778e-05
11 *201:10 *343:22 0
12 *201:10 *343:33 0
13 *201:10 *344:8 0
14 acc[18] *201:10 0
15 *862:B *201:10 0.000303269
16 *864:B *201:10 0
17 *189:10 *201:10 1.22803e-05
18 *190:8 *201:10 7.6144e-05
19 *192:10 *201:10 0
20 *193:8 *201:10 0
21 *199:8 *201:10 8.85189e-05
*RES
1 *872:X *201:6 38 
2 *201:6 *201:10 30.9914 
3 *201:10 *873:C1 23 
*END

*D_NET *202 0.00267745
*CONN
*I *889:A2 I *D sky130_fd_sc_hd__a211o_1
*I *874:B I *D sky130_fd_sc_hd__nand2_1
*I *873:Y O *D sky130_fd_sc_hd__a211oi_1
*CAP
1 *889:A2 0.00016883
2 *874:B 0
3 *873:Y 0.000608769
4 *202:12 0.000155385
5 *202:6 0.000932984
6 *889:A2 *888:B 6.12127e-05
7 *889:A2 *924:B1_N 5.56356e-05
8 *889:A2 *214:28 4.39209e-05
9 *202:6 *887:A 2.93747e-05
10 *202:6 *888:B 4.02485e-05
11 *202:6 *924:B1_N 5.3304e-05
12 *202:6 *1069:A 0.000150905
13 *202:6 *216:6 8.1796e-05
14 *202:6 *344:33 2.18409e-05
15 *202:6 *344:41 7.73389e-05
16 *202:12 *887:A 0
17 *202:12 *203:27 5.94125e-05
18 *202:12 *214:28 0
19 *202:12 *215:10 0.000136486
20 *202:12 *304:12 0
21 *202:12 *304:14 0
22 *202:12 *310:14 0
*RES
1 *873:Y *202:6 34.1029 
2 *202:6 *202:12 32.61 
3 *202:12 *874:B 23 
4 *202:6 *889:A2 26.3764 
*END

*D_NET *203 0.00125877
*CONN
*I *923:A I *D sky130_fd_sc_hd__xnor2_1
*I *924:A1 I *D sky130_fd_sc_hd__a21bo_1
*I *874:Y O *D sky130_fd_sc_hd__nand2_1
*CAP
1 *923:A 0
2 *924:A1 0
3 *874:Y 0
4 *203:27 0.000132762
5 *203:12 0.000242487
6 *203:4 0.000375248
7 *203:12 *887:A 0
8 *203:12 *215:10 0.000165359
9 *203:12 *346:14 6.89706e-05
10 *203:27 *346:14 0.000129707
11 *874:A *203:27 8.48249e-05
12 *202:12 *203:27 5.94125e-05
*RES
1 *874:Y *203:4 23 
2 *203:4 *203:12 33.9564 
3 *203:12 *924:A1 23 
4 *203:4 *203:27 33.3971 
5 *203:27 *923:A 23 
*END

*D_NET *204 0.00189627
*CONN
*I *926:B1_N I *D sky130_fd_sc_hd__a21bo_1
*I *892:A I *D sky130_fd_sc_hd__or3_1
*I *877:A I *D sky130_fd_sc_hd__nand2_1
*I *875:Y O *D sky130_fd_sc_hd__nand2_1
*CAP
1 *926:B1_N 0
2 *892:A 0.00013287
3 *877:A 2.34823e-05
4 *875:Y 0.000226103
5 *204:19 0.000472767
6 *204:6 0.000589482
7 *877:A *875:A 0
8 *892:A *892:B 7.28308e-05
9 *892:A *1001:CLK 2.02872e-05
10 *892:A *209:17 0
11 *892:A *212:30 4.3198e-05
12 *892:A *212:40 0.000134759
13 *892:A *213:12 1.69668e-05
14 *204:6 *875:A 2.32101e-05
15 *204:6 *877:B 9.84851e-05
16 *204:6 *311:8 6.17437e-06
17 *204:19 *209:17 0
18 *204:19 *213:12 3.56537e-05
*RES
1 *875:Y *204:6 26.9564 
2 *204:6 *877:A 23.4971 
3 *204:6 *204:19 20.51 
4 *204:19 *892:A 41.2521 
5 *204:19 *926:B1_N 38 
*END

*D_NET *205 0.00173425
*CONN
*I *877:B I *D sky130_fd_sc_hd__nand2_1
*I *926:A1 I *D sky130_fd_sc_hd__a21bo_1
*I *876:X O *D sky130_fd_sc_hd__or2_1
*CAP
1 *877:B 0.000223239
2 *926:A1 0.000337723
3 *876:X 0.000144557
4 *205:10 0.000705518
5 *877:B *206:8 0
6 *877:B *245:8 0
7 *877:B *290:8 6.48142e-05
8 *877:B *311:14 0
9 *926:A1 *892:B 1.24376e-05
10 *926:A1 *1001:CLK 6.343e-05
11 *205:10 *290:8 8.4047e-05
12 *205:10 *311:14 0
13 *204:6 *877:B 9.84851e-05
*RES
1 *876:X *205:10 40.2993 
2 *205:10 *926:A1 43.0957 
3 *205:10 *877:B 42.7643 
*END

*D_NET *206 0.0012505
*CONN
*I *884:A I *D sky130_fd_sc_hd__nor3_1
*I *925:A I *D sky130_fd_sc_hd__xnor2_1
*I *877:Y O *D sky130_fd_sc_hd__nand2_1
*CAP
1 *884:A 0.00015601
2 *925:A 0
3 *877:Y 0.000277627
4 *206:10 0.00015601
5 *206:8 0.000277627
6 *884:A *884:B 8.1796e-05
7 *884:A *925:B 9.84794e-05
8 *206:8 *926:A2 5.75972e-05
9 *206:8 *209:17 0
10 *206:8 *244:8 1.19796e-05
11 *206:8 *245:8 8.85189e-05
12 *206:8 *290:8 4.48568e-05
13 *206:8 *311:14 0
14 *877:B *206:8 0
*RES
1 *877:Y *206:8 43.075 
2 *206:8 *206:10 15 
3 *206:10 *925:A 23 
4 *206:10 *884:A 26.48 
*END

*D_NET *207 0.000754419
*CONN
*I *928:A1 I *D sky130_fd_sc_hd__a21bo_1
*I *880:A I *D sky130_fd_sc_hd__nand2_1
*I *878:X O *D sky130_fd_sc_hd__or2_1
*CAP
1 *928:A1 0.000160861
2 *880:A 0
3 *878:X 0
4 *207:10 9.51685e-05
5 *207:4 0.000256029
6 *928:A1 *1002:CLK 0.000123902
7 *207:10 *208:8 5.26204e-05
8 *207:10 *245:27 0
9 *207:10 *246:8 6.58373e-05
*RES
1 *878:X *207:4 23 
2 *207:4 *207:10 32.2579 
3 *207:10 *880:A 23 
4 *207:4 *928:A1 26.0243 
*END

*D_NET *208 0.00219249
*CONN
*I *891:A_N I *D sky130_fd_sc_hd__nand2b_1
*I *928:B1_N I *D sky130_fd_sc_hd__a21bo_1
*I *880:B I *D sky130_fd_sc_hd__nand2_1
*I *879:Y O *D sky130_fd_sc_hd__nand2_1
*CAP
1 *891:A_N 6.7558e-05
2 *928:B1_N 0
3 *880:B 0
4 *879:Y 0.000157845
5 *208:27 8.08854e-05
6 *208:21 0.000418264
7 *208:12 0.00028334
8 *208:8 0.000171364
9 *208:8 *245:8 6.48049e-05
10 *208:8 *245:27 0
11 *208:8 *291:10 0
12 *208:8 *312:14 0.000168754
13 *208:8 *348:29 0.000168754
14 *208:12 *927:A 5.67058e-05
15 *208:12 *245:27 2.18506e-05
16 *208:21 *927:A 2.18409e-05
17 *208:21 *929:A 0.00014291
18 *208:21 *245:27 0.000268873
19 *208:27 *212:16 6.23248e-06
20 *208:27 *292:8 3.98887e-05
21 *207:10 *208:8 5.26204e-05
*RES
1 *879:Y *208:8 42.7229 
2 *208:8 *208:12 15.6214 
3 *208:12 *880:B 23 
4 *208:12 *208:21 5.88286 
5 *208:21 *208:27 31.5536 
6 *208:27 *928:B1_N 23 
7 *208:21 *891:A_N 24.1186 
*END

*D_NET *209 0.00328346
*CONN
*I *892:B I *D sky130_fd_sc_hd__or3_1
*I *884:B I *D sky130_fd_sc_hd__nor3_1
*I *927:A I *D sky130_fd_sc_hd__xnor2_1
*I *880:Y O *D sky130_fd_sc_hd__nand2_1
*CAP
1 *892:B 0.000250596
2 *884:B 0.000201245
3 *927:A 0.000317006
4 *880:Y 0
5 *209:17 0.000776064
6 *209:4 0.000641229
7 *884:B *890:B 1.41077e-05
8 *884:B *926:A2 0.000116314
9 *884:B *212:40 6.17437e-06
10 *892:B *1001:CLK 4.73234e-05
11 *927:A *927:B 0.000256023
12 *927:A *245:27 1.03955e-05
13 *927:A *291:10 0.000228903
14 *209:17 *926:A2 5.24393e-05
15 *209:17 *212:30 0
16 *209:17 *212:40 0
17 *209:17 *213:12 0
18 *209:17 *245:8 0.00011726
19 *209:17 *246:8 2.76611e-06
20 *884:A *884:B 8.1796e-05
21 *892:A *892:B 7.28308e-05
22 *892:A *209:17 0
23 *926:A1 *892:B 1.24376e-05
24 *204:19 *209:17 0
25 *206:8 *209:17 0
26 *208:12 *927:A 5.67058e-05
27 *208:21 *927:A 2.18409e-05
*RES
1 *880:Y *209:4 23 
2 *209:4 *927:A 31.265 
3 *209:4 *209:17 21.4836 
4 *209:17 *884:B 42.0807 
5 *209:17 *892:B 41.48 
*END

*D_NET *210 0.00358217
*CONN
*I *893:A I *D sky130_fd_sc_hd__and4_1
*I *883:A I *D sky130_fd_sc_hd__nand2_1
*I *881:Y O *D sky130_fd_sc_hd__nand2_1
*CAP
1 *893:A 0
2 *883:A 0.000104666
3 *881:Y 0.000160165
4 *210:27 0.000494897
5 *210:6 0.000759728
6 *883:A *211:25 6.23756e-05
7 *883:A *370:134 0.000277792
8 *210:6 *313:8 1.76557e-05
9 *210:6 *313:16 9.84851e-05
10 *210:6 *370:36 5.41385e-05
11 *210:6 *370:55 2.32004e-05
12 *210:6 *370:134 5.3304e-05
13 *210:27 *893:C 0.000144501
14 *210:27 *220:8 0
15 *210:27 *221:10 9.90214e-05
16 *210:27 *222:12 3.64337e-05
17 *210:27 *304:74 0.000429332
18 *210:27 *370:32 0.000713114
19 *210:27 *370:134 5.33597e-05
*RES
1 *881:Y *210:6 26.48 
2 *210:6 *883:A 26.5007 
3 *210:6 *210:27 44.7071 
4 *210:27 *893:A 23 
*END

*D_NET *211 0.00154145
*CONN
*I *883:B I *D sky130_fd_sc_hd__nand2_1
*I *891:B I *D sky130_fd_sc_hd__nand2b_1
*I *882:X O *D sky130_fd_sc_hd__or2_1
*CAP
1 *883:B 0
2 *891:B 5.30142e-05
3 *882:X 0.000254391
4 *211:25 0.00038961
5 *211:6 0.000697015
6 *211:25 *212:8 8.50457e-05
7 *883:A *211:25 6.23756e-05
*RES
1 *882:X *211:6 26.9564 
2 *211:6 *891:B 23.7768 
3 *211:6 *211:25 37.1671 
4 *211:25 *883:B 23 
*END

*D_NET *212 0.00384345
*CONN
*I *929:A I *D sky130_fd_sc_hd__xnor2_1
*I *892:C I *D sky130_fd_sc_hd__or3_1
*I *884:C I *D sky130_fd_sc_hd__nor3_1
*I *883:Y O *D sky130_fd_sc_hd__nand2_1
*CAP
1 *929:A 6.48776e-05
2 *892:C 0
3 *884:C 0
4 *883:Y 6.1555e-05
5 *212:40 0.000232096
6 *212:30 0.00067436
7 *212:16 0.000959589
8 *212:8 0.000514003
9 *212:16 *1002:CLK 0.000128147
10 *212:16 *245:27 6.68793e-05
11 *212:16 *246:8 0
12 *212:16 *292:8 0.000114566
13 *212:16 *304:76 7.72975e-05
14 *212:16 *312:14 0
15 *212:30 *1001:CLK 9.77405e-05
16 *212:30 *213:12 8.64543e-05
17 *212:30 *246:8 0
18 *212:30 *304:51 7.69256e-06
19 *212:30 *304:68 4.81212e-05
20 *212:40 *890:B 5.73309e-05
21 *212:40 *926:A2 0
22 *212:40 *1001:CLK 9.77405e-05
23 *212:40 *213:12 0.000136682
24 *212:40 *304:51 0
25 *884:B *212:40 6.17437e-06
26 *892:A *212:30 4.3198e-05
27 *892:A *212:40 0.000134759
28 *208:21 *929:A 0.00014291
29 *208:27 *212:16 6.23248e-06
30 *209:17 *212:30 0
31 *209:17 *212:40 0
32 *211:25 *212:8 8.50457e-05
*RES
1 *883:Y *212:8 39.2014 
2 *212:8 *212:16 37.6229 
3 *212:16 *212:30 24.3629 
4 *212:30 *212:40 35.0336 
5 *212:40 *884:C 23 
6 *212:30 *892:C 23 
7 *212:16 *929:A 39.5743 
*END

*D_NET *213 0.00101263
*CONN
*I *885:A I *D sky130_fd_sc_hd__inv_2
*I *884:Y O *D sky130_fd_sc_hd__nor3_1
*CAP
1 *885:A 0.000107255
2 *884:Y 0.000261179
3 *213:12 0.000368434
4 *892:A *213:12 1.69668e-05
5 *204:19 *213:12 3.56537e-05
6 *209:17 *213:12 0
7 *212:30 *213:12 8.64543e-05
8 *212:40 *213:12 0.000136682
*RES
1 *884:Y *213:12 43.4893 
2 *213:12 *885:A 39.5743 
*END

*D_NET *214 0.00253222
*CONN
*I *890:A I *D sky130_fd_sc_hd__or2_1
*I *889:B1 I *D sky130_fd_sc_hd__a211o_1
*I *885:Y O *D sky130_fd_sc_hd__inv_2
*CAP
1 *890:A 0
2 *889:B1 0
3 *885:Y 0.000355784
4 *214:28 0.000508293
5 *214:14 0.000531603
6 *214:10 0.000379094
7 *214:10 *219:10 7.73656e-05
8 *214:10 *220:8 8.4047e-05
9 *214:10 *304:51 0.000138195
10 *214:10 *304:68 4.03973e-05
11 *214:14 *304:10 4.40995e-05
12 *214:28 *888:B 6.25291e-05
13 *214:28 *890:B 5.56356e-05
14 *214:28 *215:21 0
15 *214:28 *217:8 1.75562e-05
16 *214:28 *304:10 5.50106e-05
17 *214:28 *304:12 7.78726e-05
18 *214:28 *304:51 1.03972e-05
19 *889:A2 *214:28 4.39209e-05
20 *198:39 *214:28 5.0419e-05
21 *202:12 *214:28 0
*RES
1 *885:Y *214:10 44.6493 
2 *214:10 *214:14 15.6214 
3 *214:14 *214:28 38.0838 
4 *214:28 *889:B1 23 
5 *214:14 *890:A 23 
*END

*D_NET *215 0.00336918
*CONN
*I *890:B I *D sky130_fd_sc_hd__or2_1
*I *888:A I *D sky130_fd_sc_hd__nand2_1
*I *924:B1_N I *D sky130_fd_sc_hd__a21bo_1
*I *886:Y O *D sky130_fd_sc_hd__nand2_1
*CAP
1 *890:B 0.000329514
2 *888:A 0
3 *924:B1_N 3.4236e-05
4 *886:Y 0.00018097
5 *215:31 0.000581753
6 *215:21 0.000951454
7 *215:10 0.000255393
8 *890:B *244:8 0
9 *924:B1_N *888:B 5.40971e-05
10 *215:10 *887:A 0
11 *215:10 *346:14 0.000230604
12 *215:10 *346:22 5.67058e-05
13 *215:21 *887:A 0
14 *215:31 *217:18 3.41998e-06
15 *215:31 *304:12 2.12347e-06
16 *884:B *890:B 1.41077e-05
17 *889:A2 *924:B1_N 5.56356e-05
18 *198:39 *215:31 0.000151056
19 *202:6 *924:B1_N 5.3304e-05
20 *202:12 *215:10 0.000136486
21 *203:12 *215:10 0.000165359
22 *212:40 *890:B 5.73309e-05
23 *214:28 *890:B 5.56356e-05
24 *214:28 *215:21 0
*RES
1 *886:Y *215:10 43.2614 
2 *215:10 *924:B1_N 39.0979 
3 *215:10 *215:21 0.673214 
4 *215:21 *215:31 32.3216 
5 *215:31 *888:A 23 
6 *215:21 *890:B 43.5618 
*END

*D_NET *216 0.00156649
*CONN
*I *888:B I *D sky130_fd_sc_hd__nand2_1
*I *924:A2 I *D sky130_fd_sc_hd__a21bo_1
*I *887:X O *D sky130_fd_sc_hd__or2_1
*CAP
1 *888:B 0.000348645
2 *924:A2 0
3 *887:X 5.41192e-05
4 *216:6 0.000402764
5 *888:B *217:8 5.93095e-05
6 *888:B *218:6 0.000401772
7 *889:A2 *888:B 6.12127e-05
8 *924:B1_N *888:B 5.40971e-05
9 *202:6 *888:B 4.02485e-05
10 *202:6 *216:6 8.1796e-05
11 *214:28 *888:B 6.25291e-05
*RES
1 *887:X *216:6 24.5743 
2 *216:6 *924:A2 23 
3 *216:6 *888:B 31.7621 
*END

*D_NET *217 0.00112916
*CONN
*I *889:C1 I *D sky130_fd_sc_hd__a211o_1
*I *923:B I *D sky130_fd_sc_hd__xnor2_1
*I *888:Y O *D sky130_fd_sc_hd__nand2_1
*CAP
1 *889:C1 0
2 *923:B 0
3 *888:Y 6.73018e-05
4 *217:18 0.000198956
5 *217:8 0.000266258
6 *217:18 *1000:CLK 5.50106e-05
7 *217:18 *304:12 0.00021079
8 *217:18 *346:14 4.96207e-05
9 *874:A *217:18 2.31591e-05
10 *888:B *217:8 5.93095e-05
11 *198:39 *217:18 0.000177781
12 *214:28 *217:8 1.75562e-05
13 *215:31 *217:18 3.41998e-06
*RES
1 *888:Y *217:8 24.595 
2 *217:8 *217:18 34.6814 
3 *217:18 *923:B 23 
4 *217:8 *889:C1 23 
*END

*D_NET *218 0.00349124
*CONN
*I *894:A1 I *D sky130_fd_sc_hd__a21oi_1
*I *914:B I *D sky130_fd_sc_hd__and3_1
*I *895:A1 I *D sky130_fd_sc_hd__a21o_1
*I *889:X O *D sky130_fd_sc_hd__a211o_1
*CAP
1 *894:A1 3.97175e-05
2 *914:B 0.000561795
3 *895:A1 0.000126469
4 *889:X 0.000484227
5 *218:10 0.000754714
6 *218:6 0.000590394
7 *894:A1 *304:110 1.76557e-05
8 *895:A1 *304:6 8.17328e-05
9 *895:A1 *304:10 5.3304e-05
10 *914:B *914:C 5.45332e-05
11 *914:B *370:32 0.000170916
12 *218:6 *894:A2 6.99589e-05
13 *218:10 *370:32 8.4047e-05
14 *888:B *218:6 0.000401772
15 *914:A *914:B 0
16 *120:10 *914:B 0
*RES
1 *889:X *218:6 29.815 
2 *218:6 *218:10 16.2014 
3 *218:10 *895:A1 39.5743 
4 *218:10 *914:B 47.1143 
5 *218:6 *894:A1 23.6214 
*END

*D_NET *219 0.000399003
*CONN
*I *893:B I *D sky130_fd_sc_hd__and4_1
*I *890:X O *D sky130_fd_sc_hd__or2_1
*CAP
1 *893:B 0
2 *890:X 0.000152234
3 *219:10 0.000152234
4 *219:10 *222:12 3.04497e-06
5 *219:10 *304:10 1.41244e-05
6 *214:10 *219:10 7.73656e-05
*RES
1 *890:X *219:10 40.8793 
2 *219:10 *893:B 38 
*END

*D_NET *220 0.00104824
*CONN
*I *893:C I *D sky130_fd_sc_hd__and4_1
*I *891:Y O *D sky130_fd_sc_hd__nand2b_1
*CAP
1 *893:C 0.000138268
2 *891:Y 0.000180442
3 *220:8 0.000318711
4 *893:C *221:10 1.57571e-05
5 *220:8 *304:68 0.000166513
6 *220:8 *304:74 0
7 *210:27 *893:C 0.000144501
8 *210:27 *220:8 0
9 *214:10 *220:8 8.4047e-05
*RES
1 *891:Y *220:8 42.0186 
2 *220:8 *893:C 40.0507 
*END

*D_NET *221 0.000600741
*CONN
*I *893:D I *D sky130_fd_sc_hd__and4_1
*I *892:X O *D sky130_fd_sc_hd__or3_1
*CAP
1 *893:D 0
2 *892:X 0.000228314
3 *221:10 0.000228314
4 *221:10 *1001:CLK 2.93335e-05
5 *893:C *221:10 1.57571e-05
6 *210:27 *221:10 9.90214e-05
*RES
1 *892:X *221:10 27.4743 
2 *221:10 *893:D 23 
*END

*D_NET *222 0.00262315
*CONN
*I *914:C I *D sky130_fd_sc_hd__and3_1
*I *895:A2 I *D sky130_fd_sc_hd__a21o_1
*I *894:A2 I *D sky130_fd_sc_hd__a21oi_1
*I *893:X O *D sky130_fd_sc_hd__and4_1
*CAP
1 *914:C 0.000525734
2 *895:A2 2.81195e-05
3 *894:A2 0.000209928
4 *893:X 0
5 *222:12 0.000412696
6 *222:4 0.000700382
7 *894:A2 *304:12 0
8 *894:A2 *304:110 0.000254673
9 *894:A2 *370:32 1.03972e-05
10 *895:A2 *304:10 5.56279e-05
11 *222:12 *370:32 0.000261625
12 *914:B *914:C 5.45332e-05
13 *210:27 *222:12 3.64337e-05
14 *218:6 *894:A2 6.99589e-05
15 *219:10 *222:12 3.04497e-06
*RES
1 *893:X *222:4 23 
2 *222:4 *222:12 19.785 
3 *222:12 *894:A2 42.1843 
4 *222:12 *895:A2 38.6214 
5 *222:4 *914:C 29.8979 
*END

*D_NET *223 0.0018901
*CONN
*I *915:A I *D sky130_fd_sc_hd__nor2_1
*I *894:Y O *D sky130_fd_sc_hd__a21oi_1
*CAP
1 *915:A 0.00031653
2 *894:Y 0.000442051
3 *223:8 0.000758581
4 *915:A *293:8 0.000159661
5 *915:A *370:80 0
6 *223:8 *1004:D 4.39278e-05
7 *223:8 *304:110 0.000156058
8 *894:B1 *223:8 1.32939e-05
9 *914:A *915:A 0
10 *118:25 *915:A 0
*RES
1 *894:Y *223:8 44.815 
2 *223:8 *915:A 44.8357 
*END

*D_NET *224 0.00501004
*CONN
*I *896:A3 I *D sky130_fd_sc_hd__a31oi_1
*I *897:A3 I *D sky130_fd_sc_hd__a311o_1
*I *919:A2 I *D sky130_fd_sc_hd__a21o_1
*I *916:B I *D sky130_fd_sc_hd__nand2_1
*I *895:X O *D sky130_fd_sc_hd__a21o_1
*CAP
1 *896:A3 8.97967e-05
2 *897:A3 0
3 *919:A2 0
4 *916:B 7.95042e-05
5 *895:X 0.000560337
6 *224:40 0.000336443
7 *224:21 0.000504067
8 *224:12 0.000350416
9 *224:8 0.000193084
10 *224:6 0.000560337
11 *896:A3 *314:10 1.78655e-05
12 *896:A3 *351:12 1.14452e-05
13 *896:A3 *351:25 0
14 *896:A3 *351:38 0
15 *224:6 *789:A 5.50106e-05
16 *224:6 *790:A 2.32004e-05
17 *224:6 *301:40 2.65879e-05
18 *224:12 *314:10 0.000195248
19 *224:12 *351:38 0
20 *224:40 *1019:A 0
21 *224:40 *351:38 0
22 *791:B *224:6 3.22879e-05
23 *895:B1 *224:6 0.000227407
24 *897:A1 *224:40 6.71027e-05
25 *103:25 *224:40 2.95125e-05
26 *111:10 *224:40 1.01436e-05
27 *117:18 *224:40 9.8971e-06
28 *117:39 *224:40 6.25829e-05
29 *118:17 *224:6 5.98028e-05
30 *118:34 *916:B 0.000137651
31 *118:34 *224:21 0.000443679
32 *118:34 *224:40 5.67058e-05
33 *118:53 *224:40 0.000257557
34 *120:8 *224:6 0.000612372
*RES
1 *895:X *224:6 36.9614 
2 *224:6 *224:8 15 
3 *224:8 *224:12 17.61 
4 *224:12 *916:B 24.5743 
5 *224:12 *224:21 4.90929 
6 *224:21 *919:A2 23 
7 *224:21 *224:40 37.7368 
8 *224:40 *897:A3 23 
9 *224:8 *896:A3 39.4707 
*END

*D_NET *225 0.000953813
*CONN
*I *898:B I *D sky130_fd_sc_hd__xnor2_1
*I *896:Y O *D sky130_fd_sc_hd__a31oi_1
*CAP
1 *898:B 0
2 *896:Y 0.000180955
3 *225:10 0.000180955
4 *225:10 *301:28 9.26005e-05
5 *225:10 *351:25 5.26535e-05
6 *225:10 *351:38 6.16439e-05
7 *896:A1 *225:10 0.000139346
8 *896:B1 *225:10 0.000139346
9 *103:25 *225:10 9.18423e-05
10 *117:39 *225:10 1.4471e-05
*RES
1 *896:Y *225:10 43.2407 
2 *225:10 *898:B 38 
*END

*D_NET *226 0.00355432
*CONN
*I *911:A1 I *D sky130_fd_sc_hd__a21oi_1
*I *907:A2 I *D sky130_fd_sc_hd__a31o_1
*I *902:B I *D sky130_fd_sc_hd__nand2_1
*I *897:X O *D sky130_fd_sc_hd__a311o_1
*CAP
1 *911:A1 9.90925e-05
2 *907:A2 0
3 *902:B 0
4 *897:X 0.000648639
5 *226:31 0.000148702
6 *226:21 0.000865224
7 *226:12 0.00126607
8 *911:A1 *913:A 3.45967e-05
9 *226:12 *1019:A 5.50049e-05
10 *226:21 *913:A 4.58593e-05
11 *226:21 *913:B 4.9662e-05
12 *226:31 *227:17 0.000102338
13 *226:31 *236:14 0.000114072
14 *774:A *226:12 5.57117e-05
15 *774:A *226:21 1.4345e-05
16 *101:18 *226:12 5.50049e-05
*RES
1 *897:X *226:12 32.3836 
2 *226:12 *902:B 23 
3 *226:12 *226:21 8.49286 
4 *226:21 *226:31 32.6721 
5 *226:31 *907:A2 23 
6 *226:21 *911:A1 24.8229 
*END

*D_NET *227 0.00287185
*CONN
*I *910:A1 I *D sky130_fd_sc_hd__a21o_1
*I *907:B1 I *D sky130_fd_sc_hd__a31o_1
*I *901:A_N I *D sky130_fd_sc_hd__nand2b_1
*I *899:Y O *D sky130_fd_sc_hd__nor2_1
*CAP
1 *910:A1 0.000273559
2 *907:B1 0
3 *901:A_N 0.00022946
4 *899:Y 0
5 *227:17 0.000638436
6 *227:4 0.000594337
7 *901:A_N *900:A 0.000143655
8 *901:A_N *228:8 0.00011735
9 *910:A1 *231:12 5.50106e-05
10 *910:A1 *232:6 1.59094e-05
11 *910:A1 *234:12 2.24608e-05
12 *910:A1 *236:14 4.73585e-05
13 *910:A1 *355:42 0.000207277
14 *227:17 *228:25 0
15 *227:17 *235:14 0.000166504
16 *227:17 *236:14 5.44961e-05
17 *227:17 *300:8 3.21327e-05
18 *227:17 *305:77 0
19 *227:17 *306:8 0
20 *227:17 *355:42 0.000101243
21 *227:17 *371:45 7.03214e-05
22 *226:31 *227:17 0.000102338
*RES
1 *899:Y *227:4 23 
2 *227:4 *901:A_N 28.2821 
3 *227:4 *227:17 22.8921 
4 *227:17 *907:B1 38 
5 *227:17 *910:A1 43.3029 
*END

*D_NET *228 0.00249235
*CONN
*I *907:A3 I *D sky130_fd_sc_hd__a31o_1
*I *909:A1 I *D sky130_fd_sc_hd__o211a_1
*I *901:B I *D sky130_fd_sc_hd__nand2b_1
*I *900:Y O *D sky130_fd_sc_hd__nand2_1
*CAP
1 *907:A3 0.000109316
2 *909:A1 2.00578e-05
3 *901:B 6.20657e-06
4 *900:Y 0.000197758
5 *228:25 0.000608607
6 *228:8 0.000683197
7 *907:A3 *235:14 6.91178e-05
8 *907:A3 *238:10 5.3304e-05
9 *228:8 *900:A 3.22879e-05
10 *228:25 *235:14 0
11 *228:25 *305:45 0
12 *228:25 *305:73 6.16531e-05
13 *228:25 *305:77 0
14 *228:25 *355:10 0.000188916
15 *901:A_N *228:8 0.00011735
16 *907:A1 *907:A3 0.000181131
17 *909:C1 *907:A3 3.34129e-05
18 *909:C1 *909:A1 0
19 *909:C1 *228:25 2.30292e-05
20 *101:18 *228:25 0
21 *101:40 *228:25 0.000107011
22 *227:17 *228:25 0
*RES
1 *900:Y *228:8 27.4536 
2 *228:8 *901:B 23.1502 
3 *228:8 *228:25 39.3629 
4 *228:25 *909:A1 23.4971 
5 *228:25 *907:A3 26.0036 
*END

*D_NET *229 0.00113998
*CONN
*I *903:A I *D sky130_fd_sc_hd__xnor2_1
*I *901:Y O *D sky130_fd_sc_hd__nand2b_1
*CAP
1 *903:A 0.00023497
2 *901:Y 7.58908e-05
3 *229:8 0.000310861
4 *903:A *767:A 0.000228903
5 *903:A *903:B 6.62899e-05
6 *903:A *298:8 0.000167431
7 *229:8 *305:45 5.56306e-05
*RES
1 *901:Y *229:8 39.5536 
2 *229:8 *903:A 43.8829 
*END

*D_NET *230 0.00172862
*CONN
*I *903:B I *D sky130_fd_sc_hd__xnor2_1
*I *902:Y O *D sky130_fd_sc_hd__nand2_1
*CAP
1 *903:B 0.000180762
2 *902:Y 0.000354821
3 *230:8 0.000535583
4 *903:B *298:8 8.88006e-05
5 *230:8 *767:A 0.000139657
6 *230:8 *980:CLK 2.89463e-05
7 *230:8 *305:45 0.000109512
8 *230:8 *355:10 0
9 *903:A *903:B 6.62899e-05
10 *101:18 *230:8 0.000113153
11 *102:10 *230:8 8.4047e-05
12 *103:8 *230:8 2.70469e-05
*RES
1 *902:Y *230:8 46.5964 
2 *230:8 *903:B 41.5214 
*END

*D_NET *231 0.00152679
*CONN
*I *910:B1 I *D sky130_fd_sc_hd__a21o_1
*I *906:A_N I *D sky130_fd_sc_hd__and2b_1
*I *909:A2 I *D sky130_fd_sc_hd__o211a_1
*I *904:Y O *D sky130_fd_sc_hd__nor2_1
*CAP
1 *910:B1 2.57796e-05
2 *906:A_N 1.64097e-05
3 *909:A2 0
4 *904:Y 0.000124004
5 *231:20 0.000222461
6 *231:12 0.000373533
7 *231:6 0.000284446
8 *910:B1 *910:A2 4.00259e-06
9 *231:6 *232:6 4.27353e-05
10 *231:6 *236:14 8.52481e-05
11 *231:6 *358:29 1.94693e-05
12 *231:12 *232:6 1.53316e-05
13 *231:12 *232:10 5.26733e-06
14 *231:12 *236:14 5.50106e-05
15 *231:20 *232:10 1.54424e-05
16 *231:20 *232:20 0.00016043
17 *909:C1 *231:20 1.7992e-05
18 *910:A1 *231:12 5.50106e-05
19 *101:40 *231:20 4.21594e-06
*RES
1 *904:Y *231:6 25.5271 
2 *231:6 *231:12 2.69286 
3 *231:12 *231:20 33.9564 
4 *231:20 *909:A2 23 
5 *231:12 *906:A_N 23.4971 
6 *231:6 *910:B1 23.4971 
*END

*D_NET *232 0.00214229
*CONN
*I *910:A2 I *D sky130_fd_sc_hd__a21o_1
*I *906:B I *D sky130_fd_sc_hd__and2b_1
*I *909:B1 I *D sky130_fd_sc_hd__o211a_1
*I *905:Y O *D sky130_fd_sc_hd__nand2_1
*CAP
1 *910:A2 3.49358e-05
2 *906:B 0
3 *909:B1 0
4 *905:Y 0.000403469
5 *232:20 0.000237769
6 *232:10 0.000413071
7 *232:6 0.000613707
8 *232:6 *358:29 0.000180218
9 *232:20 *305:77 0
10 *910:A1 *232:6 1.59094e-05
11 *910:B1 *910:A2 4.00259e-06
12 *231:6 *232:6 4.27353e-05
13 *231:12 *232:6 1.53316e-05
14 *231:12 *232:10 5.26733e-06
15 *231:20 *232:10 1.54424e-05
16 *231:20 *232:20 0.00016043
*RES
1 *905:Y *232:6 28.3857 
2 *232:6 *232:10 2.54786 
3 *232:10 *232:20 34.5571 
4 *232:20 *909:B1 23 
5 *232:10 *906:B 23 
6 *232:6 *910:A2 24.2014 
*END

*D_NET *233 0.000259533
*CONN
*I *908:A I *D sky130_fd_sc_hd__xnor2_1
*I *906:X O *D sky130_fd_sc_hd__and2b_1
*CAP
1 *908:A 0
2 *906:X 0.000123777
3 *233:8 0.000123777
4 *233:8 *1007:CLK 0
5 *233:8 *296:10 1.19796e-05
6 *233:8 *305:77 0
*RES
1 *906:X *233:8 40.2579 
2 *233:8 *908:A 38 
*END

*D_NET *234 0.001809
*CONN
*I *908:B I *D sky130_fd_sc_hd__xnor2_1
*I *907:X O *D sky130_fd_sc_hd__a31o_1
*CAP
1 *908:B 0.000240762
2 *907:X 0.000309686
3 *234:12 0.000550448
4 *908:B *1010:D 5.30758e-05
5 *234:12 *1007:CLK 8.94487e-05
6 *234:12 *236:14 0.000111852
7 *234:12 *305:77 0.000376252
8 *234:12 *355:42 0
9 *907:A1 *234:12 5.50106e-05
10 *910:A1 *234:12 2.24608e-05
*RES
1 *907:X *234:12 45.25 
2 *234:12 *908:B 42.495 
*END

*D_NET *235 0.00129848
*CONN
*I *911:A2 I *D sky130_fd_sc_hd__a21oi_1
*I *909:X O *D sky130_fd_sc_hd__o211a_1
*CAP
1 *911:A2 0
2 *909:X 0.000336903
3 *235:14 0.000336903
4 *235:14 *238:10 0.000219383
5 *235:14 *355:42 0.000169665
6 *907:A3 *235:14 6.91178e-05
7 *227:17 *235:14 0.000166504
8 *228:25 *235:14 0
*RES
1 *909:X *235:14 44.38 
2 *235:14 *911:A2 38 
*END

*D_NET *236 0.00146179
*CONN
*I *911:B1 I *D sky130_fd_sc_hd__a21oi_1
*I *910:X O *D sky130_fd_sc_hd__a21o_1
*CAP
1 *911:B1 0
2 *910:X 0.000407995
3 *236:14 0.000407995
4 *236:14 *238:10 0.000132728
5 *236:14 *305:77 4.5035e-05
6 *910:A1 *236:14 4.73585e-05
7 *226:31 *236:14 0.000114072
8 *227:17 *236:14 5.44961e-05
9 *231:6 *236:14 8.52481e-05
10 *231:12 *236:14 5.50106e-05
11 *234:12 *236:14 0.000111852
*RES
1 *910:X *236:14 45.7679 
2 *236:14 *911:B1 38 
*END

*D_NET *237 0.00049053
*CONN
*I *913:A I *D sky130_fd_sc_hd__xnor2_1
*I *911:Y O *D sky130_fd_sc_hd__a21oi_1
*CAP
1 *913:A 0.000156248
2 *911:Y 0.000156248
3 *913:A *913:B 9.75779e-05
4 *911:A1 *913:A 3.45967e-05
5 *226:21 *913:A 4.58593e-05
*RES
1 *911:Y *913:A 49.3764 
*END

*D_NET *238 0.00148343
*CONN
*I *913:B I *D sky130_fd_sc_hd__xnor2_1
*I *912:Y O *D sky130_fd_sc_hd__xnor2_1
*CAP
1 *913:B 3.5159e-05
2 *912:Y 0.000311777
3 *238:10 0.000346936
4 *238:10 *305:77 0.000161121
5 *238:10 *323:14 3.22879e-05
6 *907:A1 *238:10 4.34973e-05
7 *907:A3 *238:10 5.3304e-05
8 *913:A *913:B 9.75779e-05
9 *226:21 *913:B 4.9662e-05
10 *235:14 *238:10 0.000219383
11 *236:14 *238:10 0.000132728
*RES
1 *912:Y *238:10 44.6907 
2 *238:10 *913:B 39.0979 
*END

*D_NET *239 0.00015643
*CONN
*I *915:B I *D sky130_fd_sc_hd__nor2_1
*I *914:X O *D sky130_fd_sc_hd__and3_1
*CAP
1 *915:B 7.8215e-05
2 *914:X 7.8215e-05
*RES
1 *914:X *915:B 47.4707 
*END

*D_NET *240 0.00128536
*CONN
*I *918:A2 I *D sky130_fd_sc_hd__a21bo_1
*I *917:B I *D sky130_fd_sc_hd__xnor2_1
*I *916:Y O *D sky130_fd_sc_hd__nand2_1
*CAP
1 *918:A2 0.000166365
2 *917:B 0
3 *916:Y 0.000169249
4 *240:10 0.000335614
5 *918:A2 *775:A 2.55136e-05
6 *918:A2 *776:B 9.41704e-05
7 *918:A2 *314:10 0
8 *918:A2 *370:63 0.000182863
9 *240:10 *314:10 0
10 *240:10 *370:63 3.70187e-05
11 *240:10 *370:80 3.31683e-05
12 *918:A1 *918:A2 2.32004e-05
13 *104:12 *918:A2 0.000180212
14 *118:25 *240:10 2.4754e-05
15 *118:34 *240:10 1.32314e-05
*RES
1 *916:Y *240:10 40.8793 
2 *240:10 *917:B 38 
3 *240:10 *918:A2 42.6607 
*END

*D_NET *241 0.000918826
*CONN
*I *920:B I *D sky130_fd_sc_hd__xnor2_1
*I *918:X O *D sky130_fd_sc_hd__a21bo_1
*CAP
1 *920:B 3.08984e-05
2 *918:X 0.000247161
3 *241:8 0.00027806
4 *920:B *370:55 0.000141954
5 *241:8 *881:B 0
6 *241:8 *882:B 0
7 *241:8 *1074:A 0
8 *241:8 *295:10 0.000141869
9 acc[23] *241:8 0
10 *920:A *920:B 7.88828e-05
*RES
1 *918:X *241:8 42.7229 
2 *241:8 *920:B 39.5743 
*END

*D_NET *242 0.000774437
*CONN
*I *921:C I *D sky130_fd_sc_hd__and3_1
*I *919:X O *D sky130_fd_sc_hd__a21o_1
*CAP
1 *921:C 1.71448e-05
2 *919:X 0.000336835
3 *242:8 0.00035398
4 *242:8 *351:38 0
5 *784:B *921:C 1.40314e-06
6 *921:A *242:8 6.07611e-06
7 *107:8 *242:8 1.19692e-05
8 *107:18 *242:8 0
9 *111:10 *242:8 4.08537e-05
10 *112:8 *921:C 6.17437e-06
11 *115:10 *242:8 0
12 *116:8 *242:8 0
*RES
1 *919:X *242:8 43.4271 
2 *242:8 *921:C 38.2279 
*END

*D_NET *243 0.000665948
*CONN
*I *922:B I *D sky130_fd_sc_hd__xor2_1
*I *921:X O *D sky130_fd_sc_hd__and3_1
*CAP
1 *922:B 0.00010247
2 *921:X 0.00010247
3 *784:B *922:B 0.000171888
4 *107:12 *922:B 0.000139346
5 *107:25 *922:B 0.000129522
6 *112:8 *922:B 2.02517e-05
*RES
1 *921:X *922:B 49.9771 
*END

*D_NET *244 0.000856935
*CONN
*I *926:A2 I *D sky130_fd_sc_hd__a21bo_1
*I *925:B I *D sky130_fd_sc_hd__xnor2_1
*I *924:X O *D sky130_fd_sc_hd__a21bo_1
*CAP
1 *926:A2 8.68725e-05
2 *925:B 4.56652e-05
3 *924:X 0.000127525
4 *244:8 0.000260062
5 *884:A *925:B 9.84794e-05
6 *884:B *926:A2 0.000116314
7 *890:B *244:8 0
8 *206:8 *926:A2 5.75972e-05
9 *206:8 *244:8 1.19796e-05
10 *209:17 *926:A2 5.24393e-05
11 *212:40 *926:A2 0
*RES
1 *924:X *244:8 40.2579 
2 *244:8 *925:B 39.0979 
3 *244:8 *926:A2 40.61 
*END

*D_NET *245 0.00317162
*CONN
*I *928:A2 I *D sky130_fd_sc_hd__a21bo_1
*I *927:B I *D sky130_fd_sc_hd__xnor2_1
*I *926:X O *D sky130_fd_sc_hd__a21bo_1
*CAP
1 *928:A2 0
2 *927:B 0.000522205
3 *926:X 0.000245937
4 *245:27 0.000349934
5 *245:10 0.000872139
6 *245:8 0.000245937
7 *245:8 *246:8 0
8 *245:8 *291:10 0
9 *245:8 *311:14 0
10 *245:27 *246:8 4.08641e-05
11 *245:27 *312:14 0
12 *877:B *245:8 0
13 *927:A *927:B 0.000256023
14 *927:A *245:27 1.03955e-05
15 *206:8 *245:8 8.85189e-05
16 *207:10 *245:27 0
17 *208:8 *245:8 6.48049e-05
18 *208:8 *245:27 0
19 *208:12 *245:27 2.18506e-05
20 *208:21 *245:27 0.000268873
21 *209:17 *245:8 0.00011726
22 *212:16 *245:27 6.68793e-05
*RES
1 *926:X *245:8 43.7793 
2 *245:8 *245:10 15 
3 *245:10 *927:B 31.0164 
4 *245:10 *245:27 35.8621 
5 *245:27 *928:A2 23 
*END

*D_NET *246 0.00031749
*CONN
*I *929:B I *D sky130_fd_sc_hd__xnor2_1
*I *928:X O *D sky130_fd_sc_hd__a21bo_1
*CAP
1 *929:B 0
2 *928:X 0.000104011
3 *246:8 0.000104011
4 *207:10 *246:8 6.58373e-05
5 *209:17 *246:8 2.76611e-06
6 *212:16 *246:8 0
7 *212:30 *246:8 0
8 *245:8 *246:8 0
9 *245:27 *246:8 4.08641e-05
*RES
1 *928:X *246:8 40.2579 
2 *246:8 *929:B 38 
*END

*D_NET *247 0.0024003
*CONN
*I *932:A2 I *D sky130_fd_sc_hd__a21oi_1
*I *933:C I *D sky130_fd_sc_hd__and3_1
*I *930:Y O *D sky130_fd_sc_hd__nand2_1
*CAP
1 *932:A2 0
2 *933:C 0.000112988
3 *930:Y 0.000143955
4 *247:31 0.000332549
5 *247:14 0.000650057
6 *247:10 0.000348476
7 *247:10 *341:12 5.61255e-06
8 *247:31 *934:A 4.37033e-05
9 *247:31 *249:10 0
10 *869:C1 *247:10 8.9458e-05
11 *933:A *933:C 0.000109325
12 *187:10 *247:31 2.04854e-05
13 *187:27 *247:10 0.000171155
14 *187:27 *247:14 4.67488e-05
15 *194:31 *247:31 0.00017774
16 *197:19 *247:10 0.000148044
17 *198:18 *247:10 0
*RES
1 *930:Y *247:10 41.5836 
2 *247:10 *247:14 17.5271 
3 *247:14 *933:C 24.6571 
4 *247:14 *247:31 36.4836 
5 *247:31 *932:A2 23 
*END

*D_NET *248 0.00134481
*CONN
*I *934:A I *D sky130_fd_sc_hd__nor2_1
*I *935:B1 I *D sky130_fd_sc_hd__a21o_1
*I *932:Y O *D sky130_fd_sc_hd__a21oi_1
*CAP
1 *934:A 0.000135423
2 *935:B1 0
3 *932:Y 0
4 *248:12 0.000254275
5 *248:4 0.000389698
6 *248:12 *342:29 0
7 *865:B *248:12 0.000102093
8 *932:A1 *248:12 1.12487e-05
9 *188:8 *248:12 0.0002263
10 *188:16 *934:A 2.93845e-05
11 *188:16 *248:12 0.000136486
12 *194:16 *248:12 1.62015e-05
13 *194:31 *248:12 0
14 *200:8 *248:12 0
15 *247:31 *934:A 4.37033e-05
*RES
1 *932:Y *248:4 23 
2 *248:4 *248:12 35.8414 
3 *248:12 *935:B1 23 
4 *248:4 *934:A 26.045 
*END

*D_NET *249 0.00045582
*CONN
*I *934:B I *D sky130_fd_sc_hd__nor2_1
*I *933:X O *D sky130_fd_sc_hd__and3_1
*CAP
1 *934:B 0
2 *933:X 0.000131046
3 *249:10 0.000131046
4 *869:C1 *249:10 0
5 *933:A *249:10 5.50106e-05
6 *194:31 *249:10 0.000138718
7 *247:31 *249:10 0
*RES
1 *933:X *249:10 40.5271 
2 *249:10 *934:B 38 
*END

*D_NET *250 0.00169037
*CONN
*I *936:B I *D sky130_fd_sc_hd__xnor2_1
*I *937:A2 I *D sky130_fd_sc_hd__a21bo_1
*I *935:X O *D sky130_fd_sc_hd__a21o_1
*CAP
1 *936:B 0
2 *937:A2 7.96409e-05
3 *935:X 0.00043224
4 *250:12 7.96409e-05
5 *250:10 0.00043224
6 *937:A2 *251:10 3.52383e-05
7 *937:A2 *343:16 9.91798e-05
8 *864:B *250:10 6.95768e-05
9 *865:B *250:10 9.84794e-05
10 *191:23 *250:10 0.000192087
11 *193:8 *250:10 0
12 *194:16 *250:10 0.000105175
13 *200:8 *250:10 6.6869e-05
14 *201:10 *250:10 0
*RES
1 *935:X *250:10 46.6379 
2 *250:10 *250:12 15 
3 *250:12 *937:A2 25.0507 
4 *250:12 *936:B 23 
*END

*D_NET *251 0.00103063
*CONN
*I *938:B I *D sky130_fd_sc_hd__xnor2_1
*I *937:X O *D sky130_fd_sc_hd__a21bo_1
*CAP
1 *938:B 0
2 *937:X 0.000292501
3 *251:10 0.000292501
4 *864:B *251:10 0.000354769
5 *937:A2 *251:10 3.52383e-05
6 *189:10 *251:10 5.56203e-05
7 *201:10 *251:10 0
*RES
1 *937:X *251:10 43.8207 
2 *251:10 *938:B 38 
*END

*D_NET *252 0.00233069
*CONN
*I *941:B I *D sky130_fd_sc_hd__xnor2_1
*I *942:A2 I *D sky130_fd_sc_hd__a21bo_1
*I *940:X O *D sky130_fd_sc_hd__a21bo_1
*CAP
1 *941:B 0
2 *942:A2 0
3 *940:X 0.000109098
4 *252:27 0.000101596
5 *252:16 0.000599619
6 *252:6 0.000810313
7 *252:16 *756:A 0
8 *252:16 *841:A 5.67058e-05
9 *252:16 *302:32 7.76364e-06
10 *252:16 *302:38 0.000168754
11 *252:16 *337:40 6.33511e-05
12 *252:16 *339:8 1.83763e-05
13 *252:16 *368:10 0
14 *252:27 *852:A 5.31444e-05
15 *855:B1 *252:6 7.03934e-05
16 *857:B1 *252:16 0
17 *857:B1 *252:27 7.76364e-06
18 *942:A1 *252:16 2.93747e-05
19 *171:10 *252:16 0
20 *180:8 *252:16 0
21 *180:14 *252:6 1.24376e-05
22 *180:14 *252:16 0.000221997
*RES
1 *940:X *252:6 24.5743 
2 *252:6 *252:16 40.1293 
3 *252:16 *942:A2 23 
4 *252:6 *252:27 31.9057 
5 *252:27 *941:B 23 
*END

*D_NET *253 0.00134848
*CONN
*I *943:B I *D sky130_fd_sc_hd__xnor2_1
*I *944:A2 I *D sky130_fd_sc_hd__a21bo_1
*I *942:X O *D sky130_fd_sc_hd__a21bo_1
*CAP
1 *943:B 0
2 *944:A2 0.000148792
3 *942:X 0.000221997
4 *253:12 0.000171803
5 *253:8 0.000245008
6 *253:8 *302:32 7.28526e-05
7 *253:8 *368:10 0
8 *850:A *253:8 1.83667e-05
9 *856:A1 *944:A2 0.000355822
10 *856:A1 *253:12 4.34745e-05
11 *856:B2 *253:8 0
12 *857:B1 *253:8 0
13 *174:10 *253:8 7.03663e-05
14 *179:10 *253:8 0
*RES
1 *942:X *253:8 43.075 
2 *253:8 *253:12 15.6214 
3 *253:12 *944:A2 26.9564 
4 *253:12 *943:B 23 
*END

*D_NET *254 0.000659523
*CONN
*I *945:B I *D sky130_fd_sc_hd__xnor2_1
*I *944:X O *D sky130_fd_sc_hd__a21bo_1
*CAP
1 *945:B 0
2 *944:X 0.000224337
3 *254:10 0.000224337
4 *254:10 *844:A 0
5 *254:10 *368:10 0
6 *856:A1 *254:10 0.000185434
7 *173:10 *254:10 2.5415e-05
*RES
1 *944:X *254:10 41.9564 
2 *254:10 *945:B 38 
*END

*D_NET *255 0.000976484
*CONN
*I *947:B I *D sky130_fd_sc_hd__and2_1
*I *946:Y O *D sky130_fd_sc_hd__nand3_1
*CAP
1 *947:B 0
2 *946:Y 0.000320312
3 *255:10 0.000320312
4 *255:10 *303:42 1.01436e-05
5 *35:13 *255:10 0
6 *134:18 *255:10 0.000148678
7 *136:20 *255:10 0
8 *165:21 *255:10 0.000113153
9 *166:12 *255:10 6.38845e-05
*RES
1 *946:Y *255:10 43.2614 
2 *255:10 *947:B 38 
*END

*D_NET *256 0.00177363
*CONN
*I *949:B I *D sky130_fd_sc_hd__xnor2_1
*I *950:A2 I *D sky130_fd_sc_hd__a21bo_1
*I *948:Y O *D sky130_fd_sc_hd__nand2_1
*CAP
1 *949:B 0
2 *950:A2 0.000194401
3 *948:Y 0.000196241
4 *256:12 0.000214956
5 *256:8 0.000216796
6 *256:8 *301:10 0
7 *803:C *256:8 0.00030457
8 *950:B1_N *950:A2 2.02872e-05
9 *950:B1_N *256:8 6.16531e-05
10 *951:A *950:A2 0.000310641
11 *128:23 *950:A2 1.24376e-05
12 *128:23 *256:12 5.3304e-05
13 *130:10 *950:A2 5.3304e-05
14 *130:10 *256:12 4.08664e-05
15 *130:18 *950:A2 9.41704e-05
*RES
1 *948:Y *256:8 42.7229 
2 *256:8 *256:12 15.6214 
3 *256:12 *950:A2 27.4329 
4 *256:12 *949:B 23 
*END

*D_NET *257 0.00107587
*CONN
*I *952:A2 I *D sky130_fd_sc_hd__a21bo_1
*I *951:B I *D sky130_fd_sc_hd__xnor2_1
*I *950:X O *D sky130_fd_sc_hd__a21bo_1
*CAP
1 *952:A2 0
2 *951:B 2.79296e-05
3 *950:X 7.83356e-05
4 *257:21 0.000155802
5 *257:6 0.000262067
6 *257:21 *302:124 1.12487e-05
7 *257:21 *334:10 0
8 *257:21 *368:100 9.84794e-05
9 *257:21 *368:108 0.000195248
10 *798:B *257:21 5.50106e-05
11 *951:A *951:B 5.50049e-05
12 *951:A *257:6 0.000136743
*RES
1 *950:X *257:6 24.5743 
2 *257:6 *951:B 23.6214 
3 *257:6 *257:21 34.06 
4 *257:21 *952:A2 23 
*END

*D_NET *258 0.00211863
*CONN
*I *953:B I *D sky130_fd_sc_hd__xnor2_1
*I *952:X O *D sky130_fd_sc_hd__a21bo_1
*CAP
1 *953:B 4.22059e-05
2 *952:X 0.000498974
3 *258:10 0.00054118
4 *258:10 *280:8 0.000114083
5 *258:10 *302:57 6.05451e-05
6 *258:10 *302:78 2.71502e-05
7 *258:10 *332:39 1.01436e-05
8 *258:10 *336:14 0.000375718
9 *258:10 *340:30 0
10 *258:10 *368:74 4.67488e-05
11 *258:10 *368:100 0.000192031
12 *953:A *953:B 0.000106382
13 *995:RESET_B *953:B 0.000103469
*RES
1 *952:X *258:10 47.9843 
2 *258:10 *953:B 40.0507 
*END

*D_NET *259 0.00116228
*CONN
*I *956:A I *D sky130_fd_sc_hd__and2_1
*I *957:A2 I *D sky130_fd_sc_hd__a21o_1
*I *958:C I *D sky130_fd_sc_hd__nand3_1
*I *954:X O *D sky130_fd_sc_hd__or2_1
*CAP
1 *956:A 5.63943e-05
2 *957:A2 0
3 *958:C 9.12256e-05
4 *954:X 9.65959e-05
5 *259:19 5.63943e-05
6 *259:8 0.000187822
7 *956:A *959:A 0.000183733
8 *958:C *261:10 0
9 *259:8 *303:90 0
10 *958:B *958:C 0.000138727
11 *156:25 *956:A 0.000140259
12 *156:25 *958:C 4.23714e-05
13 *157:29 *958:C 1.14452e-05
14 *157:29 *259:8 0.000157309
*RES
1 *954:X *259:8 40.2579 
2 *259:8 *958:C 40.2579 
3 *259:8 *259:19 15 
4 *259:19 *957:A2 23 
5 *259:19 *956:A 25.0507 
*END

*D_NET *260 0.00100624
*CONN
*I *956:B I *D sky130_fd_sc_hd__and2_1
*I *955:Y O *D sky130_fd_sc_hd__nand2_1
*CAP
1 *956:B 0
2 *955:Y 0.000407436
3 *260:10 0.000407436
4 *260:10 *974:A 0
5 *260:10 *262:10 0
6 *260:10 *273:10 0
7 *260:10 *303:90 9.28842e-05
8 *831:C *260:10 9.84851e-05
9 *954:A *260:10 0
*RES
1 *955:Y *260:10 44.1729 
2 *260:10 *956:B 38 
*END

*D_NET *261 0.00446338
*CONN
*I *959:A I *D sky130_fd_sc_hd__and2_1
*I *960:A2 I *D sky130_fd_sc_hd__a21oi_1
*I *961:C I *D sky130_fd_sc_hd__and3_1
*I *957:X O *D sky130_fd_sc_hd__a21o_1
*CAP
1 *959:A 0.000396441
2 *960:A2 0.000126639
3 *961:C 0.000299283
4 *957:X 2.95294e-05
5 *261:10 0.000746344
6 *261:6 0.000746392
7 *959:A *273:10 5.70419e-05
8 *959:A *274:10 5.41385e-05
9 *960:A2 *369:39 6.68822e-05
10 *961:C *369:39 0.00018282
11 *824:A *960:A2 0.000141052
12 *824:A *961:C 4.04303e-05
13 *824:B *961:C 7.70737e-05
14 *824:B *261:10 5.94125e-05
15 *834:B2 *961:C 3.70094e-05
16 *834:B2 *261:10 0.000178773
17 *956:A *959:A 0.000183733
18 *958:B *261:10 4.58924e-05
19 *958:C *261:10 0
20 *960:A1 *960:A2 0.000162211
21 *960:B1 *960:A2 0.000196166
22 *960:B1 *961:C 5.84338e-05
23 *150:12 *961:C 1.01436e-05
24 *151:16 *961:C 6.16531e-05
25 *153:19 *261:10 0
26 *154:8 *960:A2 0.000340884
27 *156:10 *261:10 0
28 *156:25 *959:A 6.07078e-05
29 *156:25 *261:10 0
30 *156:35 *959:A 4.2573e-05
31 *156:35 *261:6 5.50049e-05
32 *157:29 *261:10 6.7177e-06
*RES
1 *957:X *261:6 23.6214 
2 *261:6 *261:10 20.7793 
3 *261:10 *961:C 43.2407 
4 *261:10 *960:A2 43.8829 
5 *261:6 *959:A 31.2443 
*END

*D_NET *262 0.00113945
*CONN
*I *959:B I *D sky130_fd_sc_hd__and2_1
*I *958:Y O *D sky130_fd_sc_hd__nand3_1
*CAP
1 *959:B 0
2 *958:Y 0.000440216
3 *262:10 0.000440216
4 *262:10 *987:CLK 0
5 *262:10 *274:10 0
6 *262:10 *303:90 0
7 *262:10 *368:169 0.000195283
8 *63:11 *262:10 6.37358e-05
9 *74:8 *262:10 0
10 *260:10 *262:10 0
*RES
1 *958:Y *262:10 45.6229 
2 *262:10 *959:B 38 
*END

*D_NET *263 0.00112106
*CONN
*I *962:A I *D sky130_fd_sc_hd__nor2_1
*I *963:B1 I *D sky130_fd_sc_hd__a21oi_1
*I *960:Y O *D sky130_fd_sc_hd__a21oi_1
*CAP
1 *962:A 0
2 *963:B1 0.00031838
3 *960:Y 8.40434e-05
4 *263:10 0.000402423
5 *963:B1 *963:A2 0.000184527
6 *963:B1 *332:56 0
7 *963:B1 *364:6 6.17437e-06
8 *963:B1 *364:28 4.21378e-05
9 *263:10 *264:12 1.11538e-05
10 *263:10 *332:56 0
11 *263:10 *369:27 1.01436e-05
12 *960:B1 *263:10 5.37348e-06
13 *149:10 *963:B1 5.67058e-05
14 *162:8 *963:B1 0
15 *162:8 *263:10 0
*RES
1 *960:Y *263:10 39.4707 
2 *263:10 *963:B1 43.2614 
3 *263:10 *962:A 38 
*END

*D_NET *264 0.000769749
*CONN
*I *962:B I *D sky130_fd_sc_hd__nor2_1
*I *961:X O *D sky130_fd_sc_hd__and3_1
*CAP
1 *962:B 0
2 *961:X 0.000241459
3 *264:12 0.000241459
4 *264:12 *275:10 5.67058e-05
5 *264:12 *369:27 3.44446e-05
6 *960:A1 *264:12 0
7 *960:B1 *264:12 0.000184527
8 *263:10 *264:12 1.11538e-05
*RES
1 *961:X *264:12 27.6193 
2 *264:12 *962:B 23 
*END

*D_NET *265 0.000444516
*CONN
*I *964:B I *D sky130_fd_sc_hd__xnor2_1
*I *963:Y O *D sky130_fd_sc_hd__a21oi_1
*CAP
1 *964:B 0.00017138
2 *963:Y 0.00017138
3 *964:B *963:A2 0.000101757
*RES
1 *963:Y *964:B 49.5007 
*END

*D_NET *266 0.000225818
*CONN
*I *967:B I *D sky130_fd_sc_hd__nor2_1
*I *966:X O *D sky130_fd_sc_hd__o21a_1
*CAP
1 *967:B 8.69266e-05
2 *966:X 8.69266e-05
3 *967:B *271:10 2.30292e-05
4 *966:A2 *967:B 0
5 *967:A *967:B 2.8936e-05
*RES
1 *966:X *967:B 48.0714 
*END

*D_NET *267 0.000248321
*CONN
*I *969:B I *D sky130_fd_sc_hd__xnor2_1
*I *968:Y O *D sky130_fd_sc_hd__nor2_1
*CAP
1 *969:B 0.000124161
2 *968:Y 0.000124161
*RES
1 *968:Y *969:B 48.0507 
*END

*D_NET *268 0.000219482
*CONN
*I *971:B I *D sky130_fd_sc_hd__and2_1
*I *970:X O *D sky130_fd_sc_hd__or2_1
*CAP
1 *971:B 5.2867e-05
2 *970:X 5.2867e-05
3 *971:B *970:A 7.53384e-06
4 *971:B *357:25 4.95081e-05
5 *971:A *971:B 5.67058e-05
*RES
1 *970:X *971:B 47.5743 
*END

*D_NET *269 0.000583664
*CONN
*I *980:D I *D sky130_fd_sc_hd__dfrtp_1
*I *971:X O *D sky130_fd_sc_hd__and2_1
*CAP
1 *980:D 0
2 *971:X 0.000256574
3 *269:10 0.000256574
4 *269:10 *970:A 0
5 *269:10 *357:25 7.05156e-05
*RES
1 *971:X *269:10 42.0807 
2 *269:10 *980:D 38 
*END

*D_NET *270 0.000706409
*CONN
*I *981:D I *D sky130_fd_sc_hd__dfrtp_1
*I *965:Y O *D sky130_fd_sc_hd__xnor2_1
*CAP
1 *981:D 0.00010036
2 *965:Y 0.000238894
3 *270:8 0.000339254
4 *270:8 *368:173 0
5 *141:14 *270:8 0
6 *142:10 *270:8 2.79004e-05
*RES
1 *965:Y *270:8 42.3707 
2 *270:8 *981:D 39.5743 
*END

*D_NET *271 0.000509546
*CONN
*I *982:D I *D sky130_fd_sc_hd__dfrtp_1
*I *967:Y O *D sky130_fd_sc_hd__nor2_1
*CAP
1 *982:D 0
2 *967:Y 0.000243258
3 *271:10 0.000243258
4 *967:B *271:10 2.30292e-05
*RES
1 *967:Y *271:10 41.6043 
2 *271:10 *982:D 38 
*END

*D_NET *272 0.000322304
*CONN
*I *983:D I *D sky130_fd_sc_hd__dfrtp_4
*I *969:Y O *D sky130_fd_sc_hd__xnor2_1
*CAP
1 *983:D 6.57281e-05
2 *969:Y 6.87722e-05
3 *272:8 0.0001345
4 *983:D *303:75 2.78884e-05
5 *272:8 *303:75 0
6 *147:10 *272:8 2.5415e-05
*RES
1 *969:Y *272:8 39.2014 
2 *272:8 *983:D 38.9995 
*END

*D_NET *273 0.000435217
*CONN
*I *984:D I *D sky130_fd_sc_hd__dfrtp_1
*I *956:X O *D sky130_fd_sc_hd__and2_1
*CAP
1 *984:D 0
2 *956:X 0.000189087
3 *273:10 0.000189087
4 *273:10 *974:A 0
5 *959:A *273:10 5.70419e-05
6 *260:10 *273:10 0
*RES
1 *956:X *273:10 41.0036 
2 *273:10 *984:D 38 
*END

*D_NET *274 0.000386455
*CONN
*I *985:D I *D sky130_fd_sc_hd__dfrtp_1
*I *959:X O *D sky130_fd_sc_hd__and2_1
*CAP
1 *985:D 0
2 *959:X 0.00014197
3 *274:10 0.00014197
4 *274:10 *303:90 4.83778e-05
5 *959:A *274:10 5.41385e-05
6 *262:10 *274:10 0
*RES
1 *959:X *274:10 41.0036 
2 *274:10 *985:D 38 
*END

*D_NET *275 0.00165889
*CONN
*I *986:D I *D sky130_fd_sc_hd__dfrtp_1
*I *962:Y O *D sky130_fd_sc_hd__nor2_1
*CAP
1 *986:D 0.000588912
2 *962:Y 0.000170431
3 *275:10 0.000759344
4 *986:D *302:124 4.00259e-06
5 *275:10 *332:56 4.08641e-05
6 *275:10 *369:27 3.86324e-05
7 *264:12 *275:10 5.67058e-05
*RES
1 *962:Y *275:10 40.7757 
2 *275:10 *986:D 45.3121 
*END

*D_NET *276 0.000519847
*CONN
*I *987:D I *D sky130_fd_sc_hd__dfrtp_1
*I *964:Y O *D sky130_fd_sc_hd__xnor2_1
*CAP
1 *987:D 0.000225184
2 *964:Y 0.000225184
3 *987:D *987:CLK 5.70419e-05
4 *964:A *987:D 1.24376e-05
*RES
1 *964:Y *987:D 49.9771 
*END

*D_NET *277 0.000892546
*CONN
*I *988:D I *D sky130_fd_sc_hd__dfrtp_1
*I *947:X O *D sky130_fd_sc_hd__and2_1
*CAP
1 *988:D 0.000127712
2 *947:X 0.000241038
3 *277:8 0.000368749
4 *988:D *303:42 2.93845e-05
5 *277:8 *301:10 0
6 *277:8 *303:42 0.000115519
7 *35:13 *277:8 0
8 *166:12 *277:8 1.01436e-05
*RES
1 *947:X *277:8 43.4271 
2 *277:8 *988:D 40.0507 
*END

*D_NET *278 0.00188278
*CONN
*I *989:D I *D sky130_fd_sc_hd__dfrtp_1
*I *949:Y O *D sky130_fd_sc_hd__xnor2_1
*CAP
1 *989:D 0
2 *949:Y 0.000836534
3 *278:14 0.000836534
4 *278:14 *989:CLK 5.37348e-06
5 *278:14 *367:10 9.84851e-05
6 *128:23 *278:14 1.40958e-05
7 *129:33 *278:14 5.67058e-05
8 *130:10 *278:14 2.4754e-05
9 *156:35 *278:14 1.02949e-05
*RES
1 *949:Y *278:14 35.7393 
2 *278:14 *989:D 23 
*END

*D_NET *279 0.00149538
*CONN
*I *990:D I *D sky130_fd_sc_hd__dfrtp_1
*I *951:Y O *D sky130_fd_sc_hd__xnor2_1
*CAP
1 *990:D 0
2 *951:Y 0.000620292
3 *279:14 0.000620292
4 *279:14 *302:16 8.7684e-05
5 *279:14 *302:18 0.000112105
6 *279:14 *334:10 5.50106e-05
*RES
1 *951:Y *279:14 32.8807 
2 *279:14 *990:D 23 
*END

*D_NET *280 0.000424137
*CONN
*I *991:D I *D sky130_fd_sc_hd__dfrtp_1
*I *953:Y O *D sky130_fd_sc_hd__xnor2_1
*CAP
1 *991:D 5.39135e-05
2 *953:Y 4.48858e-05
3 *280:8 9.87993e-05
4 *280:8 *302:78 0.000112455
5 *258:10 *280:8 0.000114083
*RES
1 *953:Y *280:8 39.5536 
2 *280:8 *991:D 38.6214 
*END

*D_NET *281 0.00182858
*CONN
*I *992:D I *D sky130_fd_sc_hd__dfrtp_1
*I *939:X O *D sky130_fd_sc_hd__xor2_1
*CAP
1 *992:D 0.000450787
2 *939:X 5.28173e-05
3 *281:8 0.000503604
4 *992:D *336:8 0.000144231
5 *855:A1 *992:D 1.5769e-05
6 *131:27 *992:D 2.93845e-05
7 *166:16 *992:D 0.000325858
8 *168:10 *992:D 2.64616e-05
9 *168:10 *281:8 0.000138718
10 *183:21 *281:8 0.000140949
*RES
1 *939:X *281:8 39.9057 
2 *281:8 *992:D 48.6264 
*END

*D_NET *282 0.000768578
*CONN
*I *993:D I *D sky130_fd_sc_hd__dfrtp_1
*I *941:Y O *D sky130_fd_sc_hd__xnor2_1
*CAP
1 *993:D 0
2 *941:Y 0.000258072
3 *282:8 0.000258072
4 *282:8 *852:A 0
5 *282:8 *302:32 6.9805e-05
6 *282:8 *337:40 4.94192e-05
7 *851:A *282:8 5.67058e-05
8 *851:B *282:8 2.32004e-05
9 *941:A *282:8 5.3304e-05
*RES
1 *941:Y *282:8 28.4064 
2 *282:8 *993:D 23 
*END

*D_NET *283 0.00138514
*CONN
*I *994:D I *D sky130_fd_sc_hd__dfrtp_1
*I *943:Y O *D sky130_fd_sc_hd__xnor2_1
*CAP
1 *994:D 0
2 *943:Y 0.000424711
3 *283:8 0.000424711
4 *283:8 *753:A 0
5 *283:8 *284:10 4.96264e-05
6 *283:8 *302:86 0.00021342
7 *283:8 *332:12 7.8128e-05
8 *283:8 *368:10 0.000138727
9 *850:A *283:8 5.58171e-05
10 *83:8 *283:8 0
*RES
1 *943:Y *283:8 46.2443 
2 *283:8 *994:D 38 
*END

*D_NET *284 0.000771648
*CONN
*I *995:D I *D sky130_fd_sc_hd__dfrtp_1
*I *945:Y O *D sky130_fd_sc_hd__xnor2_1
*CAP
1 *995:D 0
2 *945:Y 0.000268809
3 *284:10 0.000268809
4 *284:10 *753:A 0
5 *945:A *284:10 0.000184402
6 *283:8 *284:10 4.96264e-05
*RES
1 *945:Y *284:10 42.0807 
2 *284:10 *995:D 38 
*END

*D_NET *285 0.0010083
*CONN
*I *996:D I *D sky130_fd_sc_hd__dfrtp_1
*I *931:X O *D sky130_fd_sc_hd__xor2_1
*CAP
1 *996:D 0
2 *931:X 0.00050415
3 *285:6 0.00050415
*RES
1 *931:X *285:6 31.2443 
2 *285:6 *996:D 23 
*END

*D_NET *286 0.00084557
*CONN
*I *997:D I *D sky130_fd_sc_hd__dfrtp_1
*I *934:Y O *D sky130_fd_sc_hd__nor2_1
*CAP
1 *997:D 0.000306022
2 *934:Y 7.99533e-05
3 *286:8 0.000385975
4 *997:D *756:A 7.36197e-05
*RES
1 *934:Y *286:8 39.2014 
2 *286:8 *997:D 42.3396 
*END

*D_NET *287 0.000411462
*CONN
*I *998:D I *D sky130_fd_sc_hd__dfrtp_1
*I *936:Y O *D sky130_fd_sc_hd__xnor2_1
*CAP
1 *998:D 8.91398e-05
2 *936:Y 8.91398e-05
3 *998:D *304:28 0.000120935
4 *998:D *343:16 0.000112248
*RES
1 *936:Y *998:D 49.2521 
*END

*D_NET *288 0.00120611
*CONN
*I *999:D I *D sky130_fd_sc_hd__dfrtp_1
*I *938:Y O *D sky130_fd_sc_hd__xnor2_1
*CAP
1 *999:D 0
2 *938:Y 0.000472038
3 *288:10 0.000472038
4 *288:10 *310:12 0.000211677
5 *999:RESET_B *288:10 5.03619e-05
*RES
1 *938:Y *288:10 32.8393 
2 *288:10 *999:D 23 
*END

*D_NET *289 0.000371023
*CONN
*I *1000:D I *D sky130_fd_sc_hd__dfrtp_1
*I *923:Y O *D sky130_fd_sc_hd__xnor2_1
*CAP
1 *1000:D 6.89502e-05
2 *923:Y 6.89502e-05
3 *1000:D *1000:CLK 5.56356e-05
4 *1000:D *346:14 0.000103415
5 *198:18 *1000:D 7.40718e-05
*RES
1 *923:Y *1000:D 48.5479 
*END

*D_NET *290 0.000330002
*CONN
*I *1001:D I *D sky130_fd_sc_hd__dfrtp_1
*I *925:Y O *D sky130_fd_sc_hd__xnor2_1
*CAP
1 *1001:D 0
2 *925:Y 6.81418e-05
3 *290:8 6.81418e-05
4 *877:B *290:8 6.48142e-05
5 *205:10 *290:8 8.4047e-05
6 *206:8 *290:8 4.48568e-05
*RES
1 *925:Y *290:8 39.9057 
2 *290:8 *1001:D 38 
*END

*D_NET *291 0.000784021
*CONN
*I *1002:D I *D sky130_fd_sc_hd__dfrtp_1
*I *927:Y O *D sky130_fd_sc_hd__xnor2_1
*CAP
1 *1002:D 0
2 *927:Y 0.000277559
3 *291:10 0.000277559
4 *291:10 *370:142 0
5 *927:A *291:10 0.000228903
6 *91:8 *291:10 0
7 *208:8 *291:10 0
8 *245:8 *291:10 0
*RES
1 *927:Y *291:10 43.4893 
2 *291:10 *1002:D 38 
*END

*D_NET *292 0.000808524
*CONN
*I *1003:D I *D sky130_fd_sc_hd__dfrtp_1
*I *929:Y O *D sky130_fd_sc_hd__xnor2_1
*CAP
1 *1003:D 0.000184935
2 *929:Y 5.54894e-05
3 *292:8 0.000240425
4 *1003:D *1002:CLK 0.000103456
5 *1003:D *304:76 6.97637e-05
6 *208:27 *292:8 3.98887e-05
7 *212:16 *292:8 0.000114566
*RES
1 *929:Y *292:8 39.5536 
2 *292:8 *1003:D 41.48 
*END

*D_NET *293 0.000800264
*CONN
*I *1004:D I *D sky130_fd_sc_hd__dfrtp_1
*I *915:Y O *D sky130_fd_sc_hd__nor2_1
*CAP
1 *1004:D 7.56722e-05
2 *915:Y 0.000222665
3 *293:8 0.000298338
4 *894:B1 *293:8 0
5 *915:A *293:8 0.000159661
6 *120:10 *293:8 0
7 *223:8 *1004:D 4.39278e-05
*RES
1 *915:Y *293:8 42.3707 
2 *293:8 *1004:D 39.5743 
*END

*D_NET *294 0.00119638
*CONN
*I *1005:D I *D sky130_fd_sc_hd__dfrtp_1
*I *917:Y O *D sky130_fd_sc_hd__xnor2_1
*CAP
1 *1005:D 0
2 *917:Y 0.00042804
3 *294:8 0.00042804
4 *294:8 *764:A 5.67058e-05
5 *294:8 *352:12 5.70419e-05
6 *294:8 *352:23 9.90162e-05
7 *1005:RESET_B *294:8 0.000127537
*RES
1 *917:Y *294:8 33.1707 
2 *294:8 *1005:D 23 
*END

*D_NET *295 0.000562583
*CONN
*I *1006:D I *D sky130_fd_sc_hd__dfrtp_1
*I *920:Y O *D sky130_fd_sc_hd__xnor2_1
*CAP
1 *1006:D 0
2 *920:Y 0.00013948
3 *295:10 0.00013948
4 *295:10 *1074:A 4.5882e-05
5 *295:10 *370:55 9.58714e-05
6 *241:8 *295:10 0.000141869
*RES
1 *920:Y *295:10 41.0036 
2 *295:10 *1006:D 38 
*END

*D_NET *296 0.000737313
*CONN
*I *1007:D I *D sky130_fd_sc_hd__dfrtp_1
*I *922:X O *D sky130_fd_sc_hd__xor2_1
*CAP
1 *1007:D 0
2 *922:X 0.00030956
3 *296:10 0.00030956
4 *296:10 *1007:CLK 0
5 *784:A *296:10 4.95081e-05
6 *784:B *296:10 5.67058e-05
7 *233:8 *296:10 1.19796e-05
*RES
1 *922:X *296:10 44.09 
2 *296:10 *1007:D 38 
*END

*D_NET *297 0.000400346
*CONN
*I *1008:D I *D sky130_fd_sc_hd__dfrtp_1
*I *898:Y O *D sky130_fd_sc_hd__xnor2_1
*CAP
1 *1008:D 0
2 *898:Y 0.000190438
3 *297:10 0.000190438
4 *297:10 *982:CLK 0
5 *297:10 *301:28 0
6 *297:10 *305:10 0
7 *103:12 *297:10 1.94693e-05
*RES
1 *898:Y *297:10 41.2314 
2 *297:10 *1008:D 38 
*END

*D_NET *298 0.000638975
*CONN
*I *1009:D I *D sky130_fd_sc_hd__dfrtp_1
*I *903:Y O *D sky130_fd_sc_hd__xnor2_1
*CAP
1 *1009:D 0
2 *903:Y 0.000191372
3 *298:8 0.000191372
4 *903:A *298:8 0.000167431
5 *903:B *298:8 8.88006e-05
*RES
1 *903:Y *298:8 27.4536 
2 *298:8 *1009:D 23 
*END

*D_NET *299 0.000496875
*CONN
*I *1010:D I *D sky130_fd_sc_hd__dfrtp_1
*I *908:Y O *D sky130_fd_sc_hd__xnor2_1
*CAP
1 *1010:D 0.000221899
2 *908:Y 0.000221899
3 *908:B *1010:D 5.30758e-05
*RES
1 *908:Y *1010:D 48.9052 
*END

*D_NET *300 0.000325469
*CONN
*I *1011:D I *D sky130_fd_sc_hd__dfrtp_1
*I *913:Y O *D sky130_fd_sc_hd__xnor2_1
*CAP
1 *1011:D 1.45987e-05
2 *913:Y 6.86e-05
3 *300:8 8.31987e-05
4 *1011:D *319:16 1.73399e-05
5 *1011:D *355:42 5.50106e-05
6 *300:8 *305:77 5.45887e-05
7 *227:17 *300:8 3.21327e-05
*RES
1 *913:Y *300:8 39.5536 
2 *300:8 *1011:D 38.6214 
*END

*D_NET *301 0.00781254
*CONN
*I *1016:A I *D sky130_fd_sc_hd__clkbuf_16
*I *1015:A I *D sky130_fd_sc_hd__clkbuf_16
*I *1014:A I *D sky130_fd_sc_hd__clkbuf_16
*I *1013:A I *D sky130_fd_sc_hd__clkbuf_16
*I *1012:X O *D sky130_fd_sc_hd__clkbuf_16
*CAP
1 *1016:A 0.000268724
2 *1015:A 0
3 *1014:A 0.000177788
4 *1013:A 0.000268517
5 *1012:X 0
6 *301:40 0.000616053
7 *301:28 0.00167553
8 *301:10 0.00117197
9 *301:6 0.00151642
10 *301:10 *332:56 0.000296001
11 *301:28 *759:A 0
12 *301:28 *332:56 0.000131009
13 *301:28 *351:25 0.000118174
14 *301:40 *763:A 7.53384e-06
15 *301:40 *351:12 8.62783e-05
16 *301:40 *351:25 6.30615e-05
17 *803:C *301:10 0
18 *835:A1 *1014:A 6.68919e-05
19 *835:B1 *1014:A 0.00010018
20 *837:A1 *301:10 5.15096e-05
21 *898:A *1016:A 2.93747e-05
22 *103:12 *1016:A 0.000103647
23 *118:17 *301:40 0.000360023
24 *136:20 *301:10 0.000238194
25 *161:14 *301:10 0.000235024
26 *164:10 *1013:A 5.37348e-06
27 *164:10 *1014:A 2.80394e-05
28 *164:10 *301:10 7.03869e-05
29 *164:23 *301:10 7.64851e-06
30 *166:12 *301:10 0
31 *224:6 *301:40 2.65879e-05
32 *225:10 *301:28 9.26005e-05
33 *256:8 *301:10 0
34 *277:8 *301:10 0
35 *297:10 *301:28 0
*RES
1 *1012:X *301:6 38 
2 *301:6 *301:10 32.4 
3 *301:10 *1013:A 27.4329 
4 *301:10 *1014:A 26.48 
5 *301:6 *301:28 32.0479 
6 *301:28 *301:40 39.6114 
7 *301:40 *1015:A 23 
8 *301:28 *1016:A 26.9771 
*END

*D_NET *302 0.0141064
*CONN
*I *986:CLK I *D sky130_fd_sc_hd__dfrtp_1
*I *996:CLK I *D sky130_fd_sc_hd__dfrtp_1
*I *1017:A I *D sky130_fd_sc_hd__clkbuf_4
*I *995:CLK I *D sky130_fd_sc_hd__dfrtp_1
*I *994:CLK I *D sky130_fd_sc_hd__dfrtp_1
*I *991:CLK I *D sky130_fd_sc_hd__dfrtp_1
*I *990:CLK I *D sky130_fd_sc_hd__dfrtp_1
*I *993:CLK I *D sky130_fd_sc_hd__dfrtp_1
*I *997:CLK I *D sky130_fd_sc_hd__dfrtp_1
*I *1013:X O *D sky130_fd_sc_hd__clkbuf_16
*CAP
1 *986:CLK 0
2 *996:CLK 0
3 *1017:A 0
4 *995:CLK 0
5 *994:CLK 0
6 *991:CLK 2.74991e-05
7 *990:CLK 0
8 *993:CLK 0
9 *997:CLK 0
10 *1013:X 0
11 *302:124 0.000732484
12 *302:109 0.000566152
13 *302:103 0.00129864
14 *302:86 0.00025664
15 *302:78 0.00130795
16 *302:57 0.00138972
17 *302:38 0.000253395
18 *302:32 0.000818108
19 *302:18 0.00079121
20 *302:16 0.000848309
21 *302:8 0.000754598
22 *302:4 0.000443703
23 *302:16 *336:14 8.68575e-05
24 *302:16 *368:108 0
25 *302:32 *337:40 0.000274899
26 *302:32 *368:10 0
27 *302:38 *756:A 0.000130685
28 *302:38 *853:A 0
29 *302:38 *336:46 0
30 *302:57 *332:35 8.29264e-05
31 *302:57 *332:39 0.000292588
32 *302:78 *753:A 0.000179917
33 *302:109 *368:108 0.000139647
34 *302:109 *368:116 0.000349567
35 *302:124 *334:10 0
36 *302:124 *368:108 0.00042214
37 *795:A *302:124 9.76358e-05
38 *804:A2 *302:124 3.53115e-05
39 *851:A *302:32 5.67058e-05
40 *851:B *302:32 1.14154e-05
41 *857:B1 *302:32 4.16868e-05
42 *857:B1 *302:38 0
43 *986:D *302:124 4.00259e-06
44 *995:RESET_B *302:78 0.000484827
45 *35:13 *302:109 0
46 *81:10 *302:109 0.000166522
47 *83:8 *302:86 0
48 *124:23 *302:124 3.93158e-05
49 *125:12 *302:124 7.76364e-06
50 *126:10 *302:124 0.000118285
51 *133:12 *302:109 4.06408e-05
52 *133:12 *302:124 0.00043275
53 *169:21 *302:32 0.000141879
54 *171:10 *302:32 3.62323e-05
55 *175:16 *302:57 0
56 *175:16 *302:78 0
57 *180:8 *302:38 0
58 *252:16 *302:32 7.76364e-06
59 *252:16 *302:38 0.000168754
60 *253:8 *302:32 7.28526e-05
61 *257:21 *302:124 1.12487e-05
62 *258:10 *302:57 6.05451e-05
63 *258:10 *302:78 2.71502e-05
64 *279:14 *302:16 8.7684e-05
65 *279:14 *302:18 0.000112105
66 *280:8 *302:78 0.000112455
67 *282:8 *302:32 6.9805e-05
68 *283:8 *302:86 0.00021342
*RES
1 *1013:X *302:4 23 
2 *302:4 *302:8 5.88286 
3 *302:8 *302:16 36.3179 
4 *302:16 *302:18 4.90929 
5 *302:18 *302:32 42.2007 
6 *302:32 *302:38 35.7793 
7 *302:38 *997:CLK 23 
8 *302:32 *993:CLK 23 
9 *302:18 *990:CLK 23 
10 *302:16 *302:57 20.7793 
11 *302:57 *991:CLK 38.6214 
12 *302:57 *302:78 31.4057 
13 *302:78 *302:86 35.0129 
14 *302:86 *994:CLK 23 
15 *302:78 *995:CLK 23 
16 *302:8 *1017:A 23 
17 *302:4 *302:103 15 
18 *302:103 *302:109 28.7957 
19 *302:109 *996:CLK 23 
20 *302:103 *302:124 32.7936 
21 *302:124 *986:CLK 23 
*END

*D_NET *303 0.0100243
*CONN
*I *984:CLK I *D sky130_fd_sc_hd__dfrtp_1
*I *985:CLK I *D sky130_fd_sc_hd__dfrtp_1
*I *987:CLK I *D sky130_fd_sc_hd__dfrtp_1
*I *981:CLK I *D sky130_fd_sc_hd__dfrtp_1
*I *983:CLK I *D sky130_fd_sc_hd__dfrtp_4
*I *1018:A I *D sky130_fd_sc_hd__clkbuf_4
*I *988:CLK I *D sky130_fd_sc_hd__dfrtp_1
*I *992:CLK I *D sky130_fd_sc_hd__dfrtp_1
*I *989:CLK I *D sky130_fd_sc_hd__dfrtp_1
*I *1014:X O *D sky130_fd_sc_hd__clkbuf_16
*CAP
1 *984:CLK 4.09889e-05
2 *985:CLK 0
3 *987:CLK 0.000322456
4 *981:CLK 0
5 *983:CLK 2.34823e-05
6 *1018:A 0
7 *988:CLK 0
8 *992:CLK 2.08704e-05
9 *989:CLK 0.000218159
10 *1014:X 0
11 *303:90 0.000558194
12 *303:84 0.000512646
13 *303:75 0.000341411
14 *303:60 0.000925216
15 *303:42 0.000393556
16 *303:27 0.000969732
17 *303:23 0.000555306
18 *303:21 0.000863086
19 *303:8 0.000698682
20 *303:4 0.000413681
21 *987:CLK *329:14 3.39231e-05
22 *303:27 *330:12 9.84794e-05
23 *303:60 *806:B 2.46468e-05
24 *303:60 *818:B 0.000170538
25 *303:60 *324:24 5.50106e-05
26 *303:60 *330:18 3.83778e-05
27 *303:75 *818:B 0
28 *303:75 *368:173 0
29 *817:B1 *303:21 0
30 *831:A *989:CLK 2.72055e-05
31 *831:A *303:21 2.29192e-05
32 *831:B *989:CLK 7.03766e-05
33 *831:B *303:21 5.97612e-05
34 *832:B1 *303:21 0
35 *835:A1 *303:8 5.12328e-05
36 *835:A3 *303:8 2.07355e-05
37 *835:A3 *303:84 0.000272377
38 *837:A1 *303:27 0.000139357
39 *837:A2 *303:27 5.3304e-05
40 *947:A *992:CLK 5.67058e-05
41 *954:B *984:CLK 0.000114248
42 *954:B *303:84 1.32314e-05
43 *983:D *303:75 2.78884e-05
44 *987:D *987:CLK 5.70419e-05
45 *988:D *303:42 2.93845e-05
46 *35:13 *303:42 0
47 *131:27 *992:CLK 1.76557e-05
48 *134:10 *303:21 0
49 *134:10 *303:60 0
50 *134:18 *303:21 0
51 *136:6 *303:27 7.73389e-05
52 *136:12 *303:27 0.000185176
53 *146:12 *303:21 0
54 *147:10 *303:75 0
55 *153:19 *989:CLK 5.68527e-05
56 *156:10 *987:CLK 0.000296035
57 *156:25 *987:CLK 1.14452e-05
58 *156:25 *303:90 0.000158229
59 *156:35 *989:CLK 0.000114357
60 *157:18 *984:CLK 6.82611e-05
61 *157:18 *303:84 0.000169834
62 *157:18 *303:90 4.00259e-06
63 *157:29 *303:90 0
64 *163:8 *989:CLK 0
65 *165:6 *992:CLK 1.32314e-05
66 *165:6 *303:27 9.00923e-05
67 *166:12 *303:27 2.80394e-05
68 *166:12 *303:42 2.24973e-05
69 *166:16 *992:CLK 4.79544e-05
70 *166:16 *303:27 9.67842e-05
71 *255:10 *303:42 1.01436e-05
72 *259:8 *303:90 0
73 *260:10 *303:90 9.28842e-05
74 *262:10 *987:CLK 0
75 *262:10 *303:90 0
76 *272:8 *303:75 0
77 *274:10 *303:90 4.83778e-05
78 *277:8 *303:42 0.000115519
79 *278:14 *989:CLK 5.37348e-06
*RES
1 *1014:X *303:4 23 
2 *303:4 *303:8 17.5271 
3 *303:8 *989:CLK 43.2407 
4 *303:8 *303:21 5.42714 
5 *303:21 *303:23 15 
6 *303:23 *303:27 11.6 
7 *303:27 *992:CLK 24.0979 
8 *303:27 *303:42 37.4779 
9 *303:42 *988:CLK 23 
10 *303:23 *1018:A 23 
11 *303:21 *303:60 24.8186 
12 *303:60 *983:CLK 23.4971 
13 *303:60 *303:75 36.3179 
14 *303:75 *981:CLK 23 
15 *303:4 *303:84 6.58714 
16 *303:84 *303:90 20.5721 
17 *303:90 *987:CLK 45.0221 
18 *303:90 *985:CLK 38 
19 *303:84 *984:CLK 24.5743 
*END

*D_NET *304 0.0122249
*CONN
*I *1004:CLK I *D sky130_fd_sc_hd__dfrtp_1
*I *1005:CLK I *D sky130_fd_sc_hd__dfrtp_1
*I *1006:CLK I *D sky130_fd_sc_hd__dfrtp_1
*I *1003:CLK I *D sky130_fd_sc_hd__dfrtp_1
*I *1002:CLK I *D sky130_fd_sc_hd__dfrtp_1
*I *1001:CLK I *D sky130_fd_sc_hd__dfrtp_1
*I *1000:CLK I *D sky130_fd_sc_hd__dfrtp_1
*I *999:CLK I *D sky130_fd_sc_hd__dfrtp_1
*I *998:CLK I *D sky130_fd_sc_hd__dfrtp_1
*I *1015:X O *D sky130_fd_sc_hd__clkbuf_16
*CAP
1 *1004:CLK 0
2 *1005:CLK 4.09369e-05
3 *1006:CLK 0.000537586
4 *1003:CLK 0
5 *1002:CLK 0.000359043
6 *1001:CLK 0.000473713
7 *1000:CLK 4.383e-05
8 *999:CLK 0
9 *998:CLK 0
10 *1015:X 9.02882e-05
11 *304:110 0.000262332
12 *304:76 0.000536619
13 *304:74 0.000950673
14 *304:68 0.000607593
15 *304:51 0.000998417
16 *304:28 0.000737311
17 *304:14 0.000898824
18 *304:12 0.000538014
19 *304:10 0.000735195
20 *304:6 0.000561586
21 *1000:CLK *346:14 1.03836e-05
22 *1006:CLK *1072:A 9.84851e-05
23 *304:28 *343:16 8.07147e-05
24 *304:110 *370:32 0.000185755
25 *874:A *1000:CLK 9.67842e-05
26 *892:A *1001:CLK 2.02872e-05
27 *892:B *1001:CLK 4.73234e-05
28 *894:A1 *304:110 1.76557e-05
29 *894:A2 *304:12 0
30 *894:A2 *304:110 0.000254673
31 *894:B1 *304:110 0.000156058
32 *895:A1 *304:6 8.17328e-05
33 *895:A1 *304:10 5.3304e-05
34 *895:A2 *304:10 5.56279e-05
35 *895:B1 *304:6 0.000139352
36 *926:A1 *1001:CLK 6.343e-05
37 *928:A1 *1002:CLK 0.000123902
38 *998:D *304:28 0.000120935
39 *1000:D *1000:CLK 5.56356e-05
40 *1003:D *1002:CLK 0.000103456
41 *1003:D *304:76 6.97637e-05
42 *198:18 *1000:CLK 5.56356e-05
43 *198:18 *304:14 0
44 *198:18 *304:28 0
45 *198:39 *304:12 6.02033e-05
46 *198:39 *304:14 1.58805e-05
47 *202:12 *304:12 0
48 *202:12 *304:14 0
49 *210:27 *304:74 0.000429332
50 *212:16 *1002:CLK 0.000128147
51 *212:16 *304:76 7.72975e-05
52 *212:30 *1001:CLK 9.77405e-05
53 *212:30 *304:51 7.69256e-06
54 *212:30 *304:68 4.81212e-05
55 *212:40 *1001:CLK 9.77405e-05
56 *212:40 *304:51 0
57 *214:10 *304:51 0.000138195
58 *214:10 *304:68 4.03973e-05
59 *214:14 *304:10 4.40995e-05
60 *214:28 *304:10 5.50106e-05
61 *214:28 *304:12 7.78726e-05
62 *214:28 *304:51 1.03972e-05
63 *215:31 *304:12 2.12347e-06
64 *217:18 *1000:CLK 5.50106e-05
65 *217:18 *304:12 0.00021079
66 *219:10 *304:10 1.41244e-05
67 *220:8 *304:68 0.000166513
68 *220:8 *304:74 0
69 *221:10 *1001:CLK 2.93335e-05
70 *223:8 *304:110 0.000156058
*RES
1 *1015:X *304:6 25.0507 
2 *304:6 *304:10 18.9564 
3 *304:10 *304:12 5.42714 
4 *304:12 *304:14 2.96214 
5 *304:14 *304:28 28.2986 
6 *304:28 *998:CLK 23 
7 *304:14 *999:CLK 38 
8 *304:12 *1000:CLK 39.5743 
9 *304:10 *304:51 4.01857 
10 *304:51 *1001:CLK 46.265 
11 *304:51 *304:68 21.09 
12 *304:68 *304:74 35.7793 
13 *304:74 *304:76 3.48 
14 *304:76 *1002:CLK 30.7679 
15 *304:76 *1003:CLK 23 
16 *304:74 *1006:CLK 32.1971 
17 *304:68 *1005:CLK 23.6214 
18 *304:6 *304:110 37.9957 
19 *304:110 *1004:CLK 23 
*END

*D_NET *305 0.00978457
*CONN
*I *1011:CLK I *D sky130_fd_sc_hd__dfrtp_1
*I *1007:CLK I *D sky130_fd_sc_hd__dfrtp_1
*I *1010:CLK I *D sky130_fd_sc_hd__dfrtp_1
*I *1009:CLK I *D sky130_fd_sc_hd__dfrtp_1
*I *980:CLK I *D sky130_fd_sc_hd__dfrtp_1
*I *1019:A I *D sky130_fd_sc_hd__clkbuf_8
*I *1008:CLK I *D sky130_fd_sc_hd__dfrtp_1
*I *982:CLK I *D sky130_fd_sc_hd__dfrtp_1
*I *1016:X O *D sky130_fd_sc_hd__clkbuf_16
*CAP
1 *1011:CLK 0
2 *1007:CLK 0.00057317
3 *1010:CLK 0
4 *1009:CLK 0
5 *980:CLK 0.000295132
6 *1019:A 0.000221828
7 *1008:CLK 0.000254283
8 *982:CLK 0.000579128
9 *1016:X 0
10 *305:77 0.00116149
11 *305:73 0.000876598
12 *305:45 0.000499273
13 *305:41 0.000734868
14 *305:10 0.000946094
15 *305:8 0.000614138
16 *305:4 0.00052208
17 *980:CLK *767:A 0
18 *980:CLK *371:14 0.000185428
19 *980:CLK *371:24 0
20 *982:CLK *332:56 0
21 *1007:CLK *354:8 0.000208236
22 *305:73 *772:B 0.00010018
23 *305:73 *773:A 0.000139346
24 *305:73 *319:16 0.00021694
25 *305:73 *355:19 2.18506e-05
26 *305:73 *355:42 1.40958e-05
27 *909:C1 *305:77 3.0647e-05
28 *97:8 *982:CLK 5.80963e-05
29 *98:10 *980:CLK 5.70419e-05
30 *98:10 *305:45 0
31 *101:18 *305:41 2.72257e-05
32 *101:18 *305:73 1.75239e-05
33 *101:40 *305:77 0.00018319
34 *102:10 *305:41 8.08139e-06
35 *103:12 *305:8 0.000160727
36 *103:12 *305:41 4.06849e-05
37 *103:25 *1019:A 0
38 *224:40 *1019:A 0
39 *226:12 *1019:A 5.50049e-05
40 *227:17 *305:77 0
41 *228:25 *305:45 0
42 *228:25 *305:73 6.16531e-05
43 *228:25 *305:77 0
44 *229:8 *305:45 5.56306e-05
45 *230:8 *980:CLK 2.89463e-05
46 *230:8 *305:45 0.000109512
47 *232:20 *305:77 0
48 *233:8 *1007:CLK 0
49 *233:8 *305:77 0
50 *234:12 *1007:CLK 8.94487e-05
51 *234:12 *305:77 0.000376252
52 *236:14 *305:77 4.5035e-05
53 *238:10 *305:77 0.000161121
54 *296:10 *1007:CLK 0
55 *297:10 *982:CLK 0
56 *297:10 *305:10 0
57 *300:8 *305:77 5.45887e-05
*RES
1 *1016:X *305:4 23 
2 *305:4 *305:8 19.4329 
3 *305:8 *305:10 1.90571 
4 *305:10 *982:CLK 49.4136 
5 *305:10 *1008:CLK 42.4329 
6 *305:8 *1019:A 41.9357 
7 *305:4 *305:41 3.48 
8 *305:41 *305:45 19.7229 
9 *305:45 *980:CLK 44.4421 
10 *305:45 *1009:CLK 38 
11 *305:41 *305:73 35.9036 
12 *305:73 *305:77 26.4136 
13 *305:77 *1010:CLK 38 
14 *305:77 *1007:CLK 46.9693 
15 *305:73 *1011:CLK 23 
*END

*D_NET *306 0.00222199
*CONN
*I *814:A I *D sky130_fd_sc_hd__nand2_1
*I *970:A I *D sky130_fd_sc_hd__or2_1
*I *1024:X O *D sky130_fd_sc_hd__clkbuf_1
*CAP
1 *814:A 0
2 *970:A 0.000312964
3 *1024:X 0.000282504
4 *306:8 0.000595468
5 *970:A *333:25 1.46331e-05
6 *970:A *357:25 1.14876e-05
7 *970:A *371:32 4.21594e-06
8 *306:8 *356:10 8.4047e-05
9 *306:8 *356:38 0.00042486
10 *306:8 *371:32 1.94418e-05
11 *306:8 *371:45 0.000148402
12 *971:A *970:A 1.40958e-05
13 *971:B *970:A 7.53384e-06
14 *143:8 *970:A 0.000302339
15 *227:17 *306:8 0
16 *269:10 *970:A 0
*RES
1 *1024:X *306:8 45.54 
2 *306:8 *970:A 44.67 
3 *306:8 *814:A 38 
*END

*D_NET *307 0.00148126
*CONN
*I *870:B1 I *D sky130_fd_sc_hd__o211a_1
*I *861:A I *D sky130_fd_sc_hd__nand2_1
*I *860:A I *D sky130_fd_sc_hd__or2_1
*I *1025:X O *D sky130_fd_sc_hd__buf_1
*CAP
1 *870:B1 8.61942e-05
2 *861:A 5.76889e-05
3 *860:A 0
4 *1025:X 0.000106812
5 *307:16 0.000305401
6 *307:8 0.000440718
7 *861:A *861:B 6.9805e-05
8 *870:B1 *870:C1 6.67764e-05
9 *307:8 *310:12 2.65879e-05
10 *307:16 *860:B 7.53384e-06
11 *307:16 *861:B 9.84851e-05
12 *307:16 *870:C1 0.000122407
13 *307:16 *343:33 1.83564e-05
14 *45:15 *307:8 1.94812e-05
15 *189:10 *861:A 5.50106e-05
16 *201:10 *870:B1 0
17 *201:10 *307:16 0
*RES
1 *1025:X *307:8 39.5743 
2 *307:8 *307:16 20.2614 
3 *307:16 *860:A 23 
4 *307:16 *861:A 24.5743 
5 *307:8 *870:B1 39.9057 
*END

*D_NET *308 0.00198515
*CONN
*I *873:A1 I *D sky130_fd_sc_hd__a211oi_1
*I *863:A I *D sky130_fd_sc_hd__xnor2_1
*I *870:A1 I *D sky130_fd_sc_hd__o211a_1
*I *1026:X O *D sky130_fd_sc_hd__buf_1
*CAP
1 *873:A1 0
2 *863:A 4.17347e-05
3 *870:A1 9.00319e-05
4 *1026:X 0.000343002
5 *308:14 0.000293863
6 *308:10 0.000505098
7 *863:A *870:A2 9.84851e-05
8 *863:A *344:16 4.34745e-05
9 *870:A1 *870:A2 0.0002263
10 *308:10 *876:B 6.17437e-06
11 *308:10 *344:41 3.47776e-05
12 *308:14 *344:33 0.000108682
13 *308:14 *344:41 2.96154e-05
14 *192:10 *863:A 4.6595e-05
15 *192:10 *870:A1 3.22879e-05
16 *199:8 *308:14 4.334e-05
17 *201:10 *308:14 4.16868e-05
*RES
1 *1026:X *308:10 42.6814 
2 *308:10 *308:14 19.0186 
3 *308:14 *870:A1 25.5271 
4 *308:14 *863:A 24.5743 
5 *308:10 *873:A1 38 
*END

*D_NET *309 0.00146068
*CONN
*I *810:A I *D sky130_fd_sc_hd__nand2_1
*I *812:A I *D sky130_fd_sc_hd__nor2_1
*I *1027:X O *D sky130_fd_sc_hd__clkbuf_1
*CAP
1 *810:A 0.000223484
2 *812:A 2.95011e-05
3 *1027:X 0.000269645
4 *309:10 0.00052263
5 *810:A *810:B 5.08899e-05
6 *810:A *321:8 5.3304e-05
7 *810:A *345:21 2.76611e-06
8 *309:10 *345:21 4.41095e-05
9 *309:10 *366:34 2.65879e-05
10 *813:A *309:10 2.93747e-05
11 *815:A2 *309:10 1.08015e-05
12 *1027:A *309:10 2.92149e-05
13 *1039:A *810:A 5.36427e-06
14 *139:8 *810:A 6.57551e-05
15 *139:8 *309:10 4.6318e-06
16 *140:10 *309:10 3.35885e-06
17 *141:6 *812:A 5.50106e-05
18 *141:14 *309:10 0
19 *143:10 *810:A 3.42537e-05
*RES
1 *1027:X *309:10 42.3086 
2 *309:10 *812:A 38.6214 
3 *309:10 *810:A 42.4743 
*END

*D_NET *310 0.0024223
*CONN
*I *887:A I *D sky130_fd_sc_hd__or2_1
*I *886:A I *D sky130_fd_sc_hd__nand2_1
*I *1028:X O *D sky130_fd_sc_hd__clkbuf_1
*CAP
1 *887:A 0.000201967
2 *886:A 0
3 *1028:X 0.000588611
4 *310:14 0.000410068
5 *310:12 0.000796712
6 *887:A *346:22 7.06228e-05
7 *310:14 *344:8 0
8 *864:B *310:14 0
9 *938:A *310:12 3.16665e-05
10 *45:15 *310:12 5.50106e-05
11 *88:8 *310:14 0
12 *192:10 *310:14 0
13 *202:6 *887:A 2.93747e-05
14 *202:12 *887:A 0
15 *202:12 *310:14 0
16 *203:12 *887:A 0
17 *215:10 *887:A 0
18 *215:21 *887:A 0
19 *288:10 *310:12 0.000211677
20 *307:8 *310:12 2.65879e-05
*RES
1 *1028:X *310:12 47.3629 
2 *310:12 *310:14 3.66643 
3 *310:14 *886:A 38 
4 *310:14 *887:A 41.9357 
*END

*D_NET *311 0.00173437
*CONN
*I *875:A I *D sky130_fd_sc_hd__nand2_1
*I *876:A I *D sky130_fd_sc_hd__or2_1
*I *1029:X O *D sky130_fd_sc_hd__clkbuf_1
*CAP
1 *875:A 5.22677e-05
2 *876:A 0
3 *1029:X 0.000304551
4 *311:14 0.000240652
5 *311:8 0.00059747
6 *311:8 *370:142 5.50106e-05
7 *311:14 *875:B 0.000225275
8 *311:14 *876:B 0.000223043
9 *311:14 *370:142 6.7177e-06
10 *877:A *875:A 0
11 *877:B *311:14 0
12 *204:6 *875:A 2.32101e-05
13 *204:6 *311:8 6.17437e-06
14 *205:10 *311:14 0
15 *206:8 *311:14 0
16 *245:8 *311:14 0
*RES
1 *1029:X *311:8 27.93 
2 *311:8 *311:14 36.1314 
3 *311:14 *876:A 23 
4 *311:8 *875:A 24.1186 
*END

*D_NET *312 0.000928167
*CONN
*I *879:A I *D sky130_fd_sc_hd__nand2_1
*I *878:A I *D sky130_fd_sc_hd__or2_1
*I *1030:X O *D sky130_fd_sc_hd__clkbuf_1
*CAP
1 *879:A 0
2 *878:A 0
3 *1030:X 0.000150728
4 *312:14 0.000132015
5 *312:8 0.000282744
6 *312:8 *370:134 0.000153155
7 *312:14 *348:29 4.07715e-05
8 *208:8 *312:14 0.000168754
9 *212:16 *312:14 0
10 *245:27 *312:14 0
*RES
1 *1030:X *312:8 26.8529 
2 *312:8 *312:14 33.3143 
3 *312:14 *878:A 23 
4 *312:8 *879:A 23 
*END

*D_NET *313 0.00149288
*CONN
*I *881:A I *D sky130_fd_sc_hd__nand2_1
*I *882:A I *D sky130_fd_sc_hd__or2_1
*I *1031:X O *D sky130_fd_sc_hd__clkbuf_1
*CAP
1 *881:A 0
2 *882:A 0
3 *1031:X 7.60875e-05
4 *313:16 0.00026669
5 *313:8 0.000342777
6 *313:8 *762:A 9.72057e-06
7 *313:8 *881:B 2.35625e-05
8 *313:8 *370:55 0.000268041
9 *313:16 *881:B 0
10 *313:16 *882:B 0
11 *313:16 *370:32 6.21538e-05
12 *313:16 *370:55 6.72929e-05
13 *313:16 *370:134 1.19796e-05
14 *51:11 *313:8 5.41288e-05
15 *92:10 *313:16 0.000194309
16 *210:6 *313:8 1.76557e-05
17 *210:6 *313:16 9.84851e-05
*RES
1 *1031:X *313:8 26.3764 
2 *313:8 *313:16 36.525 
3 *313:16 *882:A 23 
4 *313:8 *881:A 23 
*END

*D_NET *314 0.00307448
*CONN
*I *789:A I *D sky130_fd_sc_hd__nand2_1
*I *790:A I *D sky130_fd_sc_hd__or2_1
*I *1032:X O *D sky130_fd_sc_hd__clkbuf_1
*CAP
1 *789:A 0.000214919
2 *790:A 1.15232e-05
3 *1032:X 0
4 *314:10 0.000815539
5 *314:6 0.000589097
6 *314:10 *776:A 6.16439e-05
7 *314:10 *315:10 0.000302339
8 *314:10 *351:12 1.01436e-05
9 *314:10 *351:38 0
10 *314:10 *370:80 0.000200432
11 *782:B *314:10 0
12 *896:A1 *789:A 4.36926e-05
13 *896:A3 *314:10 1.78655e-05
14 *896:B1 *789:A 0.000114769
15 *897:A1 *789:A 0
16 *918:A2 *314:10 0
17 *106:8 *314:10 5.61414e-05
18 *110:23 *314:10 0
19 *118:6 *789:A 0.0002248
20 *118:17 *789:A 8.14093e-05
21 *118:17 *790:A 5.67058e-05
22 *224:6 *789:A 5.50106e-05
23 *224:6 *790:A 2.32004e-05
24 *224:12 *314:10 0.000195248
25 *240:10 *314:10 0
*RES
1 *1032:X *314:6 38 
2 *314:6 *314:10 28.5264 
3 *314:10 *790:A 23.6214 
4 *314:10 *789:A 30.1879 
*END

*D_NET *315 0.00234124
*CONN
*I *775:A I *D sky130_fd_sc_hd__nand2_1
*I *776:A I *D sky130_fd_sc_hd__or2_1
*I *1033:X O *D sky130_fd_sc_hd__clkbuf_1
*CAP
1 *775:A 0.000343422
2 *776:A 4.35838e-05
3 *1033:X 0.000217286
4 *315:10 0.000604292
5 *315:10 *766:A 4.6595e-05
6 *315:10 *370:63 0
7 *315:10 *370:106 3.22879e-05
8 *918:A1 *775:A 0.000347172
9 *918:A2 *775:A 2.55136e-05
10 *95:8 *315:10 0.000199701
11 *104:12 *775:A 0.000117401
12 *110:23 *315:10 0
13 *314:10 *776:A 6.16439e-05
14 *314:10 *315:10 0.000302339
*RES
1 *1033:X *315:10 43.945 
2 *315:10 *776:A 38.8493 
3 *315:10 *775:A 44.38 
*END

*D_NET *316 0.00274528
*CONN
*I *779:A I *D sky130_fd_sc_hd__nand2_1
*I *780:A I *D sky130_fd_sc_hd__or2_1
*I *785:B1 I *D sky130_fd_sc_hd__o211a_1
*I *1034:X O *D sky130_fd_sc_hd__buf_1
*CAP
1 *779:A 0
2 *780:A 0
3 *785:B1 6.16275e-05
4 *1034:X 0.000191627
5 *316:37 0.000172636
6 *316:29 0.000478557
7 *316:8 0.000559176
8 *785:B1 *318:18 2.95125e-05
9 *785:B1 *354:27 0.000110913
10 *316:8 *766:A 0.000219383
11 *316:29 *766:A 4.37965e-05
12 *316:29 *1075:A 0.000185434
13 *316:29 *353:20 0
14 *316:29 *354:27 8.02774e-05
15 *316:37 *351:38 0
16 *316:37 *353:16 8.1796e-05
17 *316:37 *353:20 1.37349e-05
18 *781:A *316:29 3.7877e-05
19 *781:A *316:37 5.01986e-05
20 *921:A *316:37 0.000169683
21 *54:13 *316:29 2.76611e-06
22 *55:13 *316:29 0
23 *109:10 *316:37 8.97844e-05
24 *115:10 *785:B1 0.000166504
*RES
1 *1034:X *316:8 40.5271 
2 *316:8 *785:B1 40.2579 
3 *316:8 *316:29 21.7736 
4 *316:29 *316:37 34.8886 
5 *316:37 *780:A 23 
6 *316:29 *779:A 23 
*END

*D_NET *317 0.000762134
*CONN
*I *797:A I *D sky130_fd_sc_hd__or2_1
*I *796:A I *D sky130_fd_sc_hd__nand2_1
*I *1035:X O *D sky130_fd_sc_hd__clkbuf_1
*CAP
1 *797:A 0
2 *796:A 8.22764e-05
3 *1035:X 0.000168655
4 *317:10 8.22764e-05
5 *317:8 0.000168655
6 *796:A *797:B 6.29487e-05
7 *317:8 *1058:A 0
8 *317:8 *334:10 0
9 *795:A *796:A 1.18939e-05
10 *123:10 *317:8 0
11 *125:6 *796:A 0.000185428
*RES
1 *1035:X *317:8 40.2579 
2 *317:8 *317:10 15 
3 *317:10 *796:A 26.045 
4 *317:10 *797:A 23 
*END

*D_NET *318 0.00250114
*CONN
*I *786:A1 I *D sky130_fd_sc_hd__a211o_1
*I *785:A1 I *D sky130_fd_sc_hd__o211a_1
*I *778:A I *D sky130_fd_sc_hd__xnor2_1
*I *1036:X O *D sky130_fd_sc_hd__buf_1
*CAP
1 *786:A1 0
2 *785:A1 0
3 *778:A 0.000265497
4 *1036:X 0.000299056
5 *318:18 0.000439615
6 *318:8 0.000473173
7 *778:A *778:B 4.05184e-05
8 *778:A *785:A2 2.60644e-05
9 *778:A *785:C1 0.000187129
10 *778:A *353:8 0
11 *778:A *353:16 1.24376e-05
12 *778:A *354:8 2.39468e-05
13 *318:8 *766:A 9.24795e-06
14 *318:18 *766:A 5.3304e-05
15 *318:18 *354:27 0.000160182
16 *785:B1 *318:18 2.95125e-05
17 *54:13 *318:8 0.000227208
18 *54:13 *318:18 6.17437e-06
19 *55:13 *318:8 3.22879e-05
20 *113:10 *318:18 0.000215782
*RES
1 *1036:X *318:8 27.8057 
2 *318:8 *318:18 34.0807 
3 *318:18 *778:A 28.4271 
4 *318:18 *785:A1 23 
5 *318:8 *786:A1 23 
*END

*D_NET *319 0.0027667
*CONN
*I *772:A I *D sky130_fd_sc_hd__nand2_1
*I *773:A I *D sky130_fd_sc_hd__or2_1
*I *1037:X O *D sky130_fd_sc_hd__clkbuf_1
*CAP
1 *772:A 2.00578e-05
2 *773:A 8.1554e-05
3 *1037:X 0.000172804
4 *319:16 0.000893284
5 *319:8 0.000964477
6 *772:A *772:B 0
7 *773:A *355:19 1.59094e-05
8 *319:8 *333:42 3.4678e-05
9 *319:16 *355:19 1.21972e-05
10 *319:16 *355:42 2.71046e-05
11 *319:16 *359:10 1.62778e-05
12 *1011:D *319:16 1.73399e-05
13 *1037:A *319:8 3.59619e-05
14 *57:15 *319:8 5.56203e-05
15 *100:10 *319:8 3.83778e-05
16 *101:18 *773:A 2.47702e-05
17 *305:73 *773:A 0.000139346
18 *305:73 *319:16 0.00021694
*RES
1 *1037:X *319:8 42.0186 
2 *319:8 *319:16 26.2686 
3 *319:16 *773:A 25.4236 
4 *319:16 *772:A 23.8493 
*END

*D_NET *320 0.000690196
*CONN
*I *899:A I *D sky130_fd_sc_hd__nor2_1
*I *900:A I *D sky130_fd_sc_hd__nand2_1
*I *1038:X O *D sky130_fd_sc_hd__clkbuf_1
*CAP
1 *899:A 2.18877e-05
2 *900:A 9.7011e-05
3 *1038:X 1.40396e-05
4 *320:6 0.000132938
5 *899:A *356:18 6.10445e-05
6 *899:A *371:45 9.72057e-06
7 *900:A *900:B 5.67058e-05
8 *900:A *356:18 6.89881e-05
9 *900:A *371:45 3.22879e-05
10 *320:6 *371:45 1.37232e-05
11 *901:A_N *900:A 0.000143655
12 *57:15 *899:A 5.90675e-06
13 *228:8 *900:A 3.22879e-05
*RES
1 *1038:X *320:6 23.4971 
2 *320:6 *900:A 26.9771 
3 *320:6 *899:A 24.595 
*END

*D_NET *321 0.00108029
*CONN
*I *809:A I *D sky130_fd_sc_hd__nor2_1
*I *808:A I *D sky130_fd_sc_hd__and2_1
*I *1039:X O *D sky130_fd_sc_hd__clkbuf_1
*CAP
1 *809:A 2.34823e-05
2 *808:A 7.57545e-05
3 *1039:X 0.000363238
4 *321:8 0.000462474
5 *808:A *357:15 5.50049e-05
6 *321:8 *810:B 2.93747e-05
7 *810:A *321:8 5.3304e-05
8 *138:10 *808:A 1.76557e-05
*RES
1 *1039:X *321:8 29.8357 
2 *321:8 *808:A 24.5743 
3 *321:8 *809:A 23.4971 
*END

*D_NET *322 0.00110781
*CONN
*I *905:A I *D sky130_fd_sc_hd__nand2_1
*I *904:A I *D sky130_fd_sc_hd__nor2_1
*I *1040:X O *D sky130_fd_sc_hd__clkbuf_1
*CAP
1 *905:A 0
2 *904:A 4.24639e-05
3 *1040:X 0.00030786
4 *322:12 4.24639e-05
5 *322:10 0.00030786
6 *904:A *358:29 2.64616e-05
7 *322:10 *323:14 0.000241058
8 *322:10 *356:38 0.000139647
*RES
1 *1040:X *322:10 43.3857 
2 *322:10 *322:12 15 
3 *322:12 *904:A 23.6214 
4 *322:12 *905:A 23 
*END

*D_NET *323 0.00252239
*CONN
*I *912:A I *D sky130_fd_sc_hd__xnor2_1
*I *1041:X O *D sky130_fd_sc_hd__clkbuf_1
*CAP
1 *912:A 0
2 *1041:X 0.000180287
3 *323:14 0.000415553
4 *323:8 0.00059584
5 *323:8 *769:A 1.59094e-05
6 *323:14 *905:B 7.75329e-06
7 *323:14 *356:38 4.07818e-05
8 *323:14 *358:10 6.61054e-05
9 *323:14 *371:45 0.000773045
10 *99:8 *323:14 0.000153773
11 *238:10 *323:14 3.22879e-05
12 *322:10 *323:14 0.000241058
*RES
1 *1041:X *323:8 40.0507 
2 *323:8 *323:14 27.8843 
3 *323:14 *912:A 23 
*END

*D_NET *324 0.00332082
*CONN
*I *832:A1 I *D sky130_fd_sc_hd__o221ai_4
*I *819:A1 I *D sky130_fd_sc_hd__o22ai_1
*I *817:A1 I *D sky130_fd_sc_hd__a21o_1
*I *818:A I *D sky130_fd_sc_hd__xor2_1
*I *1042:X O *D sky130_fd_sc_hd__clkbuf_2
*CAP
1 *832:A1 0
2 *819:A1 0
3 *817:A1 0
4 *818:A 0
5 *1042:X 0.000438603
6 *324:45 0.000158422
7 *324:24 0.00016142
8 *324:16 0.000308778
9 *324:10 0.000201081
10 *324:6 0.000650749
11 *324:6 *974:A 0.000182826
12 *324:6 *330:12 0.000309513
13 *324:10 *330:12 1.40958e-05
14 *324:16 *817:A2 7.29095e-05
15 *324:16 *330:12 0.000249583
16 *324:45 *818:B 1.83667e-05
17 *324:45 *360:38 6.7911e-05
18 *817:B1 *324:24 7.56417e-05
19 *819:B1 *324:16 9.84851e-05
20 *819:B2 *324:16 0.000185434
21 *954:A *324:45 1.19692e-05
22 *146:12 *324:16 5.3304e-05
23 *148:8 *324:45 6.7177e-06
24 *159:23 *324:45 0
25 *303:60 *324:24 5.50106e-05
*RES
1 *1042:X *324:6 33.15 
2 *324:6 *324:10 1.11857 
3 *324:10 *324:16 5.55143 
4 *324:16 *324:24 32.8793 
5 *324:24 *818:A 23 
6 *324:16 *817:A1 23 
7 *324:10 *819:A1 23 
8 *324:6 *324:45 32.9621 
9 *324:45 *832:A1 23 
*END

*D_NET *325 0.00135266
*CONN
*I *828:A I *D sky130_fd_sc_hd__nand2_1
*I *829:A I *D sky130_fd_sc_hd__or2_1
*I *1043:X O *D sky130_fd_sc_hd__clkbuf_1
*CAP
1 *828:A 4.82184e-05
2 *829:A 0.000323788
3 *1043:X 0
4 *325:6 0.000372006
5 *828:A *360:25 2.93845e-05
6 *828:A *362:21 1.4471e-05
7 *828:A *368:173 2.60152e-05
8 *829:A *829:B 5.33546e-05
9 *829:A *360:16 0
10 *829:A *368:169 2.5343e-05
11 *829:A *368:173 9.13083e-05
12 *62:15 *828:A 5.50106e-05
13 *73:8 *829:A 0.00019654
14 *157:8 *828:A 6.07611e-06
15 *157:8 *829:A 7.80251e-05
16 *157:18 *829:A 3.3123e-05
*RES
1 *1043:X *325:6 38 
2 *325:6 *829:A 45.9543 
3 *325:6 *828:A 39.4707 
*END

*D_NET *326 0.00188135
*CONN
*I *826:A I *D sky130_fd_sc_hd__or2_1
*I *825:A I *D sky130_fd_sc_hd__nand2_1
*I *1044:X O *D sky130_fd_sc_hd__clkbuf_1
*CAP
1 *826:A 0.000373518
2 *825:A 0.000162758
3 *1044:X 9.59795e-05
4 *326:10 0.000632256
5 *825:A *363:10 0
6 *825:A *368:169 8.60079e-05
7 *825:A *369:52 0.000300209
8 *826:A *826:B 2.93747e-05
9 *826:A *368:169 1.59094e-05
10 *326:10 *975:A 2.64616e-05
11 *326:10 *368:169 8.4047e-05
12 *326:10 *369:52 7.48331e-05
*RES
1 *1044:X *326:10 39.8229 
2 *326:10 *825:A 42.0186 
3 *326:10 *826:A 42.93 
*END

*D_NET *327 0.00221037
*CONN
*I *963:A1 I *D sky130_fd_sc_hd__a21oi_1
*I *833:A1 I *D sky130_fd_sc_hd__a21oi_1
*I *820:A I *D sky130_fd_sc_hd__xnor2_1
*I *1045:X O *D sky130_fd_sc_hd__buf_1
*CAP
1 *963:A1 0.000140919
2 *833:A1 0
3 *820:A 0
4 *1045:X 9.63036e-05
5 *327:30 0.000188136
6 *327:22 0.000482283
7 *327:8 0.00053137
8 *327:22 *1085:A 0.000140454
9 *327:30 *1085:A 2.32101e-05
10 *327:30 *332:56 0
11 *327:30 *364:14 0.000226056
12 acc[6] *327:22 5.50106e-05
13 *64:11 *327:30 2.95125e-05
14 *150:22 *327:8 0.00014196
15 *150:22 *327:22 5.67058e-05
16 *150:22 *327:30 4.334e-05
17 *151:16 *963:A1 0
18 *151:16 *327:22 0
19 *162:8 *963:A1 0
20 *162:8 *327:22 0
21 *162:8 *327:30 5.51058e-05
*RES
1 *1045:X *327:8 39.5743 
2 *327:8 *327:22 20.4893 
3 *327:22 *327:30 34.64 
4 *327:30 *820:A 23 
5 *327:22 *833:A1 23 
6 *327:8 *963:A1 40.2579 
*END

*D_NET *328 0.00213373
*CONN
*I *793:A I *D sky130_fd_sc_hd__nor2_1
*I *792:A I *D sky130_fd_sc_hd__nand2_1
*I *794:A I *D sky130_fd_sc_hd__or2_1
*I *1046:X O *D sky130_fd_sc_hd__clkbuf_1
*CAP
1 *793:A 0.000100304
2 *792:A 0
3 *794:A 8.7325e-05
4 *1046:X 4.71876e-05
5 *328:23 0.000484797
6 *328:8 0.000519006
7 *793:A *792:B 8.11211e-05
8 *793:A *335:8 0
9 *793:A *335:12 8.87656e-05
10 *794:A *1059:A 5.50049e-05
11 *328:23 *331:8 0
12 *328:23 *335:22 0
13 *328:23 *367:18 0
14 *1046:A *794:A 9.84794e-05
15 *1046:A *328:8 5.50106e-05
16 *1046:A *328:23 9.48381e-06
17 *5:8 *794:A 0.000228001
18 *121:10 *793:A 0.000141052
19 *124:23 *328:23 0.000138195
*RES
1 *1046:X *328:8 24.1186 
2 *328:8 *794:A 26.0036 
3 *328:8 *328:23 37.2293 
4 *328:23 *792:A 23 
5 *328:23 *793:A 26.8839 
*END

*D_NET *329 0.000975367
*CONN
*I *822:A I *D sky130_fd_sc_hd__nor2_1
*I *821:A I *D sky130_fd_sc_hd__and2_1
*I *1047:X O *D sky130_fd_sc_hd__clkbuf_1
*CAP
1 *822:A 5.76019e-05
2 *821:A 0
3 *1047:X 3.69541e-05
4 *329:14 0.000251894
5 *329:6 0.00034645
6 *822:A *365:16 5.90675e-06
7 *329:6 *365:16 9.24795e-06
8 *329:14 *365:10 0
9 *329:14 *365:16 1.14876e-05
10 *329:14 *365:24 0.000176903
11 *823:A *822:A 0
12 *987:CLK *329:14 3.39231e-05
13 *1047:A *329:6 5.37348e-06
14 *151:8 *822:A 0
15 *151:8 *329:14 7.53384e-06
16 *156:10 *329:14 3.20914e-05
*RES
1 *1047:X *329:6 23.6214 
2 *329:6 *329:14 35.3443 
3 *329:14 *821:A 23 
4 *329:6 *822:A 24.2014 
*END

*D_NET *330 0.00371617
*CONN
*I *805:A I *D sky130_fd_sc_hd__nand2_1
*I *806:A I *D sky130_fd_sc_hd__or2_1
*I *1048:X O *D sky130_fd_sc_hd__clkbuf_1
*CAP
1 *805:A 0
2 *806:A 6.53212e-05
3 *1048:X 0.00110896
4 *330:18 0.000180981
5 *330:12 0.00122462
6 *806:A *806:B 5.50049e-05
7 *330:12 *817:A2 1.32939e-05
8 *330:12 *974:A 0.000182826
9 *330:18 *366:10 4.6318e-06
10 *330:18 *369:97 0
11 *819:B1 *330:12 9.84851e-05
12 *134:10 *806:A 4.66047e-05
13 *134:10 *330:18 2.54046e-05
14 *303:27 *330:12 9.84794e-05
15 *303:60 *330:18 3.83778e-05
16 *324:6 *330:12 0.000309513
17 *324:10 *330:12 1.40958e-05
18 *324:16 *330:12 0.000249583
*RES
1 *1048:X *330:12 41.9121 
2 *330:12 *330:18 31.9057 
3 *330:18 *806:A 24.5743 
4 *330:18 *805:A 23 
*END

*D_NET *331 0.00120812
*CONN
*I *800:A I *D sky130_fd_sc_hd__or2_1
*I *799:A I *D sky130_fd_sc_hd__nand2_1
*I *1049:X O *D sky130_fd_sc_hd__clkbuf_1
*CAP
1 *800:A 9.25032e-05
2 *799:A 0
3 *1049:X 0.00037164
4 *331:10 9.25032e-05
5 *331:8 0.00037164
6 *800:A *800:B 4.66969e-05
7 *800:A *368:142 3.53115e-05
8 *331:8 *367:18 0.00019782
9 *124:23 *331:8 0
10 *328:23 *331:8 0
*RES
1 *1049:X *331:8 45.8921 
2 *331:8 *331:10 15 
3 *331:10 *799:A 23 
4 *331:10 *800:A 25.0714 
*END

*D_NET *332 0.017357
*CONN
*I *1023:A I *D sky130_fd_sc_hd__buf_2
*I *1021:A I *D sky130_fd_sc_hd__buf_2
*I *1022:A I *D sky130_fd_sc_hd__buf_4
*I *1020:A I *D sky130_fd_sc_hd__buf_4
*I *1050:X O *D sky130_fd_sc_hd__dlymetal6s2s_1
*CAP
1 *1023:A 0.000537627
2 *1021:A 0
3 *1022:A 9.96122e-05
4 *1020:A 0
5 *1050:X 0.000439822
6 *332:56 0.0017451
7 *332:54 0.0017451
8 *332:52 0.0016434
9 *332:43 0.00122887
10 *332:39 0.00109158
11 *332:35 0.00192897
12 *332:14 0.000860873
13 *332:12 0.000439822
14 *1022:A *370:8 1.32314e-05
15 *332:12 *753:A 0.000106203
16 *332:12 *338:10 0
17 *332:35 *847:A 0.000286834
18 *332:35 *847:B 2.82814e-05
19 *332:35 *368:10 9.5877e-05
20 *332:35 *368:42 0.000356724
21 *332:35 *368:65 5.3304e-05
22 *332:35 *368:74 2.02872e-05
23 *332:39 *757:A 0.000225275
24 *332:39 *336:10 3.01561e-05
25 *332:39 *336:14 0.000330385
26 *332:39 *336:38 8.50973e-05
27 *332:52 *370:8 5.50049e-05
28 *332:56 *364:14 0
29 *332:56 *367:10 0
30 *332:56 *367:18 0
31 *332:56 *369:8 0.000122304
32 *332:56 *369:27 0
33 *332:56 *369:97 0
34 *837:A1 *332:56 2.3529e-05
35 *945:A *332:35 6.03813e-05
36 *963:B1 *332:56 0
37 *982:CLK *332:56 0
38 *64:11 *332:56 0
39 *75:10 *332:56 0.000110913
40 *78:10 *332:56 0.000194318
41 *85:10 *332:39 0
42 *128:8 *332:56 0
43 *162:8 *332:56 0
44 *164:10 *332:56 0.00021673
45 *164:23 *332:56 0.00026282
46 *167:18 *332:39 0.000206359
47 *168:24 *332:39 0.000240873
48 *175:16 *332:35 0
49 *176:10 *332:35 0.000226977
50 *178:8 *332:35 7.53303e-06
51 *179:10 *332:35 0.000139346
52 *184:10 *332:39 0.000374665
53 *198:12 *332:39 1.90488e-05
54 *198:18 *332:39 0.000772107
55 *258:10 *332:39 1.01436e-05
56 *263:10 *332:56 0
57 *275:10 *332:56 4.08641e-05
58 *283:8 *332:12 7.8128e-05
59 *301:10 *332:56 0.000296001
60 *301:28 *332:56 0.000131009
61 *302:57 *332:35 8.29264e-05
62 *302:57 *332:39 0.000292588
63 *327:30 *332:56 0
*RES
1 *1050:X *332:12 46.1407 
2 *332:12 *332:14 15 
3 *332:14 *1020:A 23 
4 *332:14 *332:35 46.7993 
5 *332:35 *332:39 44.0207 
6 *332:39 *332:43 15.4971 
7 *332:43 *1022:A 24.5743 
8 *332:43 *332:52 20.155 
9 *332:52 *332:54 15 
10 *332:54 *332:56 37.12 
11 *332:56 *1021:A 38 
12 *332:52 *1023:A 32.6736 
*END

*D_NET *333 0.00500988
*CONN
*I *1057:A I *D sky130_fd_sc_hd__buf_2
*I *814:B I *D sky130_fd_sc_hd__nand2_1
*I *970:B I *D sky130_fd_sc_hd__or2_1
*I *980:Q O *D sky130_fd_sc_hd__dfrtp_1
*CAP
1 *1057:A 0
2 *814:B 9.25688e-05
3 *970:B 0.000161714
4 *980:Q 0.000131528
5 *333:42 0.00088848
6 *333:25 0.00110325
7 *333:8 0.00041544
8 *814:B *371:24 4.37033e-05
9 *970:B *357:25 2.30292e-05
10 *333:25 *371:32 3.70094e-05
11 *333:42 *905:B 2.96051e-05
12 *333:42 *912:B 0.000227497
13 *333:42 *1080:A 5.93726e-05
14 *333:42 *356:38 0.000122131
15 *333:42 *358:10 0.000126936
16 *333:42 *359:10 0.000141879
17 *333:42 *371:32 0.000154147
18 acc[28] *333:42 0.000169674
19 acc[29] *333:42 7.46212e-05
20 acc[31] *333:42 2.5343e-05
21 *970:A *333:25 1.46331e-05
22 *980:RESET_B *333:8 9.29579e-06
23 *1040:A *333:42 0
24 *26:10 *333:42 8.51329e-05
25 *36:11 *333:42 4.7836e-05
26 *57:15 *333:25 9.4761e-05
27 *57:15 *333:42 0.000139657
28 *69:8 *970:B 0.000118174
29 *69:8 *333:25 8.62876e-05
30 *99:8 *333:42 2.37199e-05
31 *100:10 *333:42 0.000162143
32 *143:8 *970:B 0.00012837
33 *143:8 *333:25 3.72639e-05
34 *319:8 *333:42 3.4678e-05
*RES
1 *980:Q *333:8 39.5743 
2 *333:8 *970:B 41.9357 
3 *333:8 *333:25 3.37643 
4 *333:25 *814:B 39.595 
5 *333:25 *333:42 37.9514 
6 *333:42 *1057:A 23 
*END

*D_NET *334 0.00199734
*CONN
*I *797:B I *D sky130_fd_sc_hd__or2_1
*I *796:B I *D sky130_fd_sc_hd__nand2_1
*I *1058:A I *D sky130_fd_sc_hd__buf_2
*I *990:Q O *D sky130_fd_sc_hd__dfrtp_1
*CAP
1 *797:B 0.000120631
2 *796:B 0
3 *1058:A 0.000269792
4 *990:Q 0.000474684
5 *334:23 0.000120631
6 *334:10 0.000744475
7 *1058:A *336:14 0
8 *334:10 *336:14 0
9 *334:10 *368:82 0
10 acc[10] *1058:A 7.53384e-06
11 *796:A *797:B 6.29487e-05
12 *953:A *797:B 9.8971e-06
13 *79:10 *334:10 0
14 *80:10 *334:10 0.000114083
15 *125:6 *797:B 1.76557e-05
16 *126:10 *334:10 0
17 *257:21 *334:10 0
18 *279:14 *334:10 5.50106e-05
19 *302:124 *334:10 0
20 *317:8 *1058:A 0
21 *317:8 *334:10 0
*RES
1 *990:Q *334:10 46.1614 
2 *334:10 *1058:A 42.4121 
3 *334:10 *334:23 15 
4 *334:23 *796:B 23 
5 *334:23 *797:B 25.5479 
*END

*D_NET *335 0.00201366
*CONN
*I *793:B I *D sky130_fd_sc_hd__nor2_1
*I *792:B I *D sky130_fd_sc_hd__nand2_1
*I *1059:A I *D sky130_fd_sc_hd__buf_2
*I *794:B I *D sky130_fd_sc_hd__or2_1
*I *991:Q O *D sky130_fd_sc_hd__dfrtp_1
*CAP
1 *793:B 0
2 *792:B 2.51269e-05
3 *1059:A 3.25769e-05
4 *794:B 0
5 *991:Q 0.000195849
6 *335:22 0.000289255
7 *335:12 0.000385918
8 *335:8 0.000299962
9 *793:A *792:B 8.11211e-05
10 *793:A *335:8 0
11 *793:A *335:12 8.87656e-05
12 *794:A *1059:A 5.50049e-05
13 *1046:A *335:22 1.01436e-05
14 *35:13 *335:22 0.000205583
15 *121:10 *335:8 2.93845e-05
16 *121:10 *335:12 1.22822e-05
17 *122:10 *335:12 5.50049e-05
18 *123:10 *335:22 0
19 *124:23 *335:22 0.000247687
20 *328:23 *335:22 0
*RES
1 *991:Q *335:8 26.0243 
2 *335:8 *335:12 2.54786 
3 *335:12 *335:22 36.1936 
4 *335:22 *794:B 23 
5 *335:22 *1059:A 23.6214 
6 *335:12 *792:B 24.2843 
7 *335:8 *793:B 23 
*END

*D_NET *336 0.00698307
*CONN
*I *853:B I *D sky130_fd_sc_hd__or2_1
*I *857:A2 I *D sky130_fd_sc_hd__a31o_1
*I *852:B I *D sky130_fd_sc_hd__nand2_1
*I *1060:A I *D sky130_fd_sc_hd__buf_2
*I *992:Q O *D sky130_fd_sc_hd__dfrtp_1
*CAP
1 *853:B 0
2 *857:A2 0
3 *852:B 0.000292171
4 *1060:A 0
5 *992:Q 0.000338496
6 *336:46 0.000233687
7 *336:38 0.000735801
8 *336:14 0.00060024
9 *336:10 0.0010014
10 *336:8 0.000949596
11 *852:B *852:A 3.23857e-06
12 *336:14 *340:30 0
13 *336:14 *368:82 0.000381644
14 *336:38 *853:A 8.55793e-05
15 *336:46 *852:A 3.92407e-05
16 *336:46 *853:A 0.000444313
17 *854:B *852:B 5.79559e-05
18 *855:A1 *336:8 1.0119e-05
19 *855:B1 *336:8 6.17437e-06
20 *992:D *336:8 0.000144231
21 *1058:A *336:14 0
22 *79:10 *336:14 0.000166522
23 *167:18 *336:10 0.000114092
24 *167:18 *336:38 8.68839e-05
25 *168:10 *336:38 0
26 *168:14 *852:B 4.17736e-05
27 *168:24 *852:B 9.82009e-05
28 *181:6 *852:B 5.67058e-05
29 *181:14 *336:46 0
30 *182:10 *336:38 2.86398e-05
31 *182:10 *336:46 0
32 *183:8 *852:B 4.93812e-05
33 *183:21 *336:10 6.4393e-05
34 *183:21 *336:38 4.4382e-05
35 *186:10 *336:46 0
36 *258:10 *336:14 0.000375718
37 *302:16 *336:14 8.68575e-05
38 *302:38 *336:46 0
39 *332:39 *336:10 3.01561e-05
40 *332:39 *336:14 0.000330385
41 *332:39 *336:38 8.50973e-05
42 *334:10 *336:14 0
*RES
1 *992:Q *336:8 42.4329 
2 *336:8 *336:10 2.61 
3 *336:10 *336:14 31.6957 
4 *336:14 *1060:A 23 
5 *336:10 *852:B 43.5514 
6 *336:8 *336:38 24.0521 
7 *336:38 *336:46 35.9657 
8 *336:46 *857:A2 23 
9 *336:38 *853:B 23 
*END

*D_NET *337 0.00442211
*CONN
*I *841:B I *D sky130_fd_sc_hd__or2_1
*I *840:B I *D sky130_fd_sc_hd__nand2_1
*I *1061:A I *D sky130_fd_sc_hd__buf_2
*I *993:Q O *D sky130_fd_sc_hd__dfrtp_1
*CAP
1 *841:B 0
2 *840:B 0.000288802
3 *1061:A 0.00056615
4 *993:Q 0
5 *337:40 0.000874335
6 *337:8 0.000949569
7 *337:4 0.000968952
8 *840:B *752:A 5.50049e-05
9 *840:B *840:A 5.43894e-06
10 *840:B *350:6 0.000118217
11 *1061:A *752:A 0
12 *1061:A *1062:A 0
13 *1061:A *338:19 0
14 *1061:A *361:8 0
15 acc[13] *1061:A 2.33476e-05
16 acc[14] *1061:A 0.00012758
17 *942:A1 *840:B 0
18 *40:17 *1061:A 0
19 *40:17 *337:8 0
20 *41:15 *840:B 5.70419e-05
21 *41:15 *1061:A 0
22 *82:8 *337:8 0
23 *252:16 *337:40 6.33511e-05
24 *282:8 *337:40 4.94192e-05
25 *302:32 *337:40 0.000274899
*RES
1 *993:Q *337:4 23 
2 *337:4 *337:8 16.5536 
3 *337:8 *1061:A 48.875 
4 *337:8 *840:B 44.0279 
5 *337:4 *337:40 42.5321 
6 *337:40 *841:B 23 
*END

*D_NET *338 0.00215524
*CONN
*I *1062:A I *D sky130_fd_sc_hd__buf_2
*I *843:B I *D sky130_fd_sc_hd__or2_1
*I *844:B I *D sky130_fd_sc_hd__nand2_1
*I *994:Q O *D sky130_fd_sc_hd__dfrtp_1
*CAP
1 *1062:A 0.000163264
2 *843:B 8.6385e-05
3 *844:B 0
4 *994:Q 0.000457385
5 *338:19 0.000360515
6 *338:10 0.000568252
7 *843:B *843:A 1.24376e-05
8 *1062:A *844:A 6.16439e-05
9 *1062:A *361:8 0.000157309
10 *338:10 *844:A 1.14452e-05
11 *338:19 *844:A 0.000227497
12 acc[13] *338:19 6.10551e-06
13 acc[14] *1062:A 3.89972e-05
14 *856:A1 *843:B 4.00259e-06
15 *1061:A *1062:A 0
16 *1061:A *338:19 0
17 *68:11 *338:10 0
18 *83:8 *338:10 0
19 *332:12 *338:10 0
*RES
1 *994:Q *338:10 44.7736 
2 *338:10 *844:B 38 
3 *338:10 *338:19 2.96214 
4 *338:19 *843:B 39.595 
5 *338:19 *1062:A 41.5836 
*END

*D_NET *339 0.00424027
*CONN
*I *857:A1 I *D sky130_fd_sc_hd__a31o_1
*I *853:A I *D sky130_fd_sc_hd__or2_1
*I *852:A I *D sky130_fd_sc_hd__nand2_1
*I *1051:X O *D sky130_fd_sc_hd__buf_1
*CAP
1 *857:A1 0
2 *853:A 0.000347482
3 *852:A 0.000298758
4 *1051:X 0.000964999
5 *339:10 0.00064624
6 *339:8 0.000964999
7 *852:B *852:A 3.23857e-06
8 *857:B1 *852:A 0.000193379
9 *857:B1 *853:A 2.77955e-05
10 *857:B1 *339:8 3.91386e-05
11 *941:A *852:A 8.16912e-05
12 *180:14 *339:8 3.18969e-05
13 *181:14 *852:A 0
14 *252:16 *339:8 1.83763e-05
15 *252:27 *852:A 5.31444e-05
16 *282:8 *852:A 0
17 *302:38 *853:A 0
18 *336:38 *853:A 8.55793e-05
19 *336:46 *852:A 3.92407e-05
20 *336:46 *853:A 0.000444313
*RES
1 *1051:X *339:8 35.905 
2 *339:8 *339:10 15 
3 *339:10 *852:A 44.4629 
4 *339:10 *853:A 44.6907 
5 *339:8 *857:A1 23 
*END

*D_NET *340 0.00272457
*CONN
*I *846:B I *D sky130_fd_sc_hd__nand2_1
*I *847:B I *D sky130_fd_sc_hd__nor2_1
*I *1063:A I *D sky130_fd_sc_hd__buf_2
*I *848:B I *D sky130_fd_sc_hd__or2_1
*I *995:Q O *D sky130_fd_sc_hd__dfrtp_1
*CAP
1 *846:B 0
2 *847:B 0.000106627
3 *1063:A 0
4 *848:B 9.93061e-05
5 *995:Q 9.53723e-05
6 *340:30 0.000387077
7 *340:12 0.000183675
8 *340:8 0.000460191
9 *847:B *847:A 3.17824e-05
10 *847:B *372:37 7.2092e-05
11 *848:B *848:A 0.000274974
12 *340:8 *372:29 1.24376e-05
13 *340:12 *372:29 7.45175e-05
14 *340:30 *372:29 1.12863e-05
15 *340:30 *372:37 0.000161804
16 acc[15] *340:12 0
17 *849:B *847:B 5.56279e-05
18 *995:RESET_B *340:8 1.77274e-05
19 *1054:A *848:B 9.67842e-05
20 *1054:A *340:12 1.46784e-05
21 *9:8 *848:B 6.47688e-05
22 *175:8 *847:B 4.07902e-05
23 *175:16 *340:30 1.14452e-05
24 *177:10 *848:B 4.78497e-05
25 *177:10 *340:12 0.000111852
26 *177:10 *340:30 3.61808e-05
27 *178:8 *847:B 0.000227446
28 *258:10 *340:30 0
29 *332:35 *847:B 2.82814e-05
30 *336:14 *340:30 0
*RES
1 *995:Q *340:8 39.0979 
2 *340:8 *340:12 17.2579 
3 *340:12 *848:B 26.9564 
4 *340:12 *1063:A 23 
5 *340:8 *340:30 19.2879 
6 *340:30 *847:B 26.9979 
7 *340:30 *846:B 23 
*END

*D_NET *341 0.00389289
*CONN
*I *866:B I *D sky130_fd_sc_hd__nand2_1
*I *872:A2 I *D sky130_fd_sc_hd__a31o_1
*I *1064:A I *D sky130_fd_sc_hd__buf_2
*I *867:B I *D sky130_fd_sc_hd__or2_1
*I *996:Q O *D sky130_fd_sc_hd__dfrtp_1
*CAP
1 *866:B 0
2 *872:A2 0
3 *1064:A 0
4 *867:B 0
5 *996:Q 9.94109e-05
6 *341:35 0.000208142
7 *341:27 0.000397816
8 *341:23 0.000617016
9 *341:12 0.000596396
10 *341:8 0.000268465
11 *341:23 *867:A 0.000421388
12 *341:23 *373:21 3.58447e-05
13 *341:27 *872:A1 1.14154e-05
14 *341:27 *373:6 2.18409e-05
15 *341:27 *373:21 0.000320218
16 *341:35 *373:6 0.000274078
17 acc[16] *341:35 2.43903e-05
18 *872:B1 *341:27 5.50049e-05
19 *1055:A *341:35 1.44546e-05
20 *187:27 *341:8 7.83309e-05
21 *187:27 *341:12 5.50049e-05
22 *193:8 *341:35 0
23 *194:16 *341:27 0.0001804
24 *194:16 *341:35 1.76557e-05
25 *197:6 *341:12 3.22051e-05
26 *197:6 *341:23 2.69729e-05
27 *197:19 *341:12 2.93335e-05
28 *198:18 *341:8 5.31156e-05
29 *201:10 *341:35 4.83778e-05
30 *247:10 *341:12 5.61255e-06
*RES
1 *996:Q *341:8 40.61 
2 *341:8 *341:12 18.0036 
3 *341:12 *867:B 23 
4 *341:12 *341:23 7.685 
5 *341:23 *341:27 5.88286 
6 *341:27 *341:35 35.9657 
7 *341:35 *1064:A 23 
8 *341:27 *872:A2 23 
9 *341:23 *866:B 23 
*END

*D_NET *342 0.00220624
*CONN
*I *859:B I *D sky130_fd_sc_hd__xnor2_1
*I *1065:A I *D sky130_fd_sc_hd__buf_2
*I *935:A2 I *D sky130_fd_sc_hd__a21o_1
*I *871:B I *D sky130_fd_sc_hd__and3_1
*I *997:Q O *D sky130_fd_sc_hd__dfrtp_1
*CAP
1 *859:B 0.000206947
2 *1065:A 0
3 *935:A2 0
4 *871:B 0
5 *997:Q 0.000105918
6 *342:29 0.000173272
7 *342:16 0.00048717
8 *342:12 0.000411056
9 *342:8 0.000410023
10 *859:B *374:23 0
11 *342:29 *374:23 1.02387e-05
12 acc[17] *342:8 8.85189e-05
13 acc[17] *342:29 0
14 *871:C *342:16 1.56662e-06
15 *871:C *342:29 0.000141189
16 *44:17 *859:B 2.93845e-05
17 *200:8 *342:29 0.000140958
18 *248:12 *342:29 0
*RES
1 *997:Q *342:8 40.2579 
2 *342:8 *342:12 16.5743 
3 *342:12 *342:16 4.68143 
4 *342:16 *871:B 23 
5 *342:16 *342:29 34.2879 
6 *342:29 *935:A2 23 
7 *342:12 *1065:A 23 
8 *342:8 *859:B 41.5836 
*END

*D_NET *343 0.00512329
*CONN
*I *1066:A I *D sky130_fd_sc_hd__buf_2
*I *870:C1 I *D sky130_fd_sc_hd__o211a_1
*I *861:B I *D sky130_fd_sc_hd__nand2_1
*I *860:B I *D sky130_fd_sc_hd__or2_1
*I *998:Q O *D sky130_fd_sc_hd__dfrtp_1
*CAP
1 *1066:A 0
2 *870:C1 0.000220018
3 *861:B 0.000267089
4 *860:B 5.35685e-05
5 *998:Q 0.00136208
6 *343:33 0.000547594
7 *343:22 0.000343261
8 *343:16 0.00159129
9 acc[18] *343:22 2.11157e-05
10 *861:A *861:B 6.9805e-05
11 *870:B1 *870:C1 6.67764e-05
12 *937:A1 *343:16 1.94812e-05
13 *937:A2 *343:16 9.91798e-05
14 *937:B1_N *343:16 8.19644e-06
15 *998:D *343:16 0.000112248
16 *45:15 *870:C1 0
17 *48:17 *870:C1 0
18 *189:10 *861:B 1.40958e-05
19 *201:10 *343:22 0
20 *201:10 *343:33 0
21 *304:28 *343:16 8.07147e-05
22 *307:16 *860:B 7.53384e-06
23 *307:16 *861:B 9.84851e-05
24 *307:16 *870:C1 0.000122407
25 *307:16 *343:33 1.83564e-05
*RES
1 *998:Q *343:16 42.7821 
2 *343:16 *343:22 18.8321 
3 *343:22 *860:B 39.0979 
4 *343:22 *343:33 1.20143 
5 *343:33 *861:B 43.2821 
6 *343:33 *870:C1 43.075 
7 *343:16 *1066:A 23 
*END

*D_NET *344 0.00454385
*CONN
*I *863:B I *D sky130_fd_sc_hd__xnor2_1
*I *873:A2 I *D sky130_fd_sc_hd__a211oi_1
*I *1067:A I *D sky130_fd_sc_hd__buf_2
*I *870:A2 I *D sky130_fd_sc_hd__o211a_1
*I *999:Q O *D sky130_fd_sc_hd__dfrtp_1
*CAP
1 *863:B 0
2 *873:A2 0
3 *1067:A 0
4 *870:A2 0.000200014
5 *999:Q 9.53934e-05
6 *344:41 0.000771423
7 *344:33 0.000924734
8 *344:16 0.000538069
9 *344:8 0.000280137
10 *344:33 *1069:A 5.50049e-05
11 *344:33 *346:22 0
12 *344:41 *875:B 3.14977e-05
13 *344:41 *876:B 7.66085e-05
14 *344:41 *1069:A 0.000139357
15 *344:41 *347:12 0
16 *344:41 *348:8 0
17 *344:41 *370:142 0.000674778
18 *863:A *870:A2 9.84851e-05
19 *863:A *344:16 4.34745e-05
20 *870:A1 *870:A2 0.0002263
21 *1026:A *344:41 0
22 *90:8 *344:41 0.000116314
23 *192:10 *344:8 0
24 *201:10 *344:8 0
25 *202:6 *344:33 2.18409e-05
26 *202:6 *344:41 7.73389e-05
27 *308:10 *344:41 3.47776e-05
28 *308:14 *344:33 0.000108682
29 *308:14 *344:41 2.96154e-05
30 *310:14 *344:8 0
*RES
1 *999:Q *344:8 39.5536 
2 *344:8 *344:16 18.5214 
3 *344:16 *870:A2 27.4536 
4 *344:16 *344:33 33.5836 
5 *344:33 *344:41 48.6221 
6 *344:41 *1067:A 23 
7 *344:33 *873:A2 23 
8 *344:16 *863:B 23 
*END

*D_NET *345 0.00502743
*CONN
*I *810:B I *D sky130_fd_sc_hd__nand2_1
*I *812:B I *D sky130_fd_sc_hd__nor2_1
*I *1068:A I *D sky130_fd_sc_hd__buf_2
*I *981:Q O *D sky130_fd_sc_hd__dfrtp_1
*CAP
1 *810:B 0.000269147
2 *812:B 0
3 *1068:A 0
4 *981:Q 9.01176e-05
5 *345:21 0.000542115
6 *345:14 0.00135193
7 *345:8 0.00171501
8 *345:14 *360:10 5.86535e-05
9 *345:14 *360:16 0.000235309
10 *345:14 *368:173 0
11 *345:21 *368:173 0
12 acc[3] *345:14 2.47015e-05
13 acc[5] *345:14 2.43903e-05
14 acc[8] *345:21 3.23515e-05
15 *810:A *810:B 5.08899e-05
16 *810:A *345:21 2.76611e-06
17 *1027:A *345:21 0
18 *1042:A *345:14 5.31385e-05
19 *29:10 *345:14 0.000120142
20 *62:15 *345:14 4.75766e-05
21 *66:11 *345:14 0.000117182
22 *70:8 *345:14 0
23 *70:8 *345:21 0
24 *155:8 *345:14 0.000141888
25 *158:10 *345:14 7.66341e-05
26 *309:10 *345:21 4.41095e-05
27 *321:8 *810:B 2.93747e-05
*RES
1 *981:Q *345:8 39.0979 
2 *345:8 *345:14 43.6064 
3 *345:14 *1068:A 23 
4 *345:8 *345:21 5.075 
5 *345:21 *812:B 38 
6 *345:21 *810:B 42.8057 
*END

*D_NET *346 0.00475102
*CONN
*I *886:B I *D sky130_fd_sc_hd__nand2_1
*I *887:B I *D sky130_fd_sc_hd__or2_1
*I *1069:A I *D sky130_fd_sc_hd__buf_2
*I *1000:Q O *D sky130_fd_sc_hd__dfrtp_1
*CAP
1 *886:B 2.34823e-05
2 *887:B 0
3 *1069:A 0.000392784
4 *1000:Q 0.00111411
5 *346:22 0.000676037
6 *346:14 0.00142084
7 *874:A *346:14 7.53303e-06
8 *887:A *346:22 7.06228e-05
9 *1000:CLK *346:14 1.03836e-05
10 *1000:D *346:14 0.000103415
11 *1000:RESET_B *346:14 4.19048e-05
12 *198:18 *346:14 9.03364e-06
13 *202:6 *1069:A 0.000150905
14 *203:12 *346:14 6.89706e-05
15 *203:27 *346:14 0.000129707
16 *215:10 *346:14 0.000230604
17 *215:10 *346:22 5.67058e-05
18 *217:18 *346:14 4.96207e-05
19 *344:33 *1069:A 5.50049e-05
20 *344:33 *346:22 0
21 *344:41 *1069:A 0.000139357
*RES
1 *1000:Q *346:14 41.1043 
2 *346:14 *346:22 35.4893 
3 *346:22 *1069:A 30.9543 
4 *346:22 *887:B 23 
5 *346:14 *886:B 23.4971 
*END

*D_NET *347 0.00227055
*CONN
*I *875:B I *D sky130_fd_sc_hd__nand2_1
*I *876:B I *D sky130_fd_sc_hd__or2_1
*I *1070:A I *D sky130_fd_sc_hd__buf_2
*I *1001:Q O *D sky130_fd_sc_hd__dfrtp_1
*CAP
1 *875:B 6.88997e-05
2 *876:B 0.000117645
3 *1070:A 0
4 *1001:Q 8.93929e-05
5 *347:21 0.000397152
6 *347:12 0.000331134
7 *347:6 0.000631134
8 *875:B *370:142 4.6318e-06
9 acc[21] *347:12 9.86551e-06
10 *49:17 *347:12 0
11 *90:8 *875:B 5.80963e-05
12 *308:10 *876:B 6.17437e-06
13 *311:14 *875:B 0.000225275
14 *311:14 *876:B 0.000223043
15 *344:41 *875:B 3.14977e-05
16 *344:41 *876:B 7.66085e-05
17 *344:41 *347:12 0
*RES
1 *1001:Q *347:6 24.5743 
2 *347:6 *347:12 36.1314 
3 *347:12 *1070:A 23 
4 *347:6 *347:21 18.48 
5 *347:21 *876:B 41.5836 
6 *347:21 *875:B 40.9621 
*END

*D_NET *348 0.00219904
*CONN
*I *879:B I *D sky130_fd_sc_hd__nand2_1
*I *878:B I *D sky130_fd_sc_hd__or2_1
*I *1071:A I *D sky130_fd_sc_hd__buf_2
*I *1002:Q O *D sky130_fd_sc_hd__dfrtp_1
*CAP
1 *879:B 0
2 *878:B 0
3 *1071:A 2.34823e-05
4 *1002:Q 0.000110804
5 *348:29 0.000159767
6 *348:23 0.000544863
7 *348:12 0.00046792
8 *348:8 0.000170146
9 *348:23 *370:134 0.000387667
10 *13:10 *348:12 5.47927e-05
11 *13:10 *348:23 4.06849e-05
12 *17:10 *348:8 0
13 *17:10 *348:12 2.93845e-05
14 *208:8 *348:29 0.000168754
15 *312:14 *348:29 4.07715e-05
16 *344:41 *348:8 0
*RES
1 *1002:Q *348:8 39.9057 
2 *348:8 *348:12 16.5743 
3 *348:12 *1071:A 23.4971 
4 *348:12 *348:23 8.74143 
5 *348:23 *348:29 33.3143 
6 *348:29 *878:B 23 
7 *348:23 *879:B 23 
*END

*D_NET *349 0.00171612
*CONN
*I *1072:A I *D sky130_fd_sc_hd__buf_2
*I *881:B I *D sky130_fd_sc_hd__nand2_1
*I *882:B I *D sky130_fd_sc_hd__or2_1
*I *1003:Q O *D sky130_fd_sc_hd__dfrtp_1
*CAP
1 *1072:A 8.57525e-05
2 *881:B 0.000403232
3 *882:B 0.00025172
4 *1003:Q 0
5 *349:6 0.000654951
6 *349:4 8.57525e-05
7 acc[23] *881:B 0
8 *1006:CLK *1072:A 9.84851e-05
9 *51:11 *881:B 0.000112665
10 *241:8 *881:B 0
11 *241:8 *882:B 0
12 *313:8 *881:B 2.35625e-05
13 *313:16 *881:B 0
14 *313:16 *882:B 0
*RES
1 *1003:Q *349:4 23 
2 *349:4 *349:6 15 
3 *349:6 *882:B 42.0807 
4 *349:6 *881:B 44.4421 
5 *349:4 *1072:A 24.9471 
*END

*D_NET *350 0.00168022
*CONN
*I *841:A I *D sky130_fd_sc_hd__or2_1
*I *840:A I *D sky130_fd_sc_hd__nand2_1
*I *1052:X O *D sky130_fd_sc_hd__clkbuf_1
*CAP
1 *841:A 0.000311394
2 *840:A 3.9506e-05
3 *1052:X 0.000250658
4 *350:6 0.000601558
5 *350:6 *752:A 3.22879e-05
6 *840:B *840:A 5.43894e-06
7 *840:B *350:6 0.000118217
8 *842:B *841:A 3.98523e-06
9 *942:A1 *840:A 0
10 *942:A1 *841:A 0.000139941
11 *41:15 *350:6 5.67058e-05
12 *169:6 *841:A 1.73399e-05
13 *169:6 *350:6 4.04598e-06
14 *169:21 *841:A 4.24356e-05
15 *252:16 *841:A 5.67058e-05
*RES
1 *1052:X *350:6 28.3857 
2 *350:6 *840:A 23.8493 
3 *350:6 *841:A 29.38 
*END

*D_NET *351 0.00413236
*CONN
*I *1073:A I *D sky130_fd_sc_hd__buf_2
*I *789:B I *D sky130_fd_sc_hd__nand2_1
*I *790:B I *D sky130_fd_sc_hd__or2_1
*I *1004:Q O *D sky130_fd_sc_hd__dfrtp_1
*CAP
1 *1073:A 0
2 *789:B 0
3 *790:B 0
4 *1004:Q 6.76924e-05
5 *351:38 0.000791389
6 *351:25 0.00110838
7 *351:12 0.000133935
8 *351:6 0.000518617
9 *351:6 *763:A 2.64616e-05
10 *351:12 *759:A 6.25829e-05
11 *351:12 *370:80 4.98707e-05
12 *351:25 *763:A 2.93845e-05
13 *782:B *351:38 0.000302348
14 *896:A3 *351:12 1.14452e-05
15 *896:A3 *351:25 0
16 *896:A3 *351:38 0
17 *920:A *351:38 5.50049e-05
18 *921:A *351:38 0
19 *1004:RESET_B *351:6 1.57571e-05
20 *52:13 *351:38 5.67058e-05
21 *109:10 *351:38 7.81176e-05
22 *110:6 *351:38 5.3304e-05
23 *110:23 *351:38 0.000379413
24 *111:10 *351:38 0
25 *224:12 *351:38 0
26 *224:40 *351:38 0
27 *225:10 *351:25 5.26535e-05
28 *225:10 *351:38 6.16439e-05
29 *242:8 *351:38 0
30 *301:28 *351:25 0.000118174
31 *301:40 *351:12 8.62783e-05
32 *301:40 *351:25 6.30615e-05
33 *314:10 *351:12 1.01436e-05
34 *314:10 *351:38 0
35 *316:37 *351:38 0
*RES
1 *1004:Q *351:6 24.0979 
2 *351:6 *351:12 33.3143 
3 *351:12 *790:B 23 
4 *351:6 *351:25 21.9393 
5 *351:25 *789:B 38 
6 *351:25 *351:38 30.6807 
7 *351:38 *1073:A 23 
*END

*D_NET *352 0.00235108
*CONN
*I *1074:A I *D sky130_fd_sc_hd__buf_2
*I *776:B I *D sky130_fd_sc_hd__or2_1
*I *775:B I *D sky130_fd_sc_hd__nand2_1
*I *1005:Q O *D sky130_fd_sc_hd__dfrtp_1
*CAP
1 *1074:A 0.000252822
2 *776:B 5.11166e-05
3 *775:B 0
4 *1005:Q 0
5 *352:23 0.000516979
6 *352:12 0.000177137
7 *352:4 0.000390178
8 *1074:A *370:63 0.000198892
9 *1074:A *370:106 2.24151e-05
10 *352:23 *764:A 1.76557e-05
11 *352:23 *370:63 0.000161121
12 acc[23] *1074:A 0
13 *918:A1 *776:B 0.000182826
14 *918:A2 *776:B 9.41704e-05
15 *53:9 *1074:A 1.14452e-05
16 *104:12 *776:B 1.56762e-05
17 *104:19 *776:B 5.67058e-05
18 *241:8 *1074:A 0
19 *294:8 *352:12 5.70419e-05
20 *294:8 *352:23 9.90162e-05
21 *295:10 *1074:A 4.5882e-05
*RES
1 *1005:Q *352:4 23 
2 *352:4 *352:12 33.3557 
3 *352:12 *775:B 23 
4 *352:4 *352:23 19.785 
5 *352:23 *776:B 40.0507 
6 *352:23 *1074:A 43.7793 
*END

*D_NET *353 0.00233398
*CONN
*I *780:B I *D sky130_fd_sc_hd__or2_1
*I *785:C1 I *D sky130_fd_sc_hd__o211a_1
*I *1075:A I *D sky130_fd_sc_hd__buf_2
*I *779:B I *D sky130_fd_sc_hd__nand2_1
*I *1006:Q O *D sky130_fd_sc_hd__dfrtp_1
*CAP
1 *780:B 0
2 *785:C1 9.0382e-05
3 *1075:A 3.72901e-05
4 *779:B 0
5 *1006:Q 0.000101677
6 *353:20 0.00018166
7 *353:16 0.000556365
8 *353:8 0.000423291
9 *785:C1 *778:B 7.24484e-05
10 *1075:A *766:A 0.000103647
11 *353:8 *778:B 0
12 *353:16 *778:B 2.92911e-06
13 *778:A *785:C1 0.000187129
14 *778:A *353:8 0
15 *778:A *353:16 1.24376e-05
16 *781:A *353:20 6.16439e-05
17 *921:A *353:16 5.09165e-05
18 *921:A *353:20 0.000171197
19 *115:10 *353:20 0
20 *316:29 *1075:A 0.000185434
21 *316:29 *353:20 0
22 *316:37 *353:16 8.1796e-05
23 *316:37 *353:20 1.37349e-05
*RES
1 *1006:Q *353:8 24.595 
2 *353:8 *353:16 20.0025 
3 *353:16 *353:20 18.4904 
4 *353:20 *779:B 23 
5 *353:20 *1075:A 25.0507 
6 *353:16 *785:C1 40.9932 
7 *353:8 *780:B 23 
*END

*D_NET *354 0.00383671
*CONN
*I *1076:A I *D sky130_fd_sc_hd__buf_2
*I *778:B I *D sky130_fd_sc_hd__xnor2_1
*I *786:A2 I *D sky130_fd_sc_hd__a211o_1
*I *785:A2 I *D sky130_fd_sc_hd__o211a_1
*I *1007:Q O *D sky130_fd_sc_hd__dfrtp_1
*CAP
1 *1076:A 0
2 *778:B 0.000391567
3 *786:A2 0
4 *785:A2 2.27377e-05
5 *1007:Q 2.87854e-05
6 *354:49 9.02369e-05
7 *354:27 0.000178896
8 *354:19 0.000593945
9 *354:8 0.000750667
10 *354:6 0.000823469
11 *354:6 *1077:A 2.32101e-05
12 *354:8 *1077:A 6.17437e-06
13 *354:49 *371:45 0.000111148
14 *778:A *778:B 4.05184e-05
15 *778:A *785:A2 2.60644e-05
16 *778:A *354:8 2.39468e-05
17 *785:B1 *354:27 0.000110913
18 *785:C1 *778:B 7.24484e-05
19 *1007:CLK *354:8 0.000208236
20 *60:11 *354:49 7.66188e-05
21 *113:10 *354:27 1.37349e-05
22 *316:29 *354:27 8.02774e-05
23 *318:18 *354:27 0.000160182
24 *353:8 *778:B 0
25 *353:16 *778:B 2.92911e-06
*RES
1 *1007:Q *354:6 23.6214 
2 *354:6 *354:8 13.9614 
3 *354:8 *785:A2 23.6577 
4 *354:8 *354:19 0.497143 
5 *354:19 *354:27 33.2314 
6 *354:27 *786:A2 23 
7 *354:19 *778:B 28.7793 
8 *354:6 *354:49 32.9621 
9 *354:49 *1076:A 23 
*END

*D_NET *355 0.00528238
*CONN
*I *1077:A I *D sky130_fd_sc_hd__buf_2
*I *772:B I *D sky130_fd_sc_hd__nand2_1
*I *773:B I *D sky130_fd_sc_hd__or2_1
*I *1008:Q O *D sky130_fd_sc_hd__dfrtp_1
*CAP
1 *1077:A 0.00024991
2 *772:B 3.53997e-05
3 *773:B 0
4 *1008:Q 0.000520401
5 *355:42 0.00103491
6 *355:19 0.000895958
7 *355:12 7.55554e-05
8 *355:10 0.000520401
9 *1077:A *1080:A 0.000137651
10 *355:42 *358:29 6.70363e-05
11 *355:42 *371:45 0.000619491
12 *772:A *772:B 0
13 *773:A *355:19 1.59094e-05
14 *910:A1 *355:42 0.000207277
15 *1011:D *355:42 5.50106e-05
16 *96:10 *355:42 0
17 *101:18 *355:19 9.5877e-05
18 *101:40 *355:19 8.6949e-05
19 *227:17 *355:42 0.000101243
20 *228:25 *355:10 0.000188916
21 *230:8 *355:10 0
22 *234:12 *355:42 0
23 *235:14 *355:42 0.000169665
24 *305:73 *772:B 0.00010018
25 *305:73 *355:19 2.18506e-05
26 *305:73 *355:42 1.40958e-05
27 *319:16 *355:19 1.21972e-05
28 *319:16 *355:42 2.71046e-05
29 *354:6 *1077:A 2.32101e-05
30 *354:8 *1077:A 6.17437e-06
*RES
1 *1008:Q *355:10 45.5193 
2 *355:10 *355:12 15 
3 *355:12 *773:B 23 
4 *355:12 *355:19 2.52714 
5 *355:19 *772:B 24.595 
6 *355:19 *355:42 48.0421 
7 *355:42 *1077:A 26.9771 
*END

*D_NET *356 0.00336579
*CONN
*I *1078:A I *D sky130_fd_sc_hd__buf_2
*I *899:B I *D sky130_fd_sc_hd__nor2_1
*I *900:B I *D sky130_fd_sc_hd__nand2_1
*I *1009:Q O *D sky130_fd_sc_hd__dfrtp_1
*CAP
1 *1078:A 0
2 *899:B 0
3 *900:B 2.10467e-05
4 *1009:Q 0.000137335
5 *356:38 0.00046336
6 *356:18 0.000252084
7 *356:10 0.000831733
8 *356:10 *371:24 3.52383e-05
9 *356:10 *371:32 3.83778e-05
10 *356:18 *371:45 5.73835e-06
11 *356:38 *905:B 3.70094e-05
12 *356:38 *912:B 0.000111045
13 *356:38 *358:29 5.3304e-05
14 *356:38 *371:32 2.96154e-05
15 *356:38 *371:45 9.78675e-05
16 *899:A *356:18 6.10445e-05
17 *900:A *900:B 5.67058e-05
18 *900:A *356:18 6.89881e-05
19 *36:11 *356:38 0.000241394
20 *57:15 *356:18 1.24376e-05
21 *306:8 *356:10 8.4047e-05
22 *306:8 *356:38 0.00042486
23 *322:10 *356:38 0.000139647
24 *323:14 *356:38 4.07818e-05
25 *333:42 *356:38 0.000122131
*RES
1 *1009:Q *356:10 40.2993 
2 *356:10 *356:18 18.9979 
3 *356:18 *900:B 23.6214 
4 *356:18 *899:B 23 
5 *356:10 *356:38 29.065 
6 *356:38 *1078:A 23 
*END

*D_NET *357 0.00201477
*CONN
*I *809:B I *D sky130_fd_sc_hd__nor2_1
*I *1079:A I *D sky130_fd_sc_hd__buf_2
*I *808:B I *D sky130_fd_sc_hd__and2_1
*I *982:Q O *D sky130_fd_sc_hd__dfrtp_1
*CAP
1 *809:B 0
2 *1079:A 0
3 *808:B 0
4 *982:Q 8.57409e-05
5 *357:25 0.00061696
6 *357:15 0.000665644
7 *357:8 0.000134424
8 *808:A *357:15 5.50049e-05
9 *970:A *357:25 1.14876e-05
10 *970:B *357:25 2.30292e-05
11 *971:A *357:25 9.84794e-05
12 *971:B *357:25 4.95081e-05
13 *71:8 *357:25 0
14 *137:10 *357:8 5.41288e-05
15 *137:10 *357:15 6.17437e-06
16 *137:10 *357:25 1.97329e-05
17 *138:10 *357:8 5.12254e-05
18 *138:10 *357:15 7.27182e-05
19 *269:10 *357:25 7.05156e-05
*RES
1 *982:Q *357:8 25.0714 
2 *357:8 *808:B 23 
3 *357:8 *357:15 1.57429 
4 *357:15 *357:25 41.7036 
5 *357:25 *1079:A 23 
6 *357:15 *809:B 23 
*END

*D_NET *358 0.00243972
*CONN
*I *1080:A I *D sky130_fd_sc_hd__buf_2
*I *904:B I *D sky130_fd_sc_hd__nor2_1
*I *905:B I *D sky130_fd_sc_hd__nand2_1
*I *1010:Q O *D sky130_fd_sc_hd__dfrtp_1
*CAP
1 *1080:A 0.00015177
2 *904:B 0
3 *905:B 3.07748e-05
4 *1010:Q 0.000287983
5 *358:29 0.000127054
6 *358:10 0.000252822
7 *358:8 0.000534746
8 *358:29 *371:45 6.48049e-05
9 *904:A *358:29 2.64616e-05
10 *1077:A *1080:A 0.000137651
11 *26:10 *1080:A 1.59094e-05
12 *99:8 *1080:A 0.000123698
13 *99:8 *358:10 3.92407e-05
14 *231:6 *358:29 1.94693e-05
15 *232:6 *358:29 0.000180218
16 *323:14 *905:B 7.75329e-06
17 *323:14 *358:10 6.61054e-05
18 *333:42 *905:B 2.96051e-05
19 *333:42 *1080:A 5.93726e-05
20 *333:42 *358:10 0.000126936
21 *355:42 *358:29 6.70363e-05
22 *356:38 *905:B 3.70094e-05
23 *356:38 *358:29 5.3304e-05
*RES
1 *1010:Q *358:8 41.48 
2 *358:8 *358:10 3.31429 
3 *358:10 *905:B 38.8493 
4 *358:10 *358:29 48.3764 
5 *358:29 *904:B 23 
6 *358:8 *1080:A 41.48 
*END

*D_NET *359 0.00134088
*CONN
*I *912:B I *D sky130_fd_sc_hd__xnor2_1
*I *1081:A I *D sky130_fd_sc_hd__buf_2
*I *1011:Q O *D sky130_fd_sc_hd__dfrtp_1
*CAP
1 *912:B 5.92765e-05
2 *1081:A 0
3 *1011:Q 0.000290761
4 *359:10 0.000350037
5 *36:11 *359:10 0.00014411
6 *319:16 *359:10 1.62778e-05
7 *333:42 *912:B 0.000227497
8 *333:42 *359:10 0.000141879
9 *356:38 *912:B 0.000111045
*RES
1 *1011:Q *359:10 42.9093 
2 *359:10 *1081:A 38 
3 *359:10 *912:B 40.9621 
*END

*D_NET *360 0.00716848
*CONN
*I *818:B I *D sky130_fd_sc_hd__xor2_1
*I *819:A2 I *D sky130_fd_sc_hd__o22ai_1
*I *817:A2 I *D sky130_fd_sc_hd__a21o_1
*I *832:A2 I *D sky130_fd_sc_hd__o221ai_4
*I *1082:A I *D sky130_fd_sc_hd__buf_2
*I *983:Q O *D sky130_fd_sc_hd__dfrtp_4
*CAP
1 *818:B 0.000386929
2 *819:A2 0
3 *817:A2 0.00028649
4 *832:A2 0.000103309
5 *1082:A 0
6 *983:Q 0.000313612
7 *360:40 0.00028649
8 *360:38 0.000454769
9 *360:25 0.000729674
10 *360:16 0.000635453
11 *360:10 0.00150759
12 *360:10 *368:173 0
13 *360:16 *829:B 8.51225e-05
14 *360:16 *362:21 0.00013118
15 *360:16 *363:10 0.000224345
16 *360:16 *368:169 0
17 *360:16 *368:173 0
18 *360:16 *369:52 0
19 *360:16 *369:84 0
20 *360:25 *1083:A 2.93845e-05
21 acc[5] *360:16 5.31385e-05
22 *819:B2 *817:A2 0.000172996
23 *828:A *360:25 2.93845e-05
24 *829:A *360:16 0
25 *831:C *832:A2 1.57571e-05
26 *831:C *360:25 3.17516e-05
27 *832:B1 *832:A2 0
28 *832:B1 *360:38 0
29 *955:A *832:A2 5.50106e-05
30 *955:A *360:25 0.00021477
31 *29:10 *360:16 0.000281199
32 *62:15 *360:16 1.22803e-05
33 *62:15 *360:25 7.2e-05
34 *66:11 *360:10 0.000169674
35 *72:8 *360:10 0
36 *145:21 *818:B 0
37 *146:12 *817:A2 5.3304e-05
38 *147:10 *818:B 8.1796e-05
39 *148:8 *360:38 0.000114092
40 *303:60 *818:B 0.000170538
41 *303:75 *818:B 0
42 *324:16 *817:A2 7.29095e-05
43 *324:45 *818:B 1.83667e-05
44 *324:45 *360:38 6.7911e-05
45 *330:12 *817:A2 1.32939e-05
46 *345:14 *360:10 5.86535e-05
47 *345:14 *360:16 0.000235309
*RES
1 *983:Q *360:10 43.8207 
2 *360:10 *360:16 30.6807 
3 *360:16 *1082:A 23 
4 *360:10 *360:25 25.15 
5 *360:25 *832:A2 24.9471 
6 *360:25 *360:38 16.9057 
7 *360:38 *360:40 15 
8 *360:40 *817:A2 28.7586 
9 *360:40 *819:A2 23 
10 *360:38 *818:B 45.1464 
*END

*D_NET *361 0.00139434
*CONN
*I *843:A I *D sky130_fd_sc_hd__or2_1
*I *844:A I *D sky130_fd_sc_hd__nand2_1
*I *1053:X O *D sky130_fd_sc_hd__clkbuf_1
*CAP
1 *843:A 5.08893e-05
2 *844:A 0.000137923
3 *1053:X 0.000172172
4 *361:8 0.000360985
5 *361:8 *368:10 0
6 *843:B *843:A 1.24376e-05
7 *845:B *844:A 2.70366e-05
8 *845:B *361:8 8.51432e-05
9 *1061:A *361:8 0
10 *1062:A *844:A 6.16439e-05
11 *1062:A *361:8 0.000157309
12 *173:10 *844:A 8.98578e-05
13 *254:10 *844:A 0
14 *338:10 *844:A 1.14452e-05
15 *338:19 *844:A 0.000227497
*RES
1 *1053:X *361:8 42.3707 
2 *361:8 *844:A 42.2879 
3 *361:8 *843:A 38.6214 
*END

*D_NET *362 0.00143062
*CONN
*I *1083:A I *D sky130_fd_sc_hd__buf_2
*I *828:B I *D sky130_fd_sc_hd__nand2_1
*I *829:B I *D sky130_fd_sc_hd__or2_1
*I *984:Q O *D sky130_fd_sc_hd__dfrtp_1
*CAP
1 *1083:A 1.80182e-05
2 *828:B 0
3 *829:B 7.10381e-05
4 *984:Q 0.000157029
5 *362:21 0.000141066
6 *362:8 0.000351114
7 *828:A *362:21 1.4471e-05
8 *829:A *829:B 5.33546e-05
9 *830:A *362:8 9.47227e-05
10 *62:15 *1083:A 5.50106e-05
11 *157:8 *362:21 0.000166522
12 *157:18 *829:B 1.01436e-05
13 *157:18 *362:21 5.24393e-05
14 *360:16 *829:B 8.51225e-05
15 *360:16 *362:21 0.00013118
16 *360:25 *1083:A 2.93845e-05
*RES
1 *984:Q *362:8 40.0507 
2 *362:8 *829:B 40.2579 
3 *362:8 *362:21 18.6664 
4 *362:21 *828:B 23 
5 *362:21 *1083:A 23.6214 
*END

*D_NET *363 0.00103021
*CONN
*I *826:B I *D sky130_fd_sc_hd__or2_1
*I *1084:A I *D sky130_fd_sc_hd__buf_2
*I *825:B I *D sky130_fd_sc_hd__nand2_1
*I *985:Q O *D sky130_fd_sc_hd__dfrtp_1
*CAP
1 *826:B 6.00067e-05
2 *1084:A 0
3 *825:B 0.000115158
4 *985:Q 0
5 *363:10 0.000256184
6 *363:4 0.000201032
7 *825:B *976:A 0
8 *825:A *363:10 0
9 *826:A *826:B 2.93747e-05
10 *827:A *825:B 4.37033e-05
11 *827:B *825:B 4.37033e-05
12 *156:8 *825:B 5.67058e-05
13 *360:16 *363:10 0.000224345
*RES
1 *985:Q *363:4 23 
2 *363:4 *363:10 32.9621 
3 *363:10 *825:B 26.045 
4 *363:10 *1084:A 23 
5 *363:4 *826:B 24.1186 
*END

*D_NET *364 0.0024422
*CONN
*I *963:A2 I *D sky130_fd_sc_hd__a21oi_1
*I *820:B I *D sky130_fd_sc_hd__xnor2_1
*I *1085:A I *D sky130_fd_sc_hd__buf_2
*I *833:A2 I *D sky130_fd_sc_hd__a21oi_1
*I *986:Q O *D sky130_fd_sc_hd__dfrtp_1
*CAP
1 *963:A2 0.000146417
2 *820:B 0
3 *1085:A 0.000108953
4 *833:A2 0
5 *986:Q 6.60011e-05
6 *364:28 0.000204976
7 *364:14 0.00024673
8 *364:6 0.000262337
9 acc[6] *1085:A 2.4754e-05
10 *963:B1 *963:A2 0.000184527
11 *963:B1 *364:6 6.17437e-06
12 *963:B1 *364:28 4.21378e-05
13 *964:B *963:A2 0.000101757
14 *64:11 *1085:A 0.000394994
15 *64:11 *364:14 9.03134e-05
16 *149:10 *963:A2 0.000117401
17 *150:22 *1085:A 5.50106e-05
18 *327:22 *1085:A 0.000140454
19 *327:30 *1085:A 2.32101e-05
20 *327:30 *364:14 0.000226056
21 *332:56 *364:14 0
*RES
1 *986:Q *364:6 24.0979 
2 *364:6 *364:14 33.5836 
3 *364:14 *833:A2 23 
4 *364:14 *1085:A 27.4329 
5 *364:6 *364:28 1.09786 
6 *364:28 *820:B 23 
7 *364:28 *963:A2 28.1164 
*END

*D_NET *365 0.00311643
*CONN
*I *1086:A I *D sky130_fd_sc_hd__buf_2
*I *822:B I *D sky130_fd_sc_hd__nor2_1
*I *821:B I *D sky130_fd_sc_hd__and2_1
*I *987:Q O *D sky130_fd_sc_hd__dfrtp_1
*CAP
1 *1086:A 0.000101208
2 *822:B 0
3 *821:B 0
4 *987:Q 0.000569426
5 *365:24 0.000227565
6 *365:16 0.000468349
7 *365:12 0.000341993
8 *365:10 0.000569426
9 *365:10 *369:84 4.06849e-05
10 acc[7] *1086:A 4.34745e-05
11 acc[7] *365:16 5.50106e-05
12 *822:A *365:16 5.90675e-06
13 *824:B *365:24 3.20914e-05
14 *987:RESET_B *365:10 1.12709e-05
15 *1047:A *365:10 0
16 *1047:A *365:16 0.00010018
17 *1047:A *365:24 4.6318e-06
18 *150:12 *365:24 7.80457e-05
19 *151:8 *365:16 2.77477e-05
20 *151:8 *365:24 5.50106e-05
21 *151:16 *365:16 2.02517e-05
22 *151:16 *365:24 0
23 *152:8 *365:24 0.000166513
24 *329:6 *365:16 9.24795e-06
25 *329:14 *365:10 0
26 *329:14 *365:16 1.14876e-05
27 *329:14 *365:24 0.000176903
*RES
1 *987:Q *365:10 46.4721 
2 *365:10 *365:12 15 
3 *365:12 *365:16 4.93 
4 *365:16 *365:24 36.4007 
5 *365:24 *821:B 23 
6 *365:16 *822:B 23 
7 *365:12 *1086:A 25.0714 
*END

*D_NET *366 0.00317192
*CONN
*I *1087:A I *D sky130_fd_sc_hd__buf_2
*I *805:B I *D sky130_fd_sc_hd__nand2_1
*I *806:B I *D sky130_fd_sc_hd__or2_1
*I *988:Q O *D sky130_fd_sc_hd__dfrtp_1
*CAP
1 *1087:A 0
2 *805:B 0
3 *806:B 9.86625e-05
4 *988:Q 0
5 *366:34 0.00110667
6 *366:10 0.000324257
7 *366:6 0.00133227
8 *366:10 *369:97 0
9 *806:A *806:B 5.50049e-05
10 *813:A *366:34 0.000126847
11 *817:B1 *366:10 0
12 *134:10 *806:B 5.50049e-05
13 *137:24 *366:10 0
14 *137:24 *366:34 0
15 *142:10 *366:34 1.73399e-05
16 *303:60 *806:B 2.46468e-05
17 *309:10 *366:34 2.65879e-05
18 *330:18 *366:10 4.6318e-06
*RES
1 *988:Q *366:6 38 
2 *366:6 *366:10 19.0186 
3 *366:10 *806:B 25.2164 
4 *366:10 *805:B 23 
5 *366:6 *366:34 33.8707 
6 *366:34 *1087:A 23 
*END

*D_NET *367 0.00247376
*CONN
*I *799:B I *D sky130_fd_sc_hd__nand2_1
*I *800:B I *D sky130_fd_sc_hd__or2_1
*I *1088:A I *D sky130_fd_sc_hd__buf_2
*I *989:Q O *D sky130_fd_sc_hd__dfrtp_1
*CAP
1 *799:B 0
2 *800:B 7.90086e-05
3 *1088:A 0
4 *989:Q 0.000167135
5 *367:27 0.000110412
6 *367:18 0.00059745
7 *367:10 0.000795988
8 *800:B *748:A 0
9 *800:B *368:142 0.000141052
10 *367:18 *369:8 0.000119735
11 *367:27 *368:142 2.18409e-05
12 acc[9] *367:18 5.47927e-05
13 *800:A *800:B 4.66969e-05
14 *803:A *367:10 0
15 *128:8 *367:10 4.334e-05
16 *278:14 *367:10 9.84851e-05
17 *328:23 *367:18 0
18 *331:8 *367:18 0.00019782
19 *332:56 *367:10 0
20 *332:56 *367:18 0
*RES
1 *989:Q *367:10 41.0036 
2 *367:10 *367:18 28.5264 
3 *367:18 *1088:A 23 
4 *367:10 *367:27 15.6214 
5 *367:27 *800:B 25.5686 
6 *367:27 *799:B 23 
*END

*D_NET *368 0.021918
*CONN
*I *972:A I *D sky130_fd_sc_hd__inv_2
*I *748:A I *D sky130_fd_sc_hd__inv_2
*I *751:A I *D sky130_fd_sc_hd__inv_2
*I *755:A I *D sky130_fd_sc_hd__inv_2
*I *750:A I *D sky130_fd_sc_hd__inv_2
*I *754:A I *D sky130_fd_sc_hd__inv_2
*I *749:A I *D sky130_fd_sc_hd__inv_2
*I *753:A I *D sky130_fd_sc_hd__inv_2
*I *756:A I *D sky130_fd_sc_hd__inv_2
*I *752:A I *D sky130_fd_sc_hd__inv_2
*I *1020:X O *D sky130_fd_sc_hd__buf_4
*CAP
1 *972:A 0
2 *748:A 2.00578e-05
3 *751:A 4.24639e-05
4 *755:A 0
5 *750:A 2.81701e-05
6 *754:A 0
7 *749:A 2.13744e-05
8 *753:A 0.000563859
9 *756:A 0.00055584
10 *752:A 0.000228624
11 *1020:X 0
12 *368:173 0.000695023
13 *368:169 0.00197714
14 *368:142 0.00195683
15 *368:116 0.000855621
16 *368:108 0.00119543
17 *368:100 0.0012637
18 *368:82 0.000231414
19 *368:74 0.000607013
20 *368:65 0.00078773
21 *368:42 0.00130122
22 *368:10 0.00131151
23 *368:4 0.000590113
24 *368:169 *369:35 0.000209925
25 *368:169 *369:52 1.5037e-05
26 *368:173 *974:A 0.000670306
27 *368:173 *369:52 2.31116e-05
28 *798:A *368:142 2.93845e-05
29 *798:B *368:100 3.04516e-05
30 *798:B *368:142 0.00012612
31 *800:A *368:142 3.53115e-05
32 *800:B *748:A 0
33 *800:B *368:142 0.000141052
34 *802:A *368:142 9.8355e-05
35 *825:A *368:169 8.60079e-05
36 *826:A *368:169 1.59094e-05
37 *828:A *368:173 2.60152e-05
38 *829:A *368:169 2.5343e-05
39 *829:A *368:173 9.13083e-05
40 *834:A1 *368:169 9.84794e-05
41 *834:B2 *368:169 0.000252144
42 *840:B *752:A 5.50049e-05
43 *845:B *368:10 0
44 *850:A *368:10 0
45 *850:A *368:65 0
46 *945:A *368:10 7.8211e-05
47 *945:A *368:42 0.000343493
48 *952:B1_N *368:142 2.02872e-05
49 *953:A *750:A 2.30292e-05
50 *958:B *368:169 5.83407e-05
51 *997:D *756:A 7.36197e-05
52 *997:RESET_B *756:A 0.000226306
53 *1027:A *368:173 0
54 *1061:A *752:A 0
55 *66:11 *368:173 0
56 *70:8 *368:173 0.000116314
57 *72:8 *368:173 7.28526e-05
58 *73:8 *368:173 0.00019654
59 *78:10 *368:169 5.50106e-05
60 *79:10 *368:74 0.000139357
61 *79:10 *368:100 1.32314e-05
62 *80:10 *368:82 3.81391e-05
63 *81:10 *368:116 0.000168754
64 *82:8 *756:A 0
65 *85:10 *368:116 1.94812e-05
66 *127:10 *368:142 6.18949e-05
67 *129:12 *368:142 0.00030805
68 *129:33 *368:142 1.32939e-05
69 *141:14 *368:173 4.21594e-06
70 *167:6 *751:A 2.64616e-05
71 *167:29 *368:116 0
72 *168:10 *368:116 0
73 *172:12 *368:10 0
74 *173:10 *368:10 0
75 *174:10 *368:10 0
76 *175:16 *368:65 0.000128159
77 *176:10 *368:65 4.08641e-05
78 *177:10 *753:A 0
79 *179:10 *368:65 0.000161121
80 *185:8 *368:65 2.79364e-05
81 *252:16 *756:A 0
82 *252:16 *368:10 0
83 *253:8 *368:10 0
84 *254:10 *368:10 0
85 *257:21 *368:100 9.84794e-05
86 *257:21 *368:108 0.000195248
87 *258:10 *368:74 4.67488e-05
88 *258:10 *368:100 0.000192031
89 *262:10 *368:169 0.000195283
90 *270:8 *368:173 0
91 *283:8 *753:A 0
92 *283:8 *368:10 0.000138727
93 *284:10 *753:A 0
94 *302:16 *368:108 0
95 *302:32 *368:10 0
96 *302:38 *756:A 0.000130685
97 *302:78 *753:A 0.000179917
98 *302:109 *368:108 0.000139647
99 *302:109 *368:116 0.000349567
100 *302:124 *368:108 0.00042214
101 *303:75 *368:173 0
102 *326:10 *368:169 8.4047e-05
103 *332:12 *753:A 0.000106203
104 *332:35 *368:10 9.5877e-05
105 *332:35 *368:42 0.000356724
106 *332:35 *368:65 5.3304e-05
107 *332:35 *368:74 2.02872e-05
108 *334:10 *368:82 0
109 *336:14 *368:82 0.000381644
110 *345:14 *368:173 0
111 *345:21 *368:173 0
112 *350:6 *752:A 3.22879e-05
113 *360:10 *368:173 0
114 *360:16 *368:169 0
115 *360:16 *368:173 0
116 *361:8 *368:10 0
117 *367:27 *368:142 2.18409e-05
*RES
1 *1020:X *368:4 23 
2 *368:4 *368:10 24.8704 
3 *368:10 *752:A 41.4696 
4 *368:10 *756:A 49.8382 
5 *368:4 *368:42 18.9564 
6 *368:42 *753:A 49.1029 
7 *368:42 *368:65 26.1443 
8 *368:65 *749:A 23.4971 
9 *368:65 *368:74 2.05071 
10 *368:74 *368:82 35.5721 
11 *368:82 *754:A 23 
12 *368:82 *750:A 23.6214 
13 *368:74 *368:100 7.33286 
14 *368:100 *368:108 23.6586 
15 *368:108 *368:116 33.6843 
16 *368:116 *755:A 23 
17 *368:108 *751:A 38.6214 
18 *368:100 *368:142 14.1893 
19 *368:142 *748:A 23.4971 
20 *368:142 *368:169 41.7939 
21 *368:169 *368:173 32.2239 
22 *368:173 *972:A 23 
*END

*D_NET *369 0.0117132
*CONN
*I *979:A I *D sky130_fd_sc_hd__inv_2
*I *978:A I *D sky130_fd_sc_hd__inv_2
*I *974:A I *D sky130_fd_sc_hd__inv_2
*I *975:A I *D sky130_fd_sc_hd__inv_2
*I *976:A I *D sky130_fd_sc_hd__inv_2
*I *977:A I *D sky130_fd_sc_hd__inv_2
*I *1021:X O *D sky130_fd_sc_hd__buf_2
*CAP
1 *979:A 0
2 *978:A 0
3 *974:A 0.00041341
4 *975:A 4.11597e-05
5 *976:A 2.34823e-05
6 *977:A 0
7 *1021:X 0.000145114
8 *369:97 0.0012042
9 *369:84 0.000255003
10 *369:52 0.00065052
11 *369:48 0.000473139
12 *369:39 0.000402495
13 *369:35 0.000776866
14 *369:27 0.00193917
15 *369:12 0.000351429
16 *369:8 0.000181611
17 *824:A *369:39 5.50106e-05
18 *825:A *369:52 0.000300209
19 *825:B *976:A 0
20 *827:A *369:84 6.17437e-06
21 *831:B *369:97 0
22 *834:B2 *369:35 0.000323856
23 *960:A1 *369:27 0
24 *960:A2 *369:39 6.68822e-05
25 *961:C *369:39 0.00018282
26 *987:RESET_B *369:84 0.000143655
27 *988:RESET_B *369:97 0.00012308
28 *63:11 *369:52 8.06103e-05
29 *74:8 *369:52 0.000192816
30 *75:10 *369:8 0.000110913
31 *75:10 *369:12 2.64616e-05
32 *78:10 *369:97 0
33 *134:18 *369:97 6.88922e-05
34 *135:8 *369:97 0.000140958
35 *149:10 *369:35 6.07611e-06
36 *151:16 *369:35 9.48381e-06
37 *153:8 *369:35 0.000114083
38 *154:8 *369:39 0.00028866
39 *154:8 *369:48 3.71251e-05
40 *154:8 *369:84 2.98648e-05
41 *156:8 *369:39 0.000487147
42 *156:8 *369:48 8.6949e-05
43 *156:8 *369:84 8.52481e-05
44 *159:23 *974:A 0
45 *162:8 *369:27 0
46 *162:8 *369:35 0
47 *162:8 *369:97 0
48 *163:8 *369:97 0.000137392
49 *260:10 *974:A 0
50 *263:10 *369:27 1.01436e-05
51 *264:12 *369:27 3.44446e-05
52 *273:10 *974:A 0
53 *275:10 *369:27 3.86324e-05
54 *324:6 *974:A 0.000182826
55 *326:10 *975:A 2.64616e-05
56 *326:10 *369:52 7.48331e-05
57 *330:12 *974:A 0.000182826
58 *330:18 *369:97 0
59 *332:56 *369:8 0.000122304
60 *332:56 *369:27 0
61 *332:56 *369:97 0
62 *360:16 *369:52 0
63 *360:16 *369:84 0
64 *365:10 *369:84 4.06849e-05
65 *366:10 *369:97 0
66 *367:18 *369:8 0.000119735
67 *368:169 *369:35 0.000209925
68 *368:169 *369:52 1.5037e-05
69 *368:173 *974:A 0.000670306
70 *368:173 *369:52 2.31116e-05
*RES
1 *1021:X *369:8 42.7229 
2 *369:8 *369:12 15.6214 
3 *369:12 *977:A 23 
4 *369:12 *369:27 20.9036 
5 *369:27 *369:35 38.8243 
6 *369:35 *369:39 25.6264 
7 *369:39 *976:A 23.4971 
8 *369:39 *369:48 1.09786 
9 *369:48 *369:52 21.1314 
10 *369:52 *975:A 38.6214 
11 *369:52 *974:A 48.9993 
12 *369:48 *369:84 35.5514 
13 *369:84 *978:A 23 
14 *369:27 *369:97 38.2829 
15 *369:97 *979:A 23 
*END

*D_NET *370 0.0220466
*CONN
*I *761:A I *D sky130_fd_sc_hd__inv_2
*I *760:A I *D sky130_fd_sc_hd__inv_2
*I *766:A I *D sky130_fd_sc_hd__inv_2
*I *765:A I *D sky130_fd_sc_hd__inv_2
*I *763:A I *D sky130_fd_sc_hd__inv_2
*I *759:A I *D sky130_fd_sc_hd__inv_2
*I *764:A I *D sky130_fd_sc_hd__inv_2
*I *762:A I *D sky130_fd_sc_hd__inv_2
*I *758:A I *D sky130_fd_sc_hd__inv_2
*I *757:A I *D sky130_fd_sc_hd__inv_2
*I *1022:X O *D sky130_fd_sc_hd__buf_4
*CAP
1 *761:A 0
2 *760:A 0
3 *766:A 0.00121345
4 *765:A 0
5 *763:A 5.11504e-05
6 *759:A 0.000541583
7 *764:A 6.54887e-05
8 *762:A 1.69432e-05
9 *758:A 0.000435288
10 *757:A 0.0004773
11 *1022:X 3.35248e-05
12 *370:142 0.000331343
13 *370:134 0.00151311
14 *370:106 0.00127384
15 *370:80 0.00117143
16 *370:63 0.00101624
17 *370:55 0.00105662
18 *370:36 0.000692991
19 *370:32 0.00221274
20 *370:21 0.0015183
21 *370:8 0.000614748
22 *781:A *766:A 9.58714e-05
23 *786:C1 *766:A 2.93747e-05
24 *875:B *370:142 4.6318e-06
25 *883:A *370:134 0.000277792
26 *894:A2 *370:32 1.03972e-05
27 *914:B *370:32 0.000170916
28 *915:A *370:80 0
29 *917:A *370:80 9.84794e-05
30 *918:A2 *370:63 0.000182863
31 *920:A *766:A 0.000467453
32 *920:A *370:55 0.000108985
33 *920:A *370:106 9.84851e-05
34 *920:B *370:55 0.000141954
35 *1004:RESET_B *763:A 5.3304e-05
36 *1022:A *370:8 1.32314e-05
37 *1074:A *370:63 0.000198892
38 *1074:A *370:106 2.24151e-05
39 *1075:A *766:A 0.000103647
40 *50:11 *370:134 2.93431e-05
41 *51:11 *370:55 4.26834e-05
42 *51:11 *370:134 0
43 *53:9 *370:106 1.14452e-05
44 *54:13 *766:A 5.60174e-05
45 *55:13 *766:A 8.1796e-05
46 *87:10 *757:A 2.18926e-05
47 *91:8 *370:142 0.000199701
48 *92:10 *370:32 9.88678e-05
49 *92:10 *370:36 6.17437e-06
50 *92:10 *370:55 2.02872e-05
51 *95:8 *370:63 6.88552e-05
52 *110:6 *766:A 0.000167786
53 *115:10 *766:A 5.50049e-05
54 *118:25 *370:80 0
55 *198:18 *757:A 2.39018e-05
56 *198:18 *370:21 7.27411e-05
57 *198:18 *370:32 0.000187525
58 *198:39 *370:32 0
59 *210:6 *370:36 5.41385e-05
60 *210:6 *370:55 2.32004e-05
61 *210:6 *370:134 5.3304e-05
62 *210:27 *370:32 0.000713114
63 *210:27 *370:134 5.33597e-05
64 *218:10 *370:32 8.4047e-05
65 *222:12 *370:32 0.000261625
66 *240:10 *370:63 3.70187e-05
67 *240:10 *370:80 3.31683e-05
68 *291:10 *370:142 0
69 *294:8 *764:A 5.67058e-05
70 *295:10 *370:55 9.58714e-05
71 *301:28 *759:A 0
72 *301:40 *763:A 7.53384e-06
73 *304:110 *370:32 0.000185755
74 *311:8 *370:142 5.50106e-05
75 *311:14 *370:142 6.7177e-06
76 *312:8 *370:134 0.000153155
77 *313:8 *762:A 9.72057e-06
78 *313:8 *370:55 0.000268041
79 *313:16 *370:32 6.21538e-05
80 *313:16 *370:55 6.72929e-05
81 *313:16 *370:134 1.19796e-05
82 *314:10 *370:80 0.000200432
83 *315:10 *766:A 4.6595e-05
84 *315:10 *370:63 0
85 *315:10 *370:106 3.22879e-05
86 *316:8 *766:A 0.000219383
87 *316:29 *766:A 4.37965e-05
88 *318:8 *766:A 9.24795e-06
89 *318:18 *766:A 5.3304e-05
90 *332:39 *757:A 0.000225275
91 *332:52 *370:8 5.50049e-05
92 *344:41 *370:142 0.000674778
93 *348:23 *370:134 0.000387667
94 *351:6 *763:A 2.64616e-05
95 *351:12 *759:A 6.25829e-05
96 *351:12 *370:80 4.98707e-05
97 *351:25 *763:A 2.93845e-05
98 *352:23 *764:A 1.76557e-05
99 *352:23 *370:63 0.000161121
*RES
1 *1022:X *370:8 38.6214 
2 *370:8 *757:A 46.5757 
3 *370:8 *370:21 2.25786 
4 *370:21 *758:A 44.815 
5 *370:21 *370:32 25.4993 
6 *370:32 *370:36 16.0979 
7 *370:36 *762:A 23.4971 
8 *370:36 *370:55 27.7393 
9 *370:55 *370:63 24.0107 
10 *370:63 *764:A 24.5743 
11 *370:63 *370:80 26.5379 
12 *370:80 *759:A 48.1293 
13 *370:80 *763:A 39.0979 
14 *370:55 *370:106 16.9471 
15 *370:106 *765:A 23 
16 *370:106 *766:A 48.3336 
17 *370:32 *370:134 34.4921 
18 *370:134 *370:142 39.57 
19 *370:142 *760:A 23 
20 *370:134 *761:A 23 
*END

*D_NET *371 0.00848114
*CONN
*I *973:A I *D sky130_fd_sc_hd__inv_2
*I *767:A I *D sky130_fd_sc_hd__inv_2
*I *768:A I *D sky130_fd_sc_hd__inv_2
*I *771:A I *D sky130_fd_sc_hd__inv_2
*I *769:A I *D sky130_fd_sc_hd__inv_2
*I *770:A I *D sky130_fd_sc_hd__inv_2
*I *1023:X O *D sky130_fd_sc_hd__buf_2
*CAP
1 *973:A 0.000180309
2 *767:A 0.000551045
3 *768:A 0
4 *771:A 0
5 *769:A 6.85431e-05
6 *770:A 0
7 *1023:X 0
8 *371:45 0.000829039
9 *371:32 0.000902856
10 *371:24 0.000849127
11 *371:14 0.000891908
12 *371:10 0.000902983
13 *371:4 0.000347107
14 *814:B *371:24 4.37033e-05
15 *899:A *371:45 9.72057e-06
16 *900:A *371:45 3.22879e-05
17 *903:A *767:A 0.000228903
18 *970:A *371:32 4.21594e-06
19 *980:CLK *767:A 0
20 *980:CLK *371:14 0.000185428
21 *980:CLK *371:24 0
22 *26:10 *371:45 0
23 *57:15 *371:32 5.50049e-05
24 *57:15 *371:45 2.13125e-05
25 *60:11 *371:45 0
26 *96:10 *371:45 0
27 *97:8 *767:A 0
28 *98:10 *371:24 0
29 *100:10 *371:32 3.7122e-06
30 *227:17 *371:45 7.03214e-05
31 *230:8 *767:A 0.000139657
32 *306:8 *371:32 1.94418e-05
33 *306:8 *371:45 0.000148402
34 *320:6 *371:45 1.37232e-05
35 *323:8 *769:A 1.59094e-05
36 *323:14 *371:45 0.000773045
37 *333:25 *371:32 3.70094e-05
38 *333:42 *371:32 0.000154147
39 *354:49 *371:45 0.000111148
40 *355:42 *371:45 0.000619491
41 *356:10 *371:24 3.52383e-05
42 *356:10 *371:32 3.83778e-05
43 *356:18 *371:45 5.73835e-06
44 *356:38 *371:32 2.96154e-05
45 *356:38 *371:45 9.78675e-05
46 *358:29 *371:45 6.48049e-05
*RES
1 *1023:X *371:4 23 
2 *371:4 *371:10 17.5271 
3 *371:10 *371:14 18.9564 
4 *371:14 *371:24 42.6564 
5 *371:24 *371:32 33.2314 
6 *371:32 *770:A 23 
7 *371:32 *371:45 37.4129 
8 *371:45 *769:A 39.0979 
9 *371:24 *771:A 23 
10 *371:14 *768:A 23 
11 *371:10 *767:A 47.3007 
12 *371:4 *973:A 26.3764 
*END

*D_NET *372 0.00309799
*CONN
*I *847:A I *D sky130_fd_sc_hd__nor2_1
*I *846:A I *D sky130_fd_sc_hd__nand2_1
*I *848:A I *D sky130_fd_sc_hd__or2_1
*I *1054:X O *D sky130_fd_sc_hd__buf_1
*CAP
1 *847:A 0.000116977
2 *846:A 0
3 *848:A 0.000198414
4 *1054:X 6.62564e-05
5 *372:37 0.000349764
6 *372:29 0.000489521
7 *372:8 0.000521405
8 *847:B *847:A 3.17824e-05
9 *847:B *372:37 7.2092e-05
10 *848:B *848:A 0.000274974
11 *849:B *847:A 2.93335e-05
12 *953:A *372:29 4.52198e-05
13 *995:RESET_B *372:29 3.40979e-05
14 *1054:A *848:A 2.47127e-05
15 *175:8 *847:A 0.000120893
16 *175:8 *372:37 1.3867e-05
17 *177:10 *372:37 0.000161804
18 *332:35 *847:A 0.000286834
19 *340:8 *372:29 1.24376e-05
20 *340:12 *372:29 7.45175e-05
21 *340:30 *372:29 1.12863e-05
22 *340:30 *372:37 0.000161804
*RES
1 *1054:X *372:8 24.1186 
2 *372:8 *848:A 26.9564 
3 *372:8 *372:29 49.7021 
4 *372:29 *372:37 19.6814 
5 *372:37 *846:A 23 
6 *372:37 *847:A 27.7021 
*END

*D_NET *373 0.00255982
*CONN
*I *867:A I *D sky130_fd_sc_hd__or2_1
*I *866:A I *D sky130_fd_sc_hd__nand2_1
*I *872:A1 I *D sky130_fd_sc_hd__a31o_1
*I *1055:X O *D sky130_fd_sc_hd__buf_1
*CAP
1 *867:A 8.71073e-05
2 *866:A 0
3 *872:A1 2.0995e-05
4 *1055:X 0.000175893
5 *373:21 0.000367333
6 *373:6 0.000477114
7 *868:A *867:A 3.53115e-05
8 *868:A *373:21 6.26126e-05
9 *868:B *867:A 0.00014428
10 *872:B1 *373:21 5.50049e-05
11 *197:6 *867:A 4.93812e-05
12 *341:23 *867:A 0.000421388
13 *341:23 *373:21 3.58447e-05
14 *341:27 *872:A1 1.14154e-05
15 *341:27 *373:6 2.18409e-05
16 *341:27 *373:21 0.000320218
17 *341:35 *373:6 0.000274078
*RES
1 *1055:X *373:6 26.9564 
2 *373:6 *872:A1 23.4971 
3 *373:6 *373:21 7.00143 
4 *373:21 *866:A 23 
5 *373:21 *867:A 27.93 
*END

*D_NET *374 0.0012495
*CONN
*I *935:A1 I *D sky130_fd_sc_hd__a21o_1
*I *871:A I *D sky130_fd_sc_hd__and3_1
*I *859:A I *D sky130_fd_sc_hd__xnor2_1
*I *1056:X O *D sky130_fd_sc_hd__buf_1
*CAP
1 *935:A1 8.08436e-05
2 *871:A 0
3 *859:A 0.000186766
4 *1056:X 0
5 *374:23 0.000133923
6 *374:15 0.000224752
7 *374:4 0.000196752
8 *859:B *374:23 0
9 *865:B *935:A1 9.67842e-05
10 *871:C *374:23 8.16356e-05
11 *44:17 *859:A 0.000135621
12 *188:8 *859:A 1.03836e-05
13 *188:8 *935:A1 6.24154e-05
14 *188:8 *374:23 2.93845e-05
15 *342:29 *374:23 1.02387e-05
*RES
1 *1056:X *374:4 23 
2 *374:4 *859:A 27.3293 
3 *374:4 *374:15 0.497143 
4 *374:15 *374:23 33.2314 
5 *374:23 *871:A 23 
6 *374:15 *935:A1 25.0714 
*END
