*SPEF "ieee 1481-1999"
*DESIGN "acc32"
*DATE "16:15:29 Saturday September 19, 2026"
*VENDOR "The OpenROAD Project"
*PROGRAM "OpenROAD"
*VERSION "edf00dff99f6c40d67a30c0e22a8191c5d2ed9d6"
*DESIGN_FLOW "NAME_SCOPE LOCAL" "PIN_CAP NONE"
*DIVIDER /
*DELIMITER :
*BUS_DELIMITER []
*T_UNIT 1 NS
*C_UNIT 1 PF
*R_UNIT 1 OHM
*L_UNIT 1 HENRY

*NAME_MAP
*3 acc[0]
*4 acc[10]
*5 acc[11]
*6 acc[12]
*7 acc[13]
*8 acc[14]
*9 acc[15]
*10 acc[16]
*11 acc[17]
*12 acc[18]
*13 acc[19]
*14 acc[1]
*15 acc[20]
*16 acc[21]
*17 acc[22]
*18 acc[23]
*19 acc[24]
*20 acc[25]
*21 acc[26]
*22 acc[27]
*23 acc[28]
*24 acc[29]
*25 acc[2]
*26 acc[30]
*27 acc[31]
*28 acc[3]
*29 acc[4]
*30 acc[5]
*31 acc[6]
*32 acc[7]
*33 acc[8]
*34 acc[9]
*35 clk
*36 data_in[0]
*37 data_in[10]
*38 data_in[11]
*39 data_in[12]
*40 data_in[13]
*41 data_in[14]
*42 data_in[15]
*43 data_in[16]
*44 data_in[17]
*45 data_in[18]
*46 data_in[19]
*47 data_in[1]
*48 data_in[20]
*49 data_in[21]
*50 data_in[22]
*51 data_in[23]
*52 data_in[24]
*53 data_in[25]
*54 data_in[26]
*55 data_in[27]
*56 data_in[28]
*57 data_in[29]
*58 data_in[2]
*59 data_in[30]
*60 data_in[31]
*61 data_in[3]
*62 data_in[4]
*63 data_in[5]
*64 data_in[6]
*65 data_in[7]
*66 data_in[8]
*67 data_in[9]
*68 rst
*69 _000_
*70 _001_
*71 _002_
*72 _003_
*73 _004_
*74 _005_
*75 _006_
*76 _007_
*77 _008_
*78 _009_
*79 _010_
*80 _011_
*81 _012_
*82 _013_
*83 _014_
*84 _015_
*85 _016_
*86 _017_
*87 _018_
*88 _019_
*89 _020_
*90 _021_
*91 _022_
*92 _023_
*93 _024_
*94 _025_
*95 _026_
*96 _027_
*97 _028_
*98 _029_
*99 _030_
*100 _031_
*101 _032_
*102 _033_
*103 _034_
*104 _035_
*105 _036_
*106 _037_
*107 _038_
*108 _039_
*109 _040_
*110 _041_
*111 _042_
*112 _043_
*113 _044_
*114 _045_
*115 _046_
*116 _047_
*117 _048_
*118 _049_
*119 _050_
*120 _051_
*121 _052_
*122 _053_
*123 _054_
*124 _055_
*125 _056_
*126 _057_
*127 _058_
*128 _059_
*129 _060_
*130 _061_
*131 _062_
*132 _063_
*133 _064_
*134 _065_
*135 _066_
*136 _067_
*137 _068_
*138 _069_
*139 _070_
*140 _071_
*141 _072_
*142 _073_
*143 _074_
*144 _075_
*145 _076_
*146 _077_
*147 _078_
*148 _079_
*149 _080_
*150 _081_
*151 _082_
*152 _083_
*153 _084_
*154 _085_
*155 _086_
*156 _087_
*157 _088_
*158 _089_
*159 _090_
*160 _091_
*161 _092_
*162 _093_
*163 _094_
*164 _095_
*165 _096_
*166 _097_
*167 _098_
*168 _099_
*169 _100_
*170 _101_
*171 _102_
*172 _103_
*173 _104_
*174 _105_
*175 _106_
*176 _107_
*177 _108_
*178 _109_
*179 _110_
*180 _111_
*181 _112_
*182 _113_
*183 _114_
*184 _115_
*185 _116_
*186 _117_
*187 _118_
*188 _119_
*189 _120_
*190 _121_
*191 _122_
*192 _123_
*193 _124_
*194 _125_
*195 _126_
*196 _127_
*197 _128_
*198 _129_
*199 _130_
*200 _131_
*201 _132_
*202 _133_
*203 _134_
*204 _135_
*205 _136_
*206 _137_
*207 _138_
*208 _139_
*209 _140_
*210 _141_
*211 _142_
*212 _143_
*213 _144_
*214 _145_
*215 _146_
*216 _147_
*217 _148_
*218 _149_
*219 _150_
*220 _151_
*221 _152_
*222 _153_
*223 _154_
*224 _155_
*225 _156_
*226 _157_
*227 _158_
*228 _159_
*229 _160_
*230 _161_
*231 _162_
*232 _163_
*233 _164_
*234 _165_
*235 _166_
*236 _167_
*237 _168_
*238 _169_
*239 _170_
*240 _171_
*241 _172_
*242 _173_
*243 _174_
*244 _175_
*245 _176_
*246 _177_
*247 _178_
*248 _179_
*249 _180_
*250 _181_
*251 _182_
*252 _183_
*253 _184_
*254 _185_
*255 _186_
*256 _187_
*257 _188_
*258 _189_
*259 _190_
*260 _191_
*261 _192_
*262 _193_
*263 _194_
*264 _195_
*265 _196_
*266 _197_
*267 _198_
*268 _199_
*269 adder\.cla_blocks\[0\]\.block\.p\[0\]
*270 adder\.cla_blocks\[0\]\.block\.sum\[1\]
*271 adder\.cla_blocks\[0\]\.block\.sum\[2\]
*272 adder\.cla_blocks\[0\]\.block\.sum\[3\]
*273 adder\.cla_blocks\[1\]\.block\.sum\[0\]
*274 adder\.cla_blocks\[1\]\.block\.sum\[1\]
*275 adder\.cla_blocks\[1\]\.block\.sum\[2\]
*276 adder\.cla_blocks\[1\]\.block\.sum\[3\]
*277 adder\.cla_blocks\[2\]\.block\.sum\[0\]
*278 adder\.cla_blocks\[2\]\.block\.sum\[1\]
*279 adder\.cla_blocks\[2\]\.block\.sum\[2\]
*280 adder\.cla_blocks\[2\]\.block\.sum\[3\]
*281 adder\.cla_blocks\[3\]\.block\.sum\[0\]
*282 adder\.cla_blocks\[3\]\.block\.sum\[1\]
*283 adder\.cla_blocks\[3\]\.block\.sum\[2\]
*284 adder\.cla_blocks\[3\]\.block\.sum\[3\]
*285 adder\.cla_blocks\[4\]\.block\.sum\[0\]
*286 adder\.cla_blocks\[4\]\.block\.sum\[1\]
*287 adder\.cla_blocks\[4\]\.block\.sum\[2\]
*288 adder\.cla_blocks\[4\]\.block\.sum\[3\]
*289 adder\.cla_blocks\[5\]\.block\.sum\[0\]
*290 adder\.cla_blocks\[5\]\.block\.sum\[1\]
*291 adder\.cla_blocks\[5\]\.block\.sum\[2\]
*292 adder\.cla_blocks\[5\]\.block\.sum\[3\]
*293 adder\.cla_blocks\[6\]\.block\.sum\[0\]
*294 adder\.cla_blocks\[6\]\.block\.sum\[1\]
*295 adder\.cla_blocks\[6\]\.block\.sum\[2\]
*296 adder\.cla_blocks\[6\]\.block\.sum\[3\]
*297 adder\.cla_blocks\[7\]\.block\.sum\[0\]
*298 adder\.cla_blocks\[7\]\.block\.sum\[1\]
*299 adder\.cla_blocks\[7\]\.block\.sum\[2\]
*300 adder\.cla_blocks\[7\]\.block\.sum\[3\]
*301 clknet_0_clk
*302 clknet_2_0__leaf_clk
*303 clknet_2_1__leaf_clk
*304 clknet_2_2__leaf_clk
*305 clknet_2_3__leaf_clk
*306 net1
*307 net10
*308 net11
*309 net12
*310 net13
*311 net14
*312 net15
*313 net16
*314 net17
*315 net18
*316 net19
*317 net2
*318 net20
*319 net21
*320 net22
*321 net23
*322 net24
*323 net25
*324 net26
*325 net27
*326 net28
*327 net29
*328 net3
*329 net30
*330 net31
*331 net32
*332 net33
*333 net34
*334 net35
*335 net36
*336 net37
*337 net38
*338 net39
*339 net4
*340 net40
*341 net41
*342 net42
*343 net43
*344 net44
*345 net45
*346 net46
*347 net47
*348 net48
*349 net49
*350 net5
*351 net50
*352 net51
*353 net52
*354 net53
*355 net54
*356 net55
*357 net56
*358 net57
*359 net58
*360 net59
*361 net6
*362 net60
*363 net61
*364 net62
*365 net63
*366 net64
*367 net65
*368 net66
*369 net67
*370 net68
*371 net69
*372 net7
*373 net8
*374 net9
*375 FILLER_0_108
*376 FILLER_0_119
*377 FILLER_0_126
*378 FILLER_0_134
*379 FILLER_0_141
*380 FILLER_0_23
*381 FILLER_0_27
*382 FILLER_0_29
*383 FILLER_0_43
*384 FILLER_0_49
*385 FILLER_0_57
*386 FILLER_0_62
*387 FILLER_0_66
*388 FILLER_0_79
*389 FILLER_0_83
*390 FILLER_0_93
*391 FILLER_0_99
*392 FILLER_10_109
*393 FILLER_10_121
*394 FILLER_10_13
*395 FILLER_10_141
*396 FILLER_10_26
*397 FILLER_10_34
*398 FILLER_10_62
*399 FILLER_10_74
*400 FILLER_10_82
*401 FILLER_10_85
*402 FILLER_10_97
*403 FILLER_11_121
*404 FILLER_11_141
*405 FILLER_11_16
*406 FILLER_11_22
*407 FILLER_11_26
*408 FILLER_11_40
*409 FILLER_11_52
*410 FILLER_11_57
*411 FILLER_11_6
*412 FILLER_11_69
*413 FILLER_11_91
*414 FILLER_12_125
*415 FILLER_12_133
*416 FILLER_12_141
*417 FILLER_12_15
*418 FILLER_12_27
*419 FILLER_12_29
*420 FILLER_12_38
*421 FILLER_12_50
*422 FILLER_12_62
*423 FILLER_12_7
*424 FILLER_12_74
*425 FILLER_12_82
*426 FILLER_12_85
*427 FILLER_13_105
*428 FILLER_13_116
*429 FILLER_13_138
*430 FILLER_13_49
*431 FILLER_13_55
*432 FILLER_13_57
*433 FILLER_13_69
*434 FILLER_13_7
*435 FILLER_13_81
*436 FILLER_13_93
*437 FILLER_14_109
*438 FILLER_14_13
*439 FILLER_14_141
*440 FILLER_14_25
*441 FILLER_14_29
*442 FILLER_14_3
*443 FILLER_14_34
*444 FILLER_14_46
*445 FILLER_14_58
*446 FILLER_14_70
*447 FILLER_14_82
*448 FILLER_14_85
*449 FILLER_14_97
*450 FILLER_15_101
*451 FILLER_15_109
*452 FILLER_15_139
*453 FILLER_15_17
*454 FILLER_15_39
*455 FILLER_15_51
*456 FILLER_15_55
*457 FILLER_15_57
*458 FILLER_15_69
*459 FILLER_15_81
*460 FILLER_15_9
*461 FILLER_15_93
*462 FILLER_15_97
*463 FILLER_16_108
*464 FILLER_16_114
*465 FILLER_16_120
*466 FILLER_16_124
*467 FILLER_16_131
*468 FILLER_16_138
*469 FILLER_16_141
*470 FILLER_16_18
*471 FILLER_16_22
*472 FILLER_16_26
*473 FILLER_16_29
*474 FILLER_16_64
*475 FILLER_16_76
*476 FILLER_16_85
*477 FILLER_17_121
*478 FILLER_17_14
*479 FILLER_17_33
*480 FILLER_17_44
*481 FILLER_17_52
*482 FILLER_17_7
*483 FILLER_17_80
*484 FILLER_17_84
*485 FILLER_18_113
*486 FILLER_18_130
*487 FILLER_18_141
*488 FILLER_18_17
*489 FILLER_18_25
*490 FILLER_18_33
*491 FILLER_18_42
*492 FILLER_18_6
*493 FILLER_18_70
*494 FILLER_19_100
*495 FILLER_19_113
*496 FILLER_19_130
*497 FILLER_19_31
*498 FILLER_19_38
*499 FILLER_19_47
*500 FILLER_19_55
*501 FILLER_19_57
*502 FILLER_19_66
*503 FILLER_19_72
*504 FILLER_19_76
*505 FILLER_1_104
*506 FILLER_1_113
*507 FILLER_1_138
*508 FILLER_1_16
*509 FILLER_1_38
*510 FILLER_1_71
*511 FILLER_20_111
*512 FILLER_20_129
*513 FILLER_20_141
*514 FILLER_20_16
*515 FILLER_20_23
*516 FILLER_20_27
*517 FILLER_20_29
*518 FILLER_20_35
*519 FILLER_20_39
*520 FILLER_20_45
*521 FILLER_20_6
*522 FILLER_20_76
*523 FILLER_20_90
*524 FILLER_20_99
*525 FILLER_21_100
*526 FILLER_21_111
*527 FILLER_21_113
*528 FILLER_21_122
*529 FILLER_21_15
*530 FILLER_21_23
*531 FILLER_21_35
*532 FILLER_21_42
*533 FILLER_21_53
*534 FILLER_21_57
*535 FILLER_21_7
*536 FILLER_21_82
*537 FILLER_21_89
*538 FILLER_21_96
*539 FILLER_22_105
*540 FILLER_22_131
*541 FILLER_22_141
*542 FILLER_22_37
*543 FILLER_22_58
*544 FILLER_22_63
*545 FILLER_23_107
*546 FILLER_23_111
*547 FILLER_23_113
*548 FILLER_23_121
*549 FILLER_23_14
*550 FILLER_23_141
*551 FILLER_23_22
*552 FILLER_23_26
*553 FILLER_23_29
*554 FILLER_23_34
*555 FILLER_23_43
*556 FILLER_23_55
*557 FILLER_23_85
*558 FILLER_2_109
*559 FILLER_2_115
*560 FILLER_2_141
*561 FILLER_2_23
*562 FILLER_2_27
*563 FILLER_2_43
*564 FILLER_2_64
*565 FILLER_2_74
*566 FILLER_2_82
*567 FILLER_2_88
*568 FILLER_3_103
*569 FILLER_3_111
*570 FILLER_3_142
*571 FILLER_3_25
*572 FILLER_3_3
*573 FILLER_3_35
*574 FILLER_3_43
*575 FILLER_3_48
*576 FILLER_3_73
*577 FILLER_3_83
*578 FILLER_3_90
*579 FILLER_4_105
*580 FILLER_4_11
*581 FILLER_4_114
*582 FILLER_4_133
*583 FILLER_4_141
*584 FILLER_4_15
*585 FILLER_4_27
*586 FILLER_4_29
*587 FILLER_4_62
*588 FILLER_4_7
*589 FILLER_4_82
*590 FILLER_5_118
*591 FILLER_5_13
*592 FILLER_5_33
*593 FILLER_5_45
*594 FILLER_5_49
*595 FILLER_5_77
*596 FILLER_5_9
*597 FILLER_6_124
*598 FILLER_6_141
*599 FILLER_6_23
*600 FILLER_6_44
*601 FILLER_6_52
*602 FILLER_6_60
*603 FILLER_6_79
*604 FILLER_6_83
*605 FILLER_6_89
*606 FILLER_6_95
*607 FILLER_7_118
*608 FILLER_7_130
*609 FILLER_7_134
*610 FILLER_7_18
*611 FILLER_7_26
*612 FILLER_7_6
*613 FILLER_7_97
*614 FILLER_8_102
*615 FILLER_8_113
*616 FILLER_8_141
*617 FILLER_8_26
*618 FILLER_8_29
*619 FILLER_8_42
*620 FILLER_8_54
*621 FILLER_8_66
*622 FILLER_8_78
*623 FILLER_8_85
*624 FILLER_8_93
*625 FILLER_9_105
*626 FILLER_9_120
*627 FILLER_9_16
*628 FILLER_9_29
*629 FILLER_9_46
*630 FILLER_9_54
*631 FILLER_9_57
*632 FILLER_9_69
*633 FILLER_9_7
*634 FILLER_9_81
*635 PHY_EDGE_ROW_0_Left_24
*636 PHY_EDGE_ROW_0_Right_0
*637 PHY_EDGE_ROW_10_Left_34
*638 PHY_EDGE_ROW_10_Right_10
*639 PHY_EDGE_ROW_11_Left_35
*640 PHY_EDGE_ROW_11_Right_11
*641 PHY_EDGE_ROW_12_Left_36
*642 PHY_EDGE_ROW_12_Right_12
*643 PHY_EDGE_ROW_13_Left_37
*644 PHY_EDGE_ROW_13_Right_13
*645 PHY_EDGE_ROW_14_Left_38
*646 PHY_EDGE_ROW_14_Right_14
*647 PHY_EDGE_ROW_15_Left_39
*648 PHY_EDGE_ROW_15_Right_15
*649 PHY_EDGE_ROW_16_Left_40
*650 PHY_EDGE_ROW_16_Right_16
*651 PHY_EDGE_ROW_17_Left_41
*652 PHY_EDGE_ROW_17_Right_17
*653 PHY_EDGE_ROW_18_Left_42
*654 PHY_EDGE_ROW_18_Right_18
*655 PHY_EDGE_ROW_19_Left_43
*656 PHY_EDGE_ROW_19_Right_19
*657 PHY_EDGE_ROW_1_Left_25
*658 PHY_EDGE_ROW_1_Right_1
*659 PHY_EDGE_ROW_20_Left_44
*660 PHY_EDGE_ROW_20_Right_20
*661 PHY_EDGE_ROW_21_Left_45
*662 PHY_EDGE_ROW_21_Right_21
*663 PHY_EDGE_ROW_22_Left_46
*664 PHY_EDGE_ROW_22_Right_22
*665 PHY_EDGE_ROW_23_Left_47
*666 PHY_EDGE_ROW_23_Right_23
*667 PHY_EDGE_ROW_2_Left_26
*668 PHY_EDGE_ROW_2_Right_2
*669 PHY_EDGE_ROW_3_Left_27
*670 PHY_EDGE_ROW_3_Right_3
*671 PHY_EDGE_ROW_4_Left_28
*672 PHY_EDGE_ROW_4_Right_4
*673 PHY_EDGE_ROW_5_Left_29
*674 PHY_EDGE_ROW_5_Right_5
*675 PHY_EDGE_ROW_6_Left_30
*676 PHY_EDGE_ROW_6_Right_6
*677 PHY_EDGE_ROW_7_Left_31
*678 PHY_EDGE_ROW_7_Right_7
*679 PHY_EDGE_ROW_8_Left_32
*680 PHY_EDGE_ROW_8_Right_8
*681 PHY_EDGE_ROW_9_Left_33
*682 PHY_EDGE_ROW_9_Right_9
*683 TAP_TAPCELL_ROW_0_48
*684 TAP_TAPCELL_ROW_0_49
*685 TAP_TAPCELL_ROW_0_50
*686 TAP_TAPCELL_ROW_0_51
*687 TAP_TAPCELL_ROW_0_52
*688 TAP_TAPCELL_ROW_10_75
*689 TAP_TAPCELL_ROW_10_76
*690 TAP_TAPCELL_ROW_10_77
*691 TAP_TAPCELL_ROW_11_78
*692 TAP_TAPCELL_ROW_11_79
*693 TAP_TAPCELL_ROW_12_80
*694 TAP_TAPCELL_ROW_12_81
*695 TAP_TAPCELL_ROW_12_82
*696 TAP_TAPCELL_ROW_13_83
*697 TAP_TAPCELL_ROW_13_84
*698 TAP_TAPCELL_ROW_14_85
*699 TAP_TAPCELL_ROW_14_86
*700 TAP_TAPCELL_ROW_14_87
*701 TAP_TAPCELL_ROW_15_88
*702 TAP_TAPCELL_ROW_15_89
*703 TAP_TAPCELL_ROW_16_90
*704 TAP_TAPCELL_ROW_16_91
*705 TAP_TAPCELL_ROW_16_92
*706 TAP_TAPCELL_ROW_17_93
*707 TAP_TAPCELL_ROW_17_94
*708 TAP_TAPCELL_ROW_18_95
*709 TAP_TAPCELL_ROW_18_96
*710 TAP_TAPCELL_ROW_18_97
*711 TAP_TAPCELL_ROW_19_98
*712 TAP_TAPCELL_ROW_19_99
*713 TAP_TAPCELL_ROW_1_53
*714 TAP_TAPCELL_ROW_1_54
*715 TAP_TAPCELL_ROW_20_100
*716 TAP_TAPCELL_ROW_20_101
*717 TAP_TAPCELL_ROW_20_102
*718 TAP_TAPCELL_ROW_21_103
*719 TAP_TAPCELL_ROW_21_104
*720 TAP_TAPCELL_ROW_22_105
*721 TAP_TAPCELL_ROW_22_106
*722 TAP_TAPCELL_ROW_22_107
*723 TAP_TAPCELL_ROW_23_108
*724 TAP_TAPCELL_ROW_23_109
*725 TAP_TAPCELL_ROW_23_110
*726 TAP_TAPCELL_ROW_23_111
*727 TAP_TAPCELL_ROW_23_112
*728 TAP_TAPCELL_ROW_2_55
*729 TAP_TAPCELL_ROW_2_56
*730 TAP_TAPCELL_ROW_2_57
*731 TAP_TAPCELL_ROW_3_58
*732 TAP_TAPCELL_ROW_3_59
*733 TAP_TAPCELL_ROW_4_60
*734 TAP_TAPCELL_ROW_4_61
*735 TAP_TAPCELL_ROW_4_62
*736 TAP_TAPCELL_ROW_5_63
*737 TAP_TAPCELL_ROW_5_64
*738 TAP_TAPCELL_ROW_6_65
*739 TAP_TAPCELL_ROW_6_66
*740 TAP_TAPCELL_ROW_6_67
*741 TAP_TAPCELL_ROW_7_68
*742 TAP_TAPCELL_ROW_7_69
*743 TAP_TAPCELL_ROW_8_70
*744 TAP_TAPCELL_ROW_8_71
*745 TAP_TAPCELL_ROW_8_72
*746 TAP_TAPCELL_ROW_9_73
*747 TAP_TAPCELL_ROW_9_74
*748 _200_
*749 _201_
*750 _202_
*751 _203_
*752 _204_
*753 _205_
*754 _206_
*755 _207_
*756 _208_
*757 _209_
*758 _210_
*759 _211_
*760 _212_
*761 _213_
*762 _214_
*763 _215_
*764 _216_
*765 _217_
*766 _218_
*767 _219_
*768 _220_
*769 _221_
*770 _222_
*771 _223_
*772 _224_
*773 _225_
*774 _226_
*775 _227_
*776 _228_
*777 _229_
*778 _230_
*779 _231_
*780 _232_
*781 _233_
*782 _234_
*783 _235_
*784 _236_
*785 _237_
*786 _238_
*787 _239_
*788 _240_
*789 _241_
*790 _242_
*791 _243_
*792 _244_
*793 _245_
*794 _246_
*795 _247_
*796 _248_
*797 _249_
*798 _250_
*799 _251_
*800 _252_
*801 _253_
*802 _254_
*803 _255_
*804 _256_
*805 _257_
*806 _258_
*807 _259_
*808 _260_
*809 _261_
*810 _262_
*811 _263_
*812 _264_
*813 _265_
*814 _266_
*815 _267_
*816 _268_
*817 _269_
*818 _270_
*819 _271_
*820 _272_
*821 _273_
*822 _274_
*823 _275_
*824 _276_
*825 _277_
*826 _278_
*827 _279_
*828 _280_
*829 _281_
*830 _282_
*831 _283_
*832 _284_
*833 _285_
*834 _286_
*835 _287_
*836 _288_
*837 _289_
*838 _290_
*839 _291_
*840 _292_
*841 _293_
*842 _294_
*843 _295_
*844 _296_
*845 _297_
*846 _298_
*847 _299_
*848 _300_
*849 _301_
*850 _302_
*851 _303_
*852 _304_
*853 _305_
*854 _306_
*855 _307_
*856 _308_
*857 _309_
*858 _310_
*859 _311_
*860 _312_
*861 _313_
*862 _314_
*863 _315_
*864 _316_
*865 _317_
*866 _318_
*867 _319_
*868 _320_
*869 _321_
*870 _322_
*871 _323_
*872 _324_
*873 _325_
*874 _326_
*875 _327_
*876 _328_
*877 _329_
*878 _330_
*879 _331_
*880 _332_
*881 _333_
*882 _334_
*883 _335_
*884 _336_
*885 _337_
*886 _338_
*887 _339_
*888 _340_
*889 _341_
*890 _342_
*891 _343_
*892 _344_
*893 _345_
*894 _346_
*895 _347_
*896 _348_
*897 _349_
*898 _350_
*899 _351_
*900 _352_
*901 _353_
*902 _354_
*903 _355_
*904 _356_
*905 _357_
*906 _358_
*907 _359_
*908 _360_
*909 _361_
*910 _362_
*911 _363_
*912 _364_
*913 _365_
*914 _366_
*915 _367_
*916 _368_
*917 _369_
*918 _370_
*919 _371_
*920 _372_
*921 _373_
*922 _374_
*923 _375_
*924 _376_
*925 _377_
*926 _378_
*927 _379_
*928 _380_
*929 _381_
*930 _382_
*931 _383_
*932 _384_
*933 _385_
*934 _386_
*935 _387_
*936 _388_
*937 _389_
*938 _390_
*939 _391_
*940 _392_
*941 _393_
*942 _394_
*943 _395_
*944 _396_
*945 _397_
*946 _398_
*947 _399_
*948 _400_
*949 _401_
*950 _402_
*951 _403_
*952 _404_
*953 _405_
*954 _406_
*955 _407_
*956 _408_
*957 _409_
*958 _410_
*959 _411_
*960 _412_
*961 _413_
*962 _414_
*963 _415_
*964 _416_
*965 _417_
*966 _418_
*967 _419_
*968 _420_
*969 _421_
*970 _422_
*971 _423_
*972 _424_
*973 _425_
*974 _426_
*975 _427_
*976 _428_
*977 _429_
*978 _430_
*979 _431_
*980 _432_
*981 _433_
*982 _434_
*983 _435_
*984 _436_
*985 _437_
*986 _438_
*987 _439_
*988 _440_
*989 _441_
*990 _442_
*991 _443_
*992 _444_
*993 _445_
*994 _446_
*995 _447_
*996 _448_
*997 _449_
*998 _450_
*999 _451_
*1000 _452_
*1001 _453_
*1002 _454_
*1003 _455_
*1004 _456_
*1005 _457_
*1006 _458_
*1007 _459_
*1008 _460_
*1009 _461_
*1010 _462_
*1011 _463_
*1012 clkbuf_0_clk
*1013 clkbuf_2_0__f_clk
*1014 clkbuf_2_1__f_clk
*1015 clkbuf_2_2__f_clk
*1016 clkbuf_2_3__f_clk
*1017 clkload0
*1018 clkload1
*1019 clkload2
*1020 fanout66
*1021 fanout67
*1022 fanout68
*1023 fanout69
*1024 input1
*1025 input10
*1026 input11
*1027 input12
*1028 input13
*1029 input14
*1030 input15
*1031 input16
*1032 input17
*1033 input18
*1034 input19
*1035 input2
*1036 input20
*1037 input21
*1038 input22
*1039 input23
*1040 input24
*1041 input25
*1042 input26
*1043 input27
*1044 input28
*1045 input29
*1046 input3
*1047 input30
*1048 input31
*1049 input32
*1050 input33
*1051 input4
*1052 input5
*1053 input6
*1054 input7
*1055 input8
*1056 input9
*1057 output34
*1058 output35
*1059 output36
*1060 output37
*1061 output38
*1062 output39
*1063 output40
*1064 output41
*1065 output42
*1066 output43
*1067 output44
*1068 output45
*1069 output46
*1070 output47
*1071 output48
*1072 output49
*1073 output50
*1074 output51
*1075 output52
*1076 output53
*1077 output54
*1078 output55
*1079 output56
*1080 output57
*1081 output58
*1082 output59
*1083 output60
*1084 output61
*1085 output62
*1086 output63
*1087 output64
*1088 output65

*PORTS
acc[0] O
acc[10] O
acc[11] O
acc[12] O
acc[13] O
acc[14] O
acc[15] O
acc[16] O
acc[17] O
acc[18] O
acc[19] O
acc[1] O
acc[20] O
acc[21] O
acc[22] O
acc[23] O
acc[24] O
acc[25] O
acc[26] O
acc[27] O
acc[28] O
acc[29] O
acc[2] O
acc[30] O
acc[31] O
acc[3] O
acc[4] O
acc[5] O
acc[6] O
acc[7] O
acc[8] O
acc[9] O
clk I
data_in[0] I
data_in[10] I
data_in[11] I
data_in[12] I
data_in[13] I
data_in[14] I
data_in[15] I
data_in[16] I
data_in[17] I
data_in[18] I
data_in[19] I
data_in[1] I
data_in[20] I
data_in[21] I
data_in[22] I
data_in[23] I
data_in[24] I
data_in[25] I
data_in[26] I
data_in[27] I
data_in[28] I
data_in[29] I
data_in[2] I
data_in[30] I
data_in[31] I
data_in[3] I
data_in[4] I
data_in[5] I
data_in[6] I
data_in[7] I
data_in[8] I
data_in[9] I
rst I

*D_NET *3 0.00111968
*CONN
*P acc[0] O
*I *1057:X O *D sky130_fd_sc_hd__buf_2
*CAP
1 acc[0] 0.000458455
2 *1057:X 0.000458455
3 acc[0] acc[27] 0
4 acc[0] acc[30] 0.000202766
*RES
1 *1057:X acc[0] 9.66983 
*END

*D_NET *4 0.000818386
*CONN
*P acc[10] O
*I *1058:X O *D sky130_fd_sc_hd__buf_2
*CAP
1 acc[10] 0.000405688
2 *1058:X 0.000405688
3 acc[10] acc[12] 0
4 acc[10] *1035:A 0
5 acc[10] *1058:A 7.00889e-06
*RES
1 *1058:X acc[10] 10.185 
*END

*D_NET *5 0.0013784
*CONN
*P acc[11] O
*I *1059:X O *D sky130_fd_sc_hd__buf_2
*CAP
1 acc[11] 0.000583682
2 *1059:X 0.000583682
3 acc[11] *794:A 0.000200615
4 acc[11] *795:B 1.04258e-05
5 acc[11] *1035:A 0
6 acc[11] *1046:A 0
*RES
1 *1059:X acc[11] 12.6 
*END

*D_NET *6 0.000806276
*CONN
*P acc[12] O
*I *1060:X O *D sky130_fd_sc_hd__buf_2
*CAP
1 acc[12] 0.000403138
2 *1060:X 0.000403138
3 acc[12] *1054:A 0
4 acc[10] acc[12] 0
*RES
1 *1060:X acc[12] 10.395 
*END

*D_NET *7 0.000585397
*CONN
*P acc[13] O
*I *1061:X O *D sky130_fd_sc_hd__buf_2
*CAP
1 acc[13] 0.000208287
2 *1061:X 0.000208287
3 acc[13] acc[14] 0.000120402
4 acc[13] *1012:A 2.24901e-05
5 acc[13] *1061:A 1.92979e-05
6 acc[13] *338:19 6.63219e-06
*RES
1 *1061:X acc[13] 5.06717 
*END

*D_NET *8 0.000665169
*CONN
*P acc[14] O
*I *1062:X O *D sky130_fd_sc_hd__buf_2
*CAP
1 acc[14] 0.000180437
2 *1062:X 0.000180437
3 acc[14] *1053:A 3.6993e-05
4 acc[14] *1061:A 0.000106344
5 acc[14] *1062:A 4.05569e-05
6 acc[13] acc[14] 0.000120402
*RES
1 *1062:X acc[14] 5.92503 
*END

*D_NET *9 0.00133958
*CONN
*P acc[15] O
*I *1063:X O *D sky130_fd_sc_hd__buf_2
*CAP
1 acc[15] 0.000595788
2 *1063:X 0.000595788
3 acc[15] *848:B 6.15591e-05
4 acc[15] *849:B 8.64421e-05
5 acc[15] *1054:A 0
6 acc[15] *340:12 0
*RES
1 *1063:X acc[15] 13.185 
*END

*D_NET *10 0.000507671
*CONN
*P acc[16] O
*I *1064:X O *D sky130_fd_sc_hd__buf_2
*CAP
1 acc[16] 0.000157583
2 *1064:X 0.000157583
3 acc[16] acc[18] 9.25411e-05
4 acc[16] *1055:A 7.71293e-05
5 acc[16] *1064:A 2.28346e-05
*RES
1 *1064:X acc[16] 5.16003 
*END

*D_NET *11 0.000629411
*CONN
*P acc[17] O
*I *1065:X O *D sky130_fd_sc_hd__buf_2
*CAP
1 acc[17] 0.000211693
2 *1065:X 0.000211693
3 acc[17] *935:A2 0
4 acc[17] *1051:A 8.53361e-05
5 acc[17] *1055:A 0
6 acc[17] *1056:A 4.66616e-05
7 acc[17] *342:8 7.4027e-05
*RES
1 *1065:X acc[17] 5.92503 
*END

*D_NET *12 0.000578221
*CONN
*P acc[18] O
*I *1066:X O *D sky130_fd_sc_hd__buf_2
*CAP
1 acc[18] 0.000215367
2 *1066:X 0.000215367
3 acc[18] *873:C1 0
4 acc[18] *1025:A 3.6993e-05
5 acc[18] *343:22 1.79536e-05
6 acc[16] acc[18] 9.25411e-05
*RES
1 *1066:X acc[18] 5.41503 
*END

*D_NET *13 0.000888956
*CONN
*P acc[19] O
*I *1067:X O *D sky130_fd_sc_hd__buf_2
*CAP
1 acc[19] 0.00037388
2 *1067:X 0.00037388
3 acc[19] acc[21] 0
4 acc[19] acc[22] 5.31539e-05
5 acc[19] *348:12 5.0751e-05
6 acc[19] *348:23 3.72916e-05
*RES
1 *1067:X acc[19] 8.36543 
*END

*D_NET *14 0.000676792
*CONN
*P acc[1] O
*I *1068:X O *D sky130_fd_sc_hd__buf_2
*CAP
1 acc[1] 0.000290893
2 *1068:X 0.000290893
3 acc[1] acc[3] 9.50048e-05
4 acc[1] acc[5] 0
*RES
1 *1068:X acc[1] 5.58983 
*END

*D_NET *15 0.00045783
*CONN
*P acc[20] O
*I *1069:X O *D sky130_fd_sc_hd__buf_2
*CAP
1 acc[20] 0.000175002
2 *1069:X 0.000175002
3 acc[20] *1025:A 0
4 acc[20] *1026:A 8.53361e-05
5 acc[20] *1028:A 2.24901e-05
*RES
1 *1069:X acc[20] 4.90503 
*END

*D_NET *16 0.000486709
*CONN
*P acc[21] O
*I *1070:X O *D sky130_fd_sc_hd__buf_2
*CAP
1 acc[21] 0.000211611
2 *1070:X 0.000211611
3 acc[21] acc[22] 2.24901e-05
4 acc[21] *1026:A 0
5 acc[21] *1029:A 3.14094e-05
6 acc[21] *1070:A 9.58678e-06
7 acc[19] acc[21] 0
*RES
1 *1070:X acc[21] 4.90503 
*END

*D_NET *17 0.00079814
*CONN
*P acc[22] O
*I *1071:X O *D sky130_fd_sc_hd__buf_2
*CAP
1 acc[22] 0.000347486
2 *1071:X 0.000347486
3 acc[22] *348:12 2.75229e-05
4 acc[19] acc[22] 5.31539e-05
5 acc[21] acc[22] 2.24901e-05
*RES
1 *1071:X acc[22] 8.1993 
*END

*D_NET *18 0.00127226
*CONN
*P acc[23] O
*I *1072:X O *D sky130_fd_sc_hd__buf_2
*CAP
1 acc[23] 0.000636128
2 *1072:X 0.000636128
3 acc[23] acc[25] 0
4 acc[23] *881:B 0
5 acc[23] *920:B 0
6 acc[23] *1031:A 0
7 acc[23] *1033:A 0
8 acc[23] *1074:A 0
*RES
1 *1072:X acc[23] 14.61 
*END

*D_NET *19 0.00101368
*CONN
*P acc[24] O
*I *1073:X O *D sky130_fd_sc_hd__buf_2
*CAP
1 acc[24] 0.000352661
2 *1073:X 0.000352661
3 acc[24] *1032:A 0.000308354
4 acc[24] *1033:A 0
*RES
1 *1073:X acc[24] 12.225 
*END

*D_NET *20 0.00105168
*CONN
*P acc[25] O
*I *1074:X O *D sky130_fd_sc_hd__buf_2
*CAP
1 acc[25] 0.000371664
2 *1074:X 0.000371664
3 acc[25] *1033:A 0.000308354
4 acc[23] acc[25] 0
*RES
1 *1074:X acc[25] 12.57 
*END

*D_NET *21 0.00093041
*CONN
*P acc[26] O
*I *1075:X O *D sky130_fd_sc_hd__buf_2
*CAP
1 acc[26] 0.000465205
2 *1075:X 0.000465205
3 acc[26] *1032:A 0
4 acc[26] *1034:A 0
*RES
1 *1075:X acc[26] 11.88 
*END

*D_NET *22 0.00100642
*CONN
*P acc[27] O
*I *1076:X O *D sky130_fd_sc_hd__buf_2
*CAP
1 acc[27] 0.000503211
2 *1076:X 0.000503211
3 acc[27] acc[30] 0
4 acc[0] acc[27] 0
*RES
1 *1076:X acc[27] 12.57 
*END

*D_NET *23 0.000840011
*CONN
*P acc[28] O
*I *1077:X O *D sky130_fd_sc_hd__buf_2
*CAP
1 acc[28] 0.000223882
2 *1077:X 0.000223882
3 acc[28] acc[30] 0.000126636
4 acc[28] *1041:A 0.000124011
5 acc[28] *1057:A 0.000141599
*RES
1 *1077:X acc[28] 6.60983 
*END

*D_NET *24 0.000763356
*CONN
*P acc[29] O
*I *1078:X O *D sky130_fd_sc_hd__buf_2
*CAP
1 acc[29] 0.000255746
2 *1078:X 0.000255746
3 acc[29] acc[31] 0
4 acc[29] *1040:A 8.28789e-05
5 acc[29] *1041:A 0.000106497
6 acc[29] *1057:A 6.24871e-05
*RES
1 *1078:X acc[29] 5.58983 
*END

*D_NET *25 0.00052169
*CONN
*P acc[2] O
*I *1079:X O *D sky130_fd_sc_hd__buf_2
*CAP
1 acc[2] 0.000167069
2 *1079:X 0.000167069
3 acc[2] *1038:A 9.25475e-05
4 acc[2] *1039:A 9.50048e-05
5 acc[2] *143:8 0
*RES
1 *1079:X acc[2] 5.41503 
*END

*D_NET *26 0.00139841
*CONN
*P acc[30] O
*I *1080:X O *D sky130_fd_sc_hd__buf_2
*CAP
1 acc[30] 0.000451017
2 *1080:X 0.000451017
3 acc[30] *769:A 0
4 acc[30] *1010:RESET_B 7.23602e-05
5 acc[30] *1041:A 0
6 acc[30] *1057:A 7.89689e-05
7 acc[30] *1080:A 1.56428e-05
8 acc[0] acc[30] 0.000202766
9 acc[27] acc[30] 0
10 acc[28] acc[30] 0.000126636
*RES
1 *1080:X acc[30] 9.78463 
*END

*D_NET *27 0.000604671
*CONN
*P acc[31] O
*I *1081:X O *D sky130_fd_sc_hd__buf_2
*CAP
1 acc[31] 0.000188369
2 *1081:X 0.000188369
3 acc[31] *1024:A 0.000121553
4 acc[31] *1040:A 8.53361e-05
5 acc[31] *1057:A 2.10433e-05
6 acc[29] acc[31] 0
*RES
1 *1081:X acc[31] 5.07983 
*END

*D_NET *28 0.000470522
*CONN
*P acc[3] O
*I *1082:X O *D sky130_fd_sc_hd__buf_2
*CAP
1 acc[3] 0.000135248
2 *1082:X 0.000135248
3 acc[3] acc[5] 8.44576e-05
4 acc[3] *1068:A 2.05641e-05
5 acc[1] acc[3] 9.50048e-05
*RES
1 *1082:X acc[3] 4.90503 
*END

*D_NET *29 0.00114188
*CONN
*P acc[4] O
*I *1083:X O *D sky130_fd_sc_hd__buf_2
*CAP
1 acc[4] 0.00027139
2 *1083:X 0.00027139
3 acc[4] *1043:A 0.000128954
4 acc[4] *1044:A 0.000121035
5 acc[4] *1068:A 0.000113775
6 acc[4] *1082:A 0.000235332
*RES
1 *1083:X acc[4] 7.62983 
*END

*D_NET *30 0.000712935
*CONN
*P acc[5] O
*I *1084:X O *D sky130_fd_sc_hd__buf_2
*CAP
1 acc[5] 0.000221471
2 *1084:X 0.000221471
3 acc[5] *1044:A 0.000118578
4 acc[5] *1068:A 2.28346e-05
5 acc[5] *1082:A 4.4123e-05
6 acc[1] acc[5] 0
7 acc[3] acc[5] 8.44576e-05
*RES
1 *1084:X acc[5] 5.33483 
*END

*D_NET *31 0.000856715
*CONN
*P acc[6] O
*I *1085:X O *D sky130_fd_sc_hd__buf_2
*CAP
1 acc[6] 0.000392697
2 *1085:X 0.000392697
3 acc[6] *1045:A 0
4 acc[6] *1085:A 2.30292e-05
5 acc[6] *327:22 4.82919e-05
*RES
1 *1085:X acc[6] 10.185 
*END

*D_NET *32 0.000860886
*CONN
*P acc[7] O
*I *1086:X O *D sky130_fd_sc_hd__buf_2
*CAP
1 acc[7] 0.000387145
2 *1086:X 0.000387145
3 acc[7] *1047:A 0
4 acc[7] *1086:A 3.83041e-05
5 acc[7] *365:16 4.82919e-05
*RES
1 *1086:X acc[7] 10.185 
*END

*D_NET *33 0.000689856
*CONN
*P acc[8] O
*I *1087:X O *D sky130_fd_sc_hd__buf_2
*CAP
1 acc[8] 0.00020949
2 *1087:X 0.00020949
3 acc[8] *981:RESET_B 0
4 acc[8] *1027:A 0.000121035
5 acc[8] *1048:A 0.000118578
6 acc[8] *345:21 3.12639e-05
*RES
1 *1087:X acc[8] 5.58983 
*END

*D_NET *34 0.000936277
*CONN
*P acc[9] O
*I *1088:X O *D sky130_fd_sc_hd__buf_2
*CAP
1 acc[9] 0.000442763
2 *1088:X 0.000442763
3 acc[9] *1045:A 0
4 acc[9] *1049:A 0
5 acc[9] *1088:A 5.0751e-05
*RES
1 *1088:X acc[9] 11.085 
*END

*D_NET *35 0.00852774
*CONN
*P clk I
*I *1012:A I *D sky130_fd_sc_hd__clkbuf_16
*CAP
1 clk 0.00348642
2 *1012:A 0.00348642
3 *1012:A *802:C 0.000159269
4 *1012:A *803:B 0.000167751
5 *1012:A *804:A1 0.000116158
6 *1012:A *837:B1 0.000139245
7 *1012:A *947:B 0
8 *1012:A *948:B 0
9 *1012:A *988:CLK 0
10 *1012:A *988:D 0
11 *1012:A *996:CLK 0
12 *1012:A *1050:A 8.28724e-05
13 *1012:A *121:12 0
14 *1012:A *124:23 6.02766e-05
15 *1012:A *125:12 0
16 *1012:A *127:21 5.7344e-05
17 *1012:A *131:12 0.000577942
18 *1012:A *335:22 0.000171562
19 acc[13] *1012:A 2.24901e-05
*RES
1 clk *1012:A 29.626 
*END

*D_NET *36 0.00128074
*CONN
*P data_in[0] I
*I *1024:A I *D sky130_fd_sc_hd__clkbuf_1
*CAP
1 data_in[0] 0.000358865
2 *1024:A 0.000358865
3 *1024:A *1037:A 7.61195e-05
4 *1024:A *1038:A 0
5 *1024:A *1057:A 4.41811e-05
6 *1024:A *1078:A 0.000200966
7 *1024:A *359:10 0.000120186
8 acc[31] *1024:A 0.000121553
*RES
1 data_in[0] *1024:A 7.29463 
*END

*D_NET *37 0.000881026
*CONN
*P data_in[10] I
*I *1035:A I *D sky130_fd_sc_hd__clkbuf_1
*CAP
1 data_in[10] 0.000440513
2 *1035:A 0.000440513
3 acc[10] *1035:A 0
4 acc[11] *1035:A 0
*RES
1 data_in[10] *1035:A 11.04 
*END

*D_NET *38 0.00114182
*CONN
*P data_in[11] I
*I *1046:A I *D sky130_fd_sc_hd__clkbuf_1
*CAP
1 data_in[11] 0.000494114
2 *1046:A 0.000494114
3 *1046:A *794:A 8.65905e-05
4 *1046:A *1049:A 0
5 *1046:A *328:8 4.82919e-05
6 *1046:A *328:23 1.0183e-05
7 *1046:A *335:22 8.53113e-06
8 acc[11] *1046:A 0
*RES
1 data_in[11] *1046:A 12.18 
*END

*D_NET *39 0.000439817
*CONN
*P data_in[12] I
*I *1051:A I *D sky130_fd_sc_hd__buf_1
*CAP
1 data_in[12] 0.000165995
2 *1051:A 0.000165995
3 *1051:A *1052:A 2.24901e-05
4 *1051:A *1053:A 0
5 acc[17] *1051:A 8.53361e-05
*RES
1 data_in[12] *1051:A 5.10177 
*END

*D_NET *40 0.000716131
*CONN
*P data_in[13] I
*I *1052:A I *D sky130_fd_sc_hd__clkbuf_1
*CAP
1 data_in[13] 0.0002312
2 *1052:A 0.0002312
3 *1052:A *1053:A 0.000231242
4 *1052:A *1061:A 0
5 *1052:A *337:8 0
6 *1051:A *1052:A 2.24901e-05
*RES
1 data_in[13] *1052:A 7.3443 
*END

*D_NET *41 0.000907273
*CONN
*P data_in[14] I
*I *1053:A I *D sky130_fd_sc_hd__clkbuf_1
*CAP
1 data_in[14] 0.000268004
2 *1053:A 0.000268004
3 *1053:A *840:B 5.30673e-05
4 *1053:A *1061:A 0
5 *1053:A *350:6 4.99619e-05
6 acc[14] *1053:A 3.6993e-05
7 *1051:A *1053:A 0
8 *1052:A *1053:A 0.000231242
*RES
1 data_in[14] *1053:A 8.80043 
*END

*D_NET *42 0.00104581
*CONN
*P data_in[15] I
*I *1054:A I *D sky130_fd_sc_hd__buf_1
*CAP
1 data_in[15] 0.000437979
2 *1054:A 0.000437979
3 *1054:A *848:A 2.23589e-05
4 *1054:A *848:B 8.49205e-05
5 *1054:A *849:B 4.82919e-05
6 *1054:A *340:12 1.42807e-05
7 acc[12] *1054:A 0
8 acc[15] *1054:A 0
*RES
1 data_in[15] *1054:A 11.655 
*END

*D_NET *43 0.000502174
*CONN
*P data_in[16] I
*I *1055:A I *D sky130_fd_sc_hd__buf_1
*CAP
1 data_in[16] 0.000182015
2 *1055:A 0.000182015
3 *1055:A *1056:A 4.66616e-05
4 *1055:A *1064:A 1.43521e-05
5 *1055:A *193:8 0
6 acc[16] *1055:A 7.71293e-05
7 acc[17] *1055:A 0
*RES
1 data_in[16] *1055:A 5.61177 
*END

*D_NET *44 0.00100683
*CONN
*P data_in[17] I
*I *1056:A I *D sky130_fd_sc_hd__buf_1
*CAP
1 data_in[17] 0.000353587
2 *1056:A 0.000353587
3 *1056:A *859:A 0.000124843
4 *1056:A *859:B 2.75229e-05
5 *1056:A *188:8 5.39673e-05
6 acc[17] *1056:A 4.66616e-05
7 *1055:A *1056:A 4.66616e-05
*RES
1 data_in[17] *1056:A 9.7437 
*END

*D_NET *45 0.000895467
*CONN
*P data_in[18] I
*I *1025:A I *D sky130_fd_sc_hd__buf_1
*CAP
1 data_in[18] 0.000280277
2 *1025:A 0.000280277
3 *1025:A *870:C1 0
4 *1025:A *1028:A 0.000231242
5 *1025:A *307:8 1.83847e-05
6 *1025:A *310:14 4.82919e-05
7 acc[18] *1025:A 3.6993e-05
8 acc[20] *1025:A 0
*RES
1 data_in[18] *1025:A 8.80043 
*END

*D_NET *46 0.000435332
*CONN
*P data_in[19] I
*I *1026:A I *D sky130_fd_sc_hd__buf_1
*CAP
1 data_in[19] 0.000163753
2 *1026:A 0.000163753
3 *1026:A *1029:A 2.24901e-05
4 *1026:A *1067:A 0
5 acc[20] *1026:A 8.53361e-05
6 acc[21] *1026:A 0
*RES
1 data_in[19] *1026:A 5.10177 
*END

*D_NET *47 0.00108749
*CONN
*P data_in[1] I
*I *1027:A I *D sky130_fd_sc_hd__clkbuf_1
*CAP
1 data_in[1] 0.000367324
2 *1027:A 0.000367324
3 *1027:A *813:A 0.000104132
4 *1027:A *813:B 0
5 *1027:A *972:A 0
6 *1027:A *1039:A 9.87492e-05
7 *1027:A *309:10 2.89259e-05
8 *1027:A *345:21 0
9 acc[8] *1027:A 0.000121035
*RES
1 data_in[1] *1027:A 6.52963 
*END

*D_NET *48 0.000716131
*CONN
*P data_in[20] I
*I *1028:A I *D sky130_fd_sc_hd__clkbuf_1
*CAP
1 data_in[20] 0.0002312
2 *1028:A 0.0002312
3 *1028:A *870:C1 0
4 acc[20] *1028:A 2.24901e-05
5 *1025:A *1028:A 0.000231242
*RES
1 data_in[20] *1028:A 7.3443 
*END

*D_NET *49 0.000587256
*CONN
*P data_in[21] I
*I *1029:A I *D sky130_fd_sc_hd__clkbuf_1
*CAP
1 data_in[21] 0.000266678
2 *1029:A 0.000266678
3 *1029:A *1070:A 0
4 acc[21] *1029:A 3.14094e-05
5 *1026:A *1029:A 2.24901e-05
*RES
1 data_in[21] *1029:A 7.3443 
*END

*D_NET *50 0.00111513
*CONN
*P data_in[22] I
*I *1030:A I *D sky130_fd_sc_hd__clkbuf_1
*CAP
1 data_in[22] 0.000544138
2 *1030:A 0.000544138
3 *1030:A *370:134 2.68526e-05
*RES
1 data_in[22] *1030:A 13.185 
*END

*D_NET *51 0.00142367
*CONN
*P data_in[23] I
*I *1031:A I *D sky130_fd_sc_hd__clkbuf_1
*CAP
1 data_in[23] 0.000616567
2 *1031:A 0.000616567
3 *1031:A *881:B 0.000100139
4 *1031:A *313:8 5.05437e-05
5 *1031:A *370:55 3.98475e-05
6 *1031:A *370:134 0
7 acc[23] *1031:A 0
*RES
1 data_in[23] *1031:A 14.91 
*END

*D_NET *52 0.00143871
*CONN
*P data_in[24] I
*I *1032:A I *D sky130_fd_sc_hd__clkbuf_1
*CAP
1 data_in[24] 0.000477792
2 *1032:A 0.000477792
3 *1032:A *920:A 0.000124806
4 *1032:A *1073:A 4.99619e-05
5 acc[24] *1032:A 0.000308354
6 acc[26] *1032:A 0
*RES
1 data_in[24] *1032:A 14.67 
*END

*D_NET *53 0.00104664
*CONN
*P data_in[25] I
*I *1033:A I *D sky130_fd_sc_hd__clkbuf_1
*CAP
1 data_in[25] 0.000359642
2 *1033:A 0.000359642
3 *1033:A *1074:A 9.50342e-06
4 *1033:A *370:106 9.50342e-06
5 acc[23] *1033:A 0
6 acc[24] *1033:A 0
7 acc[25] *1033:A 0.000308354
*RES
1 data_in[25] *1033:A 12.39 
*END

*D_NET *54 0.00143618
*CONN
*P data_in[26] I
*I *1034:A I *D sky130_fd_sc_hd__buf_1
*CAP
1 data_in[26] 0.000563271
2 *1034:A 0.000563271
3 *1034:A *766:A 5.27201e-05
4 *1034:A *786:C1 4.82863e-05
5 *1034:A *1036:A 0
6 *1034:A *316:29 2.97004e-06
7 *1034:A *318:8 0.000199833
8 *1034:A *318:18 5.83121e-06
9 acc[26] *1034:A 0
*RES
1 data_in[26] *1034:A 14.325 
*END

*D_NET *55 0.00126524
*CONN
*P data_in[27] I
*I *1036:A I *D sky130_fd_sc_hd__buf_1
*CAP
1 data_in[27] 0.000577332
2 *1036:A 0.000577332
3 *1036:A *766:A 7.60965e-05
4 *1036:A *786:C1 4.43871e-06
5 *1036:A *316:29 0
6 *1036:A *318:8 3.00381e-05
7 *1034:A *1036:A 0
*RES
1 data_in[27] *1036:A 13.98 
*END

*D_NET *56 0.000557688
*CONN
*P data_in[28] I
*I *1037:A I *D sky130_fd_sc_hd__clkbuf_1
*CAP
1 data_in[28] 0.000181207
2 *1037:A 0.000181207
3 *1037:A *1038:A 8.53361e-05
4 *1037:A *319:16 3.38178e-05
5 *1024:A *1037:A 7.61195e-05
*RES
1 data_in[28] *1037:A 5.86677 
*END

*D_NET *57 0.00144202
*CONN
*P data_in[29] I
*I *1038:A I *D sky130_fd_sc_hd__clkbuf_1
*CAP
1 data_in[29] 0.00042555
2 *1038:A 0.00042555
3 *1038:A *769:A 1.98766e-05
4 *1038:A *899:A 5.4155e-06
5 *1038:A *980:RESET_B 6.2001e-05
6 *1038:A *1011:RESET_B 1.74678e-05
7 *1038:A *1039:A 0
8 *1038:A *1057:A 0.00011686
9 *1038:A *319:16 5.20968e-05
10 *1038:A *333:25 8.01575e-05
11 *1038:A *356:18 1.08758e-05
12 *1038:A *371:32 4.82863e-05
13 acc[2] *1038:A 9.25475e-05
14 *1024:A *1038:A 0
15 *1037:A *1038:A 8.53361e-05
*RES
1 data_in[29] *1038:A 9.72983 
*END

*D_NET *58 0.00059409
*CONN
*P data_in[2] I
*I *1039:A I *D sky130_fd_sc_hd__clkbuf_1
*CAP
1 data_in[2] 0.000197671
2 *1039:A 0.000197671
3 *1039:A *810:A 4.99341e-06
4 acc[2] *1039:A 9.50048e-05
5 *1027:A *1039:A 9.87492e-05
6 *1038:A *1039:A 0
*RES
1 data_in[2] *1039:A 5.02157 
*END

*D_NET *59 0.000473733
*CONN
*P data_in[30] I
*I *1040:A I *D sky130_fd_sc_hd__clkbuf_1
*CAP
1 data_in[30] 0.000152759
2 *1040:A 0.000152759
3 *1040:A *1057:A 0
4 acc[29] *1040:A 8.28789e-05
5 acc[31] *1040:A 8.53361e-05
*RES
1 data_in[30] *1040:A 5.35677 
*END

*D_NET *60 0.00172361
*CONN
*P data_in[31] I
*I *1041:A I *D sky130_fd_sc_hd__clkbuf_1
*CAP
1 data_in[31] 0.000632392
2 *1041:A 0.000632392
3 *1041:A *769:A 0
4 *1041:A *1007:RESET_B 0.000150778
5 *1041:A *1076:A 7.75412e-05
6 acc[28] *1041:A 0.000124011
7 acc[29] *1041:A 0.000106497
8 acc[30] *1041:A 0
*RES
1 data_in[31] *1041:A 8.07403 
*END

*D_NET *61 0.000510729
*CONN
*P data_in[3] I
*I *1042:A I *D sky130_fd_sc_hd__clkbuf_2
*CAP
1 data_in[3] 0.000143572
2 *1042:A 0.000143572
3 *1042:A *1043:A 8.44576e-05
4 *1042:A *1048:A 9.50048e-05
5 *1042:A *1068:A 4.4123e-05
*RES
1 data_in[3] *1042:A 5.16003 
*END

*D_NET *62 0.00128199
*CONN
*P data_in[4] I
*I *1043:A I *D sky130_fd_sc_hd__clkbuf_1
*CAP
1 data_in[4] 0.000426548
2 *1043:A 0.000426548
3 *1043:A *828:A 4.82919e-05
4 *1043:A *831:C 0
5 *1043:A *1048:A 0
6 *1043:A *1068:A 3.97211e-05
7 *1043:A *1082:A 1.1561e-05
8 *1043:A *1083:A 4.82919e-05
9 *1043:A *360:25 6.76188e-05
10 acc[4] *1043:A 0.000128954
11 *1042:A *1043:A 8.44576e-05
*RES
1 data_in[4] *1043:A 8.84657 
*END

*D_NET *63 0.00159057
*CONN
*P data_in[5] I
*I *1044:A I *D sky130_fd_sc_hd__clkbuf_1
*CAP
1 data_in[5] 0.000596336
2 *1044:A 0.000596336
3 *1044:A *959:B 6.4368e-05
4 *1044:A *985:RESET_B 1.92979e-05
5 *1044:A *369:52 7.46228e-05
6 acc[4] *1044:A 0.000121035
7 acc[5] *1044:A 0.000118578
*RES
1 data_in[5] *1044:A 7.25077 
*END

*D_NET *64 0.00196747
*CONN
*P data_in[6] I
*I *1045:A I *D sky130_fd_sc_hd__buf_1
*CAP
1 data_in[6] 0.000553506
2 *1045:A 0.000553506
3 *1045:A *820:A 2.68721e-05
4 *1045:A *823:A 1.85674e-05
5 *1045:A *833:B1 0.000390466
6 *1045:A *1021:A 0
7 *1045:A *1085:A 0.000347029
8 *1045:A *364:14 7.75271e-05
9 acc[6] *1045:A 0
10 acc[9] *1045:A 0
*RES
1 data_in[6] *1045:A 15.45 
*END

*D_NET *65 0.00102117
*CONN
*P data_in[7] I
*I *1047:A I *D sky130_fd_sc_hd__clkbuf_1
*CAP
1 data_in[7] 0.00046177
2 *1047:A 0.00046177
3 *1047:A *821:B 4.43871e-06
4 *1047:A *151:16 0
5 *1047:A *329:6 4.9253e-06
6 *1047:A *365:12 0
7 *1047:A *365:16 8.8266e-05
8 acc[7] *1047:A 0
*RES
1 data_in[7] *1047:A 11.49 
*END

*D_NET *66 0.000981057
*CONN
*P data_in[8] I
*I *1048:A I *D sky130_fd_sc_hd__clkbuf_1
*CAP
1 data_in[8] 0.000258471
2 *1048:A 0.000258471
3 *1048:A *972:A 0
4 *1048:A *983:RESET_B 0
5 *1048:A *1068:A 0.000108934
6 *1048:A *360:10 0.000141599
7 acc[8] *1048:A 0.000118578
8 *1042:A *1048:A 9.50048e-05
9 *1043:A *1048:A 0
*RES
1 data_in[8] *1048:A 7.11983 
*END

*D_NET *67 0.000897235
*CONN
*P data_in[9] I
*I *1049:A I *D sky130_fd_sc_hd__clkbuf_1
*CAP
1 data_in[9] 0.000448618
2 *1049:A 0.000448618
3 acc[9] *1049:A 0
4 *1046:A *1049:A 0
*RES
1 data_in[9] *1049:A 11.04 
*END

*D_NET *68 0.000807057
*CONN
*P rst I
*I *1050:A I *D sky130_fd_sc_hd__dlymetal6s2s_1
*CAP
1 rst 0.000362092
2 *1050:A 0.000362092
3 *1050:A *338:10 0
4 *1012:A *1050:A 8.28724e-05
*RES
1 rst *1050:A 7.90677 
*END

*D_NET *69 0.00043597
*CONN
*I *980:RESET_B I *D sky130_fd_sc_hd__dfrtp_1
*I *771:Y O *D sky130_fd_sc_hd__inv_2
*CAP
1 *980:RESET_B 9.65249e-05
2 *771:Y 9.65249e-05
3 *980:RESET_B *970:B 9.84957e-05
4 *980:RESET_B *333:8 1.0063e-05
5 *980:RESET_B *333:25 7.23602e-05
6 *1038:A *980:RESET_B 6.2001e-05
*RES
1 *771:Y *980:RESET_B 7.8875 
*END

*D_NET *70 0.000192052
*CONN
*I *981:RESET_B I *D sky130_fd_sc_hd__dfrtp_1
*I *972:Y O *D sky130_fd_sc_hd__inv_2
*CAP
1 *981:RESET_B 4.74729e-05
2 *972:Y 4.74729e-05
3 *981:RESET_B *972:A 9.71067e-05
4 *981:RESET_B *1068:A 0
5 *981:RESET_B *345:21 0
6 acc[8] *981:RESET_B 0
*RES
1 *972:Y *981:RESET_B 6.725 
*END

*D_NET *71 0.000294679
*CONN
*I *982:RESET_B I *D sky130_fd_sc_hd__dfrtp_1
*I *973:Y O *D sky130_fd_sc_hd__inv_2
*CAP
1 *982:RESET_B 0.00014734
2 *973:Y 0.00014734
3 *982:RESET_B *1079:A 0
4 *982:RESET_B *137:10 0
*RES
1 *973:Y *982:RESET_B 7.8875 
*END

*D_NET *72 0.000189331
*CONN
*I *983:RESET_B I *D sky130_fd_sc_hd__dfrtp_4
*I *974:Y O *D sky130_fd_sc_hd__inv_2
*CAP
1 *983:RESET_B 6.09617e-05
2 *974:Y 6.09617e-05
3 *983:RESET_B *972:A 6.74079e-05
4 *983:RESET_B *360:10 0
5 *1048:A *983:RESET_B 0
*RES
1 *974:Y *983:RESET_B 6.98 
*END

*D_NET *73 0.000404905
*CONN
*I *984:RESET_B I *D sky130_fd_sc_hd__dfrtp_1
*I *975:Y O *D sky130_fd_sc_hd__inv_2
*CAP
1 *984:RESET_B 3.84681e-05
2 *975:Y 3.84681e-05
3 *984:RESET_B *829:A 0.000163985
4 *984:RESET_B *972:A 0.000163985
*RES
1 *975:Y *984:RESET_B 7.49 
*END

*D_NET *74 0.000338236
*CONN
*I *985:RESET_B I *D sky130_fd_sc_hd__dfrtp_1
*I *976:Y O *D sky130_fd_sc_hd__inv_2
*CAP
1 *985:RESET_B 7.9106e-05
2 *976:Y 7.9106e-05
3 *985:RESET_B *959:B 0
4 *985:RESET_B *369:52 0.000160726
5 *1044:A *985:RESET_B 1.92979e-05
*RES
1 *976:Y *985:RESET_B 7.49 
*END

*D_NET *75 0.000353667
*CONN
*I *986:RESET_B I *D sky130_fd_sc_hd__dfrtp_1
*I *977:Y O *D sky130_fd_sc_hd__inv_2
*CAP
1 *986:RESET_B 7.12661e-05
2 *977:Y 7.12661e-05
3 *986:RESET_B *1021:A 9.30717e-05
4 *986:RESET_B *369:12 0.000118063
*RES
1 *977:Y *986:RESET_B 7.175 
*END

*D_NET *76 0.000333657
*CONN
*I *987:RESET_B I *D sky130_fd_sc_hd__dfrtp_1
*I *978:Y O *D sky130_fd_sc_hd__inv_2
*CAP
1 *987:RESET_B 9.7893e-05
2 *978:Y 9.7893e-05
3 *987:RESET_B *978:A 0.00012657
4 *987:RESET_B *365:12 1.13009e-05
*RES
1 *978:Y *987:RESET_B 3.3775 
*END

*D_NET *77 0.000311398
*CONN
*I *988:RESET_B I *D sky130_fd_sc_hd__dfrtp_1
*I *979:Y O *D sky130_fd_sc_hd__inv_2
*CAP
1 *988:RESET_B 9.83045e-05
2 *979:Y 9.83045e-05
3 *988:RESET_B *979:A 0.000114789
*RES
1 *979:Y *988:RESET_B 3.3775 
*END

*D_NET *78 0.000421553
*CONN
*I *989:RESET_B I *D sky130_fd_sc_hd__dfrtp_1
*I *748:Y O *D sky130_fd_sc_hd__inv_2
*CAP
1 *989:RESET_B 0.000105468
2 *748:Y 0.000105468
3 *989:RESET_B *972:A 4.82919e-05
4 *989:RESET_B *979:A 0
5 *989:RESET_B *1021:A 0.000162325
*RES
1 *748:Y *989:RESET_B 7.94 
*END

*D_NET *79 0.000546684
*CONN
*I *990:RESET_B I *D sky130_fd_sc_hd__dfrtp_1
*I *749:Y O *D sky130_fd_sc_hd__inv_2
*CAP
1 *990:RESET_B 0.000136722
2 *749:Y 0.000136722
3 *990:RESET_B *1060:A 0.000139245
4 *990:RESET_B *334:10 0
5 *990:RESET_B *368:74 0.000122337
6 *990:RESET_B *368:100 1.16578e-05
*RES
1 *749:Y *990:RESET_B 8.375 
*END

*D_NET *80 0.0002835
*CONN
*I *991:RESET_B I *D sky130_fd_sc_hd__dfrtp_1
*I *750:Y O *D sky130_fd_sc_hd__inv_2
*CAP
1 *991:RESET_B 7.12523e-05
2 *750:Y 7.12523e-05
3 *991:RESET_B *953:A 6.60261e-06
4 *991:RESET_B *334:10 9.54399e-05
5 *991:RESET_B *368:82 3.89528e-05
*RES
1 *750:Y *991:RESET_B 7.175 
*END

*D_NET *81 0.000559613
*CONN
*I *992:RESET_B I *D sky130_fd_sc_hd__dfrtp_1
*I *751:Y O *D sky130_fd_sc_hd__inv_2
*CAP
1 *992:RESET_B 9.68768e-05
2 *751:Y 9.68768e-05
3 *992:RESET_B *755:A 0.000140912
4 *992:RESET_B *996:CLK 0.000139245
5 *992:RESET_B *167:6 8.57024e-05
*RES
1 *751:Y *992:RESET_B 8.03 
*END

*D_NET *82 0.000151344
*CONN
*I *993:RESET_B I *D sky130_fd_sc_hd__dfrtp_1
*I *752:Y O *D sky130_fd_sc_hd__inv_2
*CAP
1 *993:RESET_B 7.5672e-05
2 *752:Y 7.5672e-05
3 *993:RESET_B *756:A 0
4 *993:RESET_B *337:8 0
*RES
1 *752:Y *993:RESET_B 6.725 
*END

*D_NET *83 0.000240117
*CONN
*I *994:RESET_B I *D sky130_fd_sc_hd__dfrtp_1
*I *753:Y O *D sky130_fd_sc_hd__inv_2
*CAP
1 *994:RESET_B 0.000120058
2 *753:Y 0.000120058
3 *994:RESET_B *994:CLK 0
4 *994:RESET_B *994:D 0
5 *994:RESET_B *338:10 0
*RES
1 *753:Y *994:RESET_B 7.49 
*END

*D_NET *84 0.000968865
*CONN
*I *995:RESET_B I *D sky130_fd_sc_hd__dfrtp_1
*I *754:Y O *D sky130_fd_sc_hd__inv_2
*CAP
1 *995:RESET_B 0.000194131
2 *754:Y 0.000194131
3 *995:RESET_B *953:A 2.20177e-05
4 *995:RESET_B *953:B 9.38785e-05
5 *995:RESET_B *302:78 0.000413021
6 *995:RESET_B *340:8 1.91939e-05
7 *995:RESET_B *372:37 3.24921e-05
*RES
1 *754:Y *995:RESET_B 6.4825 
*END

*D_NET *85 0.000331657
*CONN
*I *996:RESET_B I *D sky130_fd_sc_hd__dfrtp_1
*I *755:Y O *D sky130_fd_sc_hd__inv_2
*CAP
1 *996:RESET_B 0.000156636
2 *755:Y 0.000156636
3 *996:RESET_B *755:A 1.83847e-05
4 *996:RESET_B *332:43 0
*RES
1 *755:Y *996:RESET_B 7.94 
*END

*D_NET *86 0.000772205
*CONN
*I *997:RESET_B I *D sky130_fd_sc_hd__dfrtp_1
*I *756:Y O *D sky130_fd_sc_hd__inv_2
*CAP
1 *997:RESET_B 0.00028663
2 *756:Y 0.00028663
3 *997:RESET_B *756:A 0.000198945
*RES
1 *756:Y *997:RESET_B 5.5675 
*END

*D_NET *87 0.000366807
*CONN
*I *998:RESET_B I *D sky130_fd_sc_hd__dfrtp_1
*I *757:Y O *D sky130_fd_sc_hd__inv_2
*CAP
1 *998:RESET_B 0.000173157
2 *757:Y 0.000173157
3 *998:RESET_B *757:A 2.04923e-05
4 *998:RESET_B *198:18 0
*RES
1 *757:Y *998:RESET_B 8.03 
*END

*D_NET *88 0.00037968
*CONN
*I *999:RESET_B I *D sky130_fd_sc_hd__dfrtp_1
*I *758:Y O *D sky130_fd_sc_hd__inv_2
*CAP
1 *999:RESET_B 0.000166321
2 *758:Y 0.000166321
3 *999:RESET_B *999:D 4.70393e-05
4 *999:RESET_B *310:14 0
*RES
1 *758:Y *999:RESET_B 8.2325 
*END

*D_NET *89 0.000261037
*CONN
*I *1000:RESET_B I *D sky130_fd_sc_hd__dfrtp_1
*I *759:Y O *D sky130_fd_sc_hd__inv_2
*CAP
1 *1000:RESET_B 0.000109511
2 *759:Y 0.000109511
3 *1000:RESET_B *346:14 4.20162e-05
*RES
1 *759:Y *1000:RESET_B 3.3775 
*END

*D_NET *90 0.000207136
*CONN
*I *1001:RESET_B I *D sky130_fd_sc_hd__dfrtp_1
*I *760:Y O *D sky130_fd_sc_hd__inv_2
*CAP
1 *1001:RESET_B 2.80288e-05
2 *760:Y 2.80288e-05
3 *1001:RESET_B *875:B 5.39718e-05
4 *1001:RESET_B *1067:A 9.71067e-05
*RES
1 *760:Y *1001:RESET_B 6.725 
*END

*D_NET *91 0.000313596
*CONN
*I *1002:RESET_B I *D sky130_fd_sc_hd__dfrtp_1
*I *761:Y O *D sky130_fd_sc_hd__inv_2
*CAP
1 *1002:RESET_B 7.36252e-05
2 *761:Y 7.36252e-05
3 *1002:RESET_B *760:A 0.000166346
4 *1002:RESET_B *1002:D 0
*RES
1 *761:Y *1002:RESET_B 7.49 
*END

*D_NET *92 0.000452104
*CONN
*I *1003:RESET_B I *D sky130_fd_sc_hd__dfrtp_1
*I *762:Y O *D sky130_fd_sc_hd__inv_2
*CAP
1 *1003:RESET_B 8.65821e-05
2 *762:Y 8.65821e-05
3 *1003:RESET_B *882:A 0.000162318
4 *1003:RESET_B *370:32 9.16315e-05
5 *1003:RESET_B *370:36 5.83121e-06
6 *1003:RESET_B *370:55 1.91597e-05
*RES
1 *762:Y *1003:RESET_B 7.94 
*END

*D_NET *93 0.000302899
*CONN
*I *1004:RESET_B I *D sky130_fd_sc_hd__dfrtp_1
*I *763:Y O *D sky130_fd_sc_hd__inv_2
*CAP
1 *1004:RESET_B 0.000120782
2 *763:Y 0.000120782
3 *1004:RESET_B *763:A 4.66108e-05
4 *1004:RESET_B *351:6 1.47256e-05
*RES
1 *763:Y *1004:RESET_B 3.3775 
*END

*D_NET *94 0.00030205
*CONN
*I *1005:RESET_B I *D sky130_fd_sc_hd__dfrtp_1
*I *764:Y O *D sky130_fd_sc_hd__inv_2
*CAP
1 *1005:RESET_B 9.16998e-05
2 *764:Y 9.16998e-05
3 *1005:RESET_B *1005:D 0.000118651
*RES
1 *764:Y *1005:RESET_B 3.3775 
*END

*D_NET *95 0.000323473
*CONN
*I *1006:RESET_B I *D sky130_fd_sc_hd__dfrtp_1
*I *765:Y O *D sky130_fd_sc_hd__inv_2
*CAP
1 *1006:RESET_B 4.3838e-05
2 *765:Y 4.3838e-05
3 *1006:RESET_B *315:10 0.000166346
4 *1006:RESET_B *370:63 6.9451e-05
*RES
1 *765:Y *1006:RESET_B 7.49 
*END

*D_NET *96 0.000407454
*CONN
*I *1007:RESET_B I *D sky130_fd_sc_hd__dfrtp_1
*I *766:Y O *D sky130_fd_sc_hd__inv_2
*CAP
1 *1007:RESET_B 0.000128338
2 *766:Y 0.000128338
3 *1007:RESET_B *769:A 0
4 *1007:RESET_B *1077:A 0
5 *1041:A *1007:RESET_B 0.000150778
*RES
1 *766:Y *1007:RESET_B 7.94 
*END

*D_NET *97 0.000164673
*CONN
*I *1008:RESET_B I *D sky130_fd_sc_hd__dfrtp_1
*I *767:Y O *D sky130_fd_sc_hd__inv_2
*CAP
1 *1008:RESET_B 5.53505e-05
2 *767:Y 5.53505e-05
3 *1008:RESET_B *767:A 0
4 *1008:RESET_B *982:CLK 5.39718e-05
*RES
1 *767:Y *1008:RESET_B 6.725 
*END

*D_NET *98 0.000478857
*CONN
*I *1009:RESET_B I *D sky130_fd_sc_hd__dfrtp_1
*I *768:Y O *D sky130_fd_sc_hd__inv_2
*CAP
1 *1009:RESET_B 0.000212895
2 *768:Y 0.000212895
3 *1009:RESET_B *980:CLK 5.30673e-05
4 *1009:RESET_B *305:45 0
5 *1009:RESET_B *371:24 0
*RES
1 *768:Y *1009:RESET_B 8.63 
*END

*D_NET *99 0.000570086
*CONN
*I *1010:RESET_B I *D sky130_fd_sc_hd__dfrtp_1
*I *769:Y O *D sky130_fd_sc_hd__inv_2
*CAP
1 *1010:RESET_B 9.60005e-05
2 *769:Y 9.60005e-05
3 *1010:RESET_B *912:A 0.000144877
4 *1010:RESET_B *1057:A 2.3958e-05
5 *1010:RESET_B *1080:A 0.000104306
6 *1010:RESET_B *358:10 3.25831e-05
7 acc[30] *1010:RESET_B 7.23602e-05
*RES
1 *769:Y *1010:RESET_B 8.765 
*END

*D_NET *100 0.000472542
*CONN
*I *1011:RESET_B I *D sky130_fd_sc_hd__dfrtp_1
*I *770:Y O *D sky130_fd_sc_hd__inv_2
*CAP
1 *1011:RESET_B 0.000139616
2 *770:Y 0.000139616
3 *1011:RESET_B *1057:A 0.000135415
4 *1011:RESET_B *319:16 3.67779e-05
5 *1011:RESET_B *371:32 3.64998e-06
6 *1038:A *1011:RESET_B 1.74678e-05
*RES
1 *770:Y *1011:RESET_B 8.03 
*END

*D_NET *101 0.00298067
*CONN
*I *909:C1 I *D sky130_fd_sc_hd__o211a_1
*I *907:A1 I *D sky130_fd_sc_hd__a31o_1
*I *774:A I *D sky130_fd_sc_hd__nand2_1
*I *902:A I *D sky130_fd_sc_hd__nand2_1
*I *772:Y O *D sky130_fd_sc_hd__nand2_1
*CAP
1 *909:C1 0.000239096
2 *907:A1 9.53184e-05
3 *774:A 7.83375e-05
4 *902:A 0
5 *772:Y 0
6 *101:40 0.000517316
7 *101:18 0.000381974
8 *101:4 0.000486537
9 *774:A *226:12 5.26479e-05
10 *774:A *226:21 1.31519e-05
11 *907:A1 *907:A3 0.000158965
12 *907:A1 *908:B 4.82919e-05
13 *907:A1 *913:B 4.08514e-05
14 *909:C1 *907:A3 3.09088e-05
15 *909:C1 *909:A1 0
16 *909:C1 *909:A2 1.82476e-05
17 *909:C1 *228:25 2.11084e-05
18 *909:C1 *305:77 2.86623e-05
19 *101:18 *773:A 2.50602e-05
20 *101:18 *774:B 0.000110038
21 *101:18 *903:B 9.47454e-05
22 *101:18 *226:12 4.82863e-05
23 *101:18 *228:25 0
24 *101:18 *305:41 2.77183e-05
25 *101:18 *305:73 1.79204e-05
26 *101:18 *355:19 8.40269e-05
27 *101:40 *909:A2 4.18603e-06
28 *101:40 *228:25 0.000109346
29 *101:40 *305:77 0.000171316
30 *101:40 *355:19 7.66083e-05
*RES
1 *772:Y *101:4 1.6 
2 *101:4 *101:18 9.415 
3 *101:18 *902:A 1.6 
4 *101:18 *774:A 3.46 
5 *101:4 *101:40 6.47 
6 *101:40 *907:A1 5.775 
7 *101:40 *909:C1 7.005 
*END

*D_NET *102 0.000648022
*CONN
*I *774:B I *D sky130_fd_sc_hd__nand2_1
*I *773:X O *D sky130_fd_sc_hd__or2_1
*CAP
1 *774:B 0.000182165
2 *773:X 0.000182165
3 *774:B *903:B 7.06865e-05
4 *774:B *103:12 9.47454e-05
5 *774:B *305:41 8.22234e-06
6 *101:18 *774:B 0.000110038
*RES
1 *773:X *774:B 10.065 
*END

*D_NET *103 0.00163676
*CONN
*I *897:C1 I *D sky130_fd_sc_hd__a311o_1
*I *898:A I *D sky130_fd_sc_hd__xnor2_1
*I *774:Y O *D sky130_fd_sc_hd__nand2_1
*CAP
1 *897:C1 8.71897e-05
2 *898:A 2.12122e-05
3 *774:Y 0.000424937
4 *103:12 0.000533339
5 *897:C1 *897:A3 2.68721e-05
6 *897:C1 *897:B1 9.50342e-06
7 *897:C1 *898:B 8.6311e-05
8 *897:C1 *1019:A 0
9 *898:A *1016:A 2.75145e-05
10 *103:12 *903:B 2.50049e-05
11 *103:12 *1008:D 1.83756e-05
12 *103:12 *1016:A 9.66106e-05
13 *103:12 *305:8 0.00014785
14 *103:12 *305:41 3.72916e-05
15 *774:B *103:12 9.47454e-05
*RES
1 *774:Y *103:12 14.24 
2 *103:12 *898:A 2.05 
3 *103:12 *897:C1 7.49 
*END

*D_NET *104 0.00148448
*CONN
*I *783:A I *D sky130_fd_sc_hd__or2_1
*I *777:A I *D sky130_fd_sc_hd__nand2_1
*I *918:B1_N I *D sky130_fd_sc_hd__a21bo_1
*I *775:Y O *D sky130_fd_sc_hd__nand2_1
*CAP
1 *783:A 0.000140148
2 *777:A 1.90984e-05
3 *918:B1_N 0
4 *775:Y 0.000207232
5 *104:19 0.000303907
6 *104:12 0.000351892
7 *777:A *777:B 4.00541e-06
8 *783:A *112:8 0
9 *104:12 *775:A 0.000104286
10 *104:12 *776:B 1.46828e-05
11 *104:12 *918:A2 0.00015806
12 *104:19 *776:B 4.99619e-05
13 *104:19 *777:B 4.99619e-05
14 *104:19 *918:A1 8.12469e-05
*RES
1 *775:Y *104:12 5.635 
2 *104:12 *918:B1_N 1.6 
3 *104:12 *104:19 2.865 
4 *104:19 *777:A 1.96 
5 *104:19 *783:A 3.79 
*END

*D_NET *105 0.000905586
*CONN
*I *777:B I *D sky130_fd_sc_hd__nand2_1
*I *918:A1 I *D sky130_fd_sc_hd__a21bo_1
*I *776:X O *D sky130_fd_sc_hd__or2_1
*CAP
1 *777:B 3.45865e-05
2 *918:A1 0.000107891
3 *776:X 0
4 *105:4 0.000142478
5 *918:A1 *775:A 0.000303098
6 *918:A1 *776:B 0.000160635
7 *918:A1 *918:A2 2.16833e-05
8 *777:A *777:B 4.00541e-06
9 *104:19 *777:B 4.99619e-05
10 *104:19 *918:A1 8.12469e-05
*RES
1 *776:X *105:4 1.6 
2 *105:4 *918:A1 5.17 
3 *105:4 *777:B 2.41 
*END

*D_NET *106 0.000985705
*CONN
*I *782:A I *D sky130_fd_sc_hd__or2_1
*I *917:A I *D sky130_fd_sc_hd__xnor2_1
*I *777:Y O *D sky130_fd_sc_hd__nand2_1
*CAP
1 *782:A 0.000164055
2 *917:A 0.000155832
3 *777:Y 7.776e-05
4 *106:10 0.000397648
5 *782:A *782:B 4.66108e-05
6 *917:A *370:80 8.65905e-05
7 *106:10 *782:B 0
8 *106:10 *314:10 5.72091e-05
*RES
1 *777:Y *106:10 7.235 
2 *106:10 *917:A 4.12 
3 *106:10 *782:A 4.12 
*END

*D_NET *107 0.00197732
*CONN
*I *784:A I *D sky130_fd_sc_hd__nor2_1
*I *922:A I *D sky130_fd_sc_hd__xor2_1
*I *788:A1 I *D sky130_fd_sc_hd__o21a_1
*I *778:Y O *D sky130_fd_sc_hd__xnor2_1
*CAP
1 *784:A 7.95821e-05
2 *922:A 0
3 *788:A1 0.000188665
4 *778:Y 0.000119339
5 *107:25 0.00013253
6 *107:12 0.000360951
7 *784:A *784:B 0.000183681
8 *784:A *786:B1 0.000241483
9 *784:A *1007:D 4.60584e-05
10 *788:A1 *787:A 0.000206116
11 *788:A1 *921:C 0
12 *788:A1 *116:12 6.55406e-05
13 *107:12 *787:A 6.55406e-05
14 *107:12 *921:A 0
15 *107:12 *921:C 1.22676e-05
16 *107:12 *922:B 0.000122325
17 *107:25 *784:B 1.61831e-05
18 *107:25 *786:B1 2.30292e-05
19 *107:25 *922:B 0.000114024
*RES
1 *778:Y *107:12 8.12 
2 *107:12 *788:A1 9.785 
3 *107:12 *107:25 1.485 
4 *107:25 *922:A 1.6 
5 *107:25 *784:A 4.84 
*END

*D_NET *108 0.000962426
*CONN
*I *781:A I *D sky130_fd_sc_hd__nand2_1
*I *921:A I *D sky130_fd_sc_hd__and3_1
*I *779:Y O *D sky130_fd_sc_hd__nand2_1
*CAP
1 *781:A 6.54797e-05
2 *921:A 0.000143305
3 *779:Y 0
4 *108:6 0.000208785
5 *781:A *766:A 8.40213e-05
6 *781:A *780:A 4.21314e-05
7 *781:A *316:29 3.45252e-05
8 *781:A *353:20 5.16348e-05
9 *921:A *780:A 0.000141606
10 *921:A *921:C 5.53249e-06
11 *921:A *1073:A 0
12 *921:A *353:16 4.24632e-05
13 *921:A *353:20 0.000142941
14 *107:12 *921:A 0
*RES
1 *779:Y *108:6 3.6 
2 *108:6 *921:A 6.765 
3 *108:6 *781:A 5.37 
*END

*D_NET *109 0.000405162
*CONN
*I *781:B I *D sky130_fd_sc_hd__nand2_1
*I *780:X O *D sky130_fd_sc_hd__or2_1
*CAP
1 *781:B 0.000121455
2 *780:X 0.000121455
3 *781:B *780:A 8.85944e-05
4 *781:B *1073:A 7.36562e-05
*RES
1 *780:X *781:B 9.63 
*END

*D_NET *110 0.00315029
*CONN
*I *783:B I *D sky130_fd_sc_hd__or2_1
*I *782:B I *D sky130_fd_sc_hd__or2_1
*I *920:A I *D sky130_fd_sc_hd__xnor2_1
*I *781:Y O *D sky130_fd_sc_hd__nand2_1
*CAP
1 *783:B 0
2 *782:B 0.000148152
3 *920:A 0.000388563
4 *781:Y 5.98915e-05
5 *110:23 0.000299507
6 *110:6 0.000599809
7 *782:B *1073:A 0.000252289
8 *782:B *314:10 0
9 *920:A *766:A 0.000410324
10 *920:A *920:B 7.35729e-05
11 *920:A *1073:A 4.82863e-05
12 *920:A *370:55 0.00010127
13 *920:A *370:106 8.65961e-05
14 *110:6 *766:A 0.000147196
15 *110:6 *1073:A 4.66108e-05
16 *110:23 *1073:A 0.000316806
17 *110:23 *314:10 0
18 *110:23 *315:10 0
19 *782:A *782:B 4.66108e-05
20 *1032:A *920:A 0.000124806
21 *106:10 *782:B 0
*RES
1 *781:Y *110:6 3.085 
2 *110:6 *920:A 10.375 
3 *110:6 *110:23 5.675 
4 *110:23 *782:B 6.96 
5 *110:23 *783:B 3.6 
*END

*D_NET *111 0.000864918
*CONN
*I *919:B1 I *D sky130_fd_sc_hd__a21o_1
*I *788:A2 I *D sky130_fd_sc_hd__o21a_1
*I *782:X O *D sky130_fd_sc_hd__or2_1
*CAP
1 *919:B1 0
2 *788:A2 0.000155638
3 *782:X 0.000149068
4 *111:12 0.000304706
5 *788:A2 *897:A2 2.75145e-05
6 *788:A2 *116:12 3.83041e-05
7 *788:A2 *116:18 8.65961e-05
8 *788:A2 *117:18 2.49909e-05
9 *111:12 *897:A2 3.09164e-05
10 *111:12 *897:A3 8.53113e-06
11 *111:12 *921:C 3.86529e-05
12 *111:12 *1073:A 0
13 *111:12 *116:12 0
*RES
1 *782:X *111:12 7.775 
2 *111:12 *788:A2 4.48 
3 *111:12 *919:B1 1.6 
*END

*D_NET *112 0.00152284
*CONN
*I *784:B I *D sky130_fd_sc_hd__nor2_1
*I *921:B I *D sky130_fd_sc_hd__and3_1
*I *783:X O *D sky130_fd_sc_hd__or2_1
*CAP
1 *784:B 0.000394465
2 *921:B 0
3 *783:X 0.000148842
4 *112:8 0.000543307
5 *784:B *921:C 1.51894e-06
6 *784:B *922:B 0.000160483
7 *784:B *1007:D 4.99619e-05
8 *112:8 *921:C 5.83121e-06
9 *112:8 *922:B 1.85674e-05
10 *783:A *112:8 0
11 *784:A *784:B 0.000183681
12 *107:25 *784:B 1.61831e-05
*RES
1 *783:X *112:8 4.045 
2 *112:8 *921:B 1.6 
3 *112:8 *784:B 7.855 
*END

*D_NET *113 0.00122713
*CONN
*I *786:B1 I *D sky130_fd_sc_hd__a211o_1
*I *784:Y O *D sky130_fd_sc_hd__nor2_1
*CAP
1 *786:B1 0.000346872
2 *784:Y 0.000346872
3 *786:B1 *786:A2 1.26626e-05
4 *786:B1 *786:C1 7.55313e-05
5 *786:B1 *787:A 0
6 *786:B1 *318:18 0.000180675
7 *784:A *786:B1 0.000241483
8 *107:25 *786:B1 2.30292e-05
*RES
1 *784:Y *786:B1 13.395 
*END

*D_NET *114 0.000340965
*CONN
*I *786:C1 I *D sky130_fd_sc_hd__a211o_1
*I *785:X O *D sky130_fd_sc_hd__o211a_1
*CAP
1 *786:C1 9.2597e-05
2 *785:X 9.2597e-05
3 *786:C1 *766:A 2.75145e-05
4 *786:B1 *786:C1 7.55313e-05
5 *1034:A *786:C1 4.82863e-05
6 *1036:A *786:C1 4.43871e-06
*RES
1 *785:X *786:C1 9.285 
*END

*D_NET *115 0.00104648
*CONN
*I *787:A I *D sky130_fd_sc_hd__inv_2
*I *786:X O *D sky130_fd_sc_hd__a211o_1
*CAP
1 *787:A 0.000293654
2 *786:X 0.000293654
3 *787:A *766:A 4.82863e-05
4 *787:A *785:B1 0.000139231
5 *787:A *921:C 0
6 *787:A *353:20 0
7 *786:B1 *787:A 0
8 *788:A1 *787:A 0.000206116
9 *107:12 *787:A 6.55406e-05
*RES
1 *786:X *787:A 13.365 
*END

*D_NET *116 0.0021269
*CONN
*I *788:B1 I *D sky130_fd_sc_hd__o21a_1
*I *896:A1 I *D sky130_fd_sc_hd__a31oi_1
*I *897:A1 I *D sky130_fd_sc_hd__a311o_1
*I *787:Y O *D sky130_fd_sc_hd__inv_2
*CAP
1 *788:B1 0
2 *896:A1 0.000374598
3 *897:A1 9.68524e-05
4 *787:Y 8.3375e-05
5 *116:18 0.000587426
6 *116:12 0.000199351
7 *896:A1 *789:A 3.99153e-05
8 *896:A1 *896:B1 0.000106689
9 *896:A1 *898:B 0.000122325
10 *896:A1 *117:18 0.000118081
11 *897:A1 *789:A 0
12 *897:A1 *896:B1 0
13 *897:A1 *897:A2 7.21296e-06
14 *897:A1 *897:A3 5.99868e-05
15 *897:A1 *117:18 6.35104e-05
16 *116:12 *897:A2 0
17 *116:12 *921:C 0
18 *116:18 *897:A2 3.57361e-05
19 *116:18 *117:18 4.14009e-05
20 *788:A1 *116:12 6.55406e-05
21 *788:A2 *116:12 3.83041e-05
22 *788:A2 *116:18 8.65961e-05
23 *111:12 *116:12 0
*RES
1 *787:Y *116:12 7.43 
2 *116:12 *116:18 4.43 
3 *116:18 *897:A1 5.97 
4 *116:18 *896:A1 8.805 
5 *116:12 *788:B1 1.6 
*END

*D_NET *117 0.00132367
*CONN
*I *897:B1 I *D sky130_fd_sc_hd__a311o_1
*I *896:B1 I *D sky130_fd_sc_hd__a31oi_1
*I *788:X O *D sky130_fd_sc_hd__o21a_1
*CAP
1 *897:B1 3.1738e-05
2 *896:B1 9.96586e-05
3 *788:X 0.00014685
4 *117:18 0.000278246
5 *896:B1 *789:A 0.00010666
6 *896:B1 *898:B 0.000122325
7 *897:B1 *897:A3 5.23362e-05
8 *897:B1 *898:B 1.52945e-05
9 *117:18 *897:A2 9.6042e-05
10 *117:18 *897:A3 1.03423e-05
11 *788:A2 *117:18 2.49909e-05
12 *896:A1 *896:B1 0.000106689
13 *896:A1 *117:18 0.000118081
14 *897:A1 *896:B1 0
15 *897:A1 *117:18 6.35104e-05
16 *897:C1 *897:B1 9.50342e-06
17 *116:18 *117:18 4.14009e-05
*RES
1 *788:X *117:18 8.87 
2 *117:18 *896:B1 4.6 
3 *117:18 *897:B1 6.4925 
*END

*D_NET *118 0.00379535
*CONN
*I *791:A I *D sky130_fd_sc_hd__nand2_1
*I *897:A2 I *D sky130_fd_sc_hd__a311o_1
*I *919:A1 I *D sky130_fd_sc_hd__a21o_1
*I *916:A I *D sky130_fd_sc_hd__nand2_1
*I *896:A2 I *D sky130_fd_sc_hd__a31oi_1
*I *789:Y O *D sky130_fd_sc_hd__nand2_1
*CAP
1 *791:A 0
2 *897:A2 0.00021837
3 *919:A1 0
4 *916:A 0
5 *896:A2 0
6 *789:Y 0.000158177
7 *118:34 0.000544953
8 *118:25 0.000527992
9 *118:17 0.000314932
10 *118:6 0.000271701
11 *897:A2 *897:A3 0.00021881
12 *118:6 *789:A 0.000199685
13 *118:17 *789:A 7.52909e-05
14 *118:17 *790:A 4.99619e-05
15 *118:17 *791:B 4.99619e-05
16 *118:17 *1015:A 0.000316698
17 *118:17 *224:8 5.5626e-05
18 *118:25 *915:A 0
19 *118:25 *240:10 2.30292e-05
20 *118:25 *370:80 0
21 *118:34 *897:A3 4.99619e-05
22 *118:34 *916:B 0.000120655
23 *118:34 *224:21 0.000390466
24 *118:34 *240:10 1.16578e-05
25 *788:A2 *897:A2 2.75145e-05
26 *897:A1 *897:A2 7.21296e-06
27 *111:12 *897:A2 3.09164e-05
28 *116:12 *897:A2 0
29 *116:18 *897:A2 3.57361e-05
30 *117:18 *897:A2 9.6042e-05
*RES
1 *789:Y *118:6 3.775 
2 *118:6 *896:A2 1.6 
3 *118:6 *118:17 3.93 
4 *118:17 *118:25 7.195 
5 *118:25 *916:A 1.6 
6 *118:25 *118:34 5.985 
7 *118:34 *919:A1 1.6 
8 *118:34 *897:A2 10.4 
9 *118:17 *791:A 1.6 
*END

*D_NET *119 9.40065e-05
*CONN
*I *791:B I *D sky130_fd_sc_hd__nand2_1
*I *790:X O *D sky130_fd_sc_hd__or2_1
*CAP
1 *791:B 7.00326e-06
2 *790:X 7.00326e-06
3 *791:B *224:8 3.00381e-05
4 *118:17 *791:B 4.99619e-05
*RES
1 *790:X *791:B 3.65 
*END

*D_NET *120 0.00292309
*CONN
*I *914:A I *D sky130_fd_sc_hd__and3_1
*I *895:B1 I *D sky130_fd_sc_hd__a21o_1
*I *894:B1 I *D sky130_fd_sc_hd__a21oi_1
*I *791:Y O *D sky130_fd_sc_hd__nand2_1
*CAP
1 *914:A 0.000116531
2 *895:B1 0.000168544
3 *894:B1 0.000254788
4 *791:Y 0.000354906
5 *120:10 0.000474535
6 *120:8 0.00052264
7 *894:B1 *915:A 1.33293e-05
8 *894:B1 *1004:CLK 0.000145184
9 *894:B1 *1004:D 0
10 *895:B1 *224:8 0.000211748
11 *895:B1 *304:6 0.000122331
12 *914:A *914:B 0
13 *914:A *915:A 0
14 *120:8 *224:8 0.000538555
15 *120:10 *914:B 0
16 *120:10 *1004:D 0
*RES
1 *791:Y *120:8 8.535 
2 *120:8 *120:10 0.87 
3 *120:10 *894:B1 7.86 
4 *120:10 *895:B1 7.5 
5 *120:8 *914:A 5.49 
*END

*D_NET *121 0.0012806
*CONN
*I *804:B1 I *D sky130_fd_sc_hd__o21a_1
*I *795:A I *D sky130_fd_sc_hd__nand2_1
*I *792:Y O *D sky130_fd_sc_hd__nand2_1
*CAP
1 *804:B1 0
2 *795:A 7.93518e-05
3 *792:Y 0.000196214
4 *121:12 0.000275566
5 *795:A *796:A 1.23763e-05
6 *795:A *804:A2 4.82919e-05
7 *795:A *986:CLK 9.14035e-05
8 *795:A *125:6 0.000160635
9 *121:12 *793:A 0.000124007
10 *121:12 *804:A1 4.61744e-05
11 *121:12 *125:12 0.000207797
12 *121:12 *335:8 2.75229e-05
13 *121:12 *335:12 1.12578e-05
14 *1012:A *121:12 0
*RES
1 *792:Y *121:12 9.83 
2 *121:12 *795:A 4.15 
3 *121:12 *804:B1 1.6 
*END

*D_NET *122 0.000362957
*CONN
*I *804:A1 I *D sky130_fd_sc_hd__o21a_1
*I *793:Y O *D sky130_fd_sc_hd__nor2_1
*CAP
1 *804:A1 7.6169e-05
2 *793:Y 7.6169e-05
3 *804:A1 *335:12 4.82863e-05
4 *1012:A *804:A1 0.000116158
5 *121:12 *804:A1 4.61744e-05
*RES
1 *793:Y *804:A1 9.03 
*END

*D_NET *123 0.000474124
*CONN
*I *795:B I *D sky130_fd_sc_hd__nand2_1
*I *794:X O *D sky130_fd_sc_hd__or2_1
*CAP
1 *795:B 0.000219653
2 *794:X 0.000219653
3 *795:B *125:12 2.4393e-05
4 *795:B *317:10 0
5 *795:B *335:22 0
6 acc[11] *795:B 1.04258e-05
*RES
1 *794:X *795:B 9.975 
*END

*D_NET *124 0.00502445
*CONN
*I *803:A I *D sky130_fd_sc_hd__or3_1
*I *802:A I *D sky130_fd_sc_hd__or3_1
*I *953:A I *D sky130_fd_sc_hd__xnor2_1
*I *795:Y O *D sky130_fd_sc_hd__nand2_1
*CAP
1 *803:A 0.000171669
2 *802:A 4.19581e-05
3 *953:A 0.000600236
4 *795:Y 0
5 *124:23 0.000715614
6 *124:4 0.00110222
7 *802:A *127:10 4.82919e-05
8 *802:A *127:21 2.05056e-05
9 *802:A *368:142 8.88081e-05
10 *803:A *801:B 4.5783e-05
11 *803:A *803:B 0.000319174
12 *803:A *803:C 0.000288251
13 *803:A *950:B1_N 9.54399e-05
14 *803:A *127:21 0.000209553
15 *803:A *367:10 0
16 *953:A *750:A 2.11084e-05
17 *953:A *797:B 1.03423e-05
18 *953:A *953:B 9.64021e-05
19 *953:A *125:6 0.000353831
20 *953:A *372:37 3.89569e-05
21 *124:23 *804:A2 0.000114912
22 *124:23 *986:CLK 4.11293e-05
23 *124:23 *125:6 0.000124007
24 *124:23 *127:21 5.23362e-05
25 *124:23 *328:23 0.000128197
26 *124:23 *331:10 0
27 *124:23 *335:22 0.000206824
28 *991:RESET_B *953:A 6.60261e-06
29 *995:RESET_B *953:A 2.20177e-05
30 *1012:A *124:23 6.02766e-05
*RES
1 *795:Y *124:4 1.6 
2 *124:4 *953:A 9.82 
3 *124:4 *124:23 10.805 
4 *124:23 *802:A 4.74 
5 *124:23 *803:A 9.825 
*END

*D_NET *125 0.00241409
*CONN
*I *804:A2 I *D sky130_fd_sc_hd__o21a_1
*I *798:A I *D sky130_fd_sc_hd__nand2_1
*I *952:B1_N I *D sky130_fd_sc_hd__a21bo_1
*I *796:Y O *D sky130_fd_sc_hd__nand2_1
*CAP
1 *804:A2 1.91682e-05
2 *798:A 3.09547e-05
3 *952:B1_N 4.15825e-05
4 *796:Y 8.50036e-05
5 *125:12 0.000247653
6 *125:6 0.000279287
7 *798:A *798:B 0
8 *798:A *127:10 3.74161e-05
9 *798:A *368:142 2.75229e-05
10 *804:A2 *986:CLK 3.23663e-05
11 *952:B1_N *798:B 4.82863e-05
12 *952:B1_N *127:10 1.08758e-05
13 *952:B1_N *368:142 1.91597e-05
14 *125:6 *796:A 0.000163199
15 *125:6 *797:B 1.61831e-05
16 *125:6 *126:12 1.7386e-05
17 *125:12 *838:B1 0.000296088
18 *125:12 *986:CLK 8.09021e-06
19 *125:12 *131:12 0
20 *795:A *804:A2 4.82919e-05
21 *795:A *125:6 0.000160635
22 *795:B *125:12 2.4393e-05
23 *953:A *125:6 0.000353831
24 *1012:A *125:12 0
25 *121:12 *125:12 0.000207797
26 *124:23 *804:A2 0.000114912
27 *124:23 *125:6 0.000124007
*RES
1 *796:Y *125:6 5.845 
2 *125:6 *125:12 8.44 
3 *125:12 *952:B1_N 2.395 
4 *125:12 *798:A 2.41 
5 *125:6 *804:A2 2.74 
*END

*D_NET *126 0.000959344
*CONN
*I *798:B I *D sky130_fd_sc_hd__nand2_1
*I *952:A1 I *D sky130_fd_sc_hd__a21bo_1
*I *797:X O *D sky130_fd_sc_hd__or2_1
*CAP
1 *798:B 9.67451e-05
2 *952:A1 0
3 *797:X 0.000196578
4 *126:12 0.000293324
5 *798:B *952:A2 4.82919e-05
6 *798:B *368:100 2.76781e-05
7 *798:B *368:142 0.000110673
8 *126:12 *986:CLK 0.000120381
9 *126:12 *334:10 0
10 *798:A *798:B 0
11 *952:B1_N *798:B 4.82863e-05
12 *125:6 *126:12 1.7386e-05
*RES
1 *797:X *126:12 9.47 
2 *126:12 *952:A1 1.6 
3 *126:12 *798:B 3.895 
*END

*D_NET *127 0.00318665
*CONN
*I *803:B I *D sky130_fd_sc_hd__or3_1
*I *951:A I *D sky130_fd_sc_hd__xnor2_1
*I *802:B I *D sky130_fd_sc_hd__or3_1
*I *798:Y O *D sky130_fd_sc_hd__nand2_1
*CAP
1 *803:B 0.000113397
2 *951:A 0.000333786
3 *802:B 0
4 *798:Y 0.000125152
5 *127:21 0.000596319
6 *127:10 0.000274288
7 *803:B *837:B1 7.70828e-05
8 *803:B *948:B 0
9 *951:A *950:A2 0.000272978
10 *951:A *951:B 4.82863e-05
11 *951:A *257:6 0.000119762
12 *127:10 *131:12 8.65905e-05
13 *127:10 *368:142 5.81648e-05
14 *127:21 *802:C 0.000157595
15 *798:A *127:10 3.74161e-05
16 *802:A *127:10 4.82919e-05
17 *802:A *127:21 2.05056e-05
18 *803:A *803:B 0.000319174
19 *803:A *127:21 0.000209553
20 *952:B1_N *127:10 1.08758e-05
21 *1012:A *803:B 0.000167751
22 *1012:A *127:21 5.7344e-05
23 *124:23 *127:21 5.23362e-05
*RES
1 *798:Y *127:10 4.495 
2 *127:10 *802:B 1.6 
3 *127:10 *127:21 5.615 
4 *127:21 *951:A 9.15 
5 *127:21 *803:B 8.04 
*END

*D_NET *128 0.00208321
*CONN
*I *803:C I *D sky130_fd_sc_hd__or3_1
*I *950:B1_N I *D sky130_fd_sc_hd__a21bo_1
*I *801:A I *D sky130_fd_sc_hd__nand2_1
*I *799:Y O *D sky130_fd_sc_hd__nand2_1
*CAP
1 *803:C 8.4103e-05
2 *950:B1_N 0.000146877
3 *801:A 0
4 *799:Y 7.8146e-05
5 *128:23 0.000410278
6 *128:10 0.000257444
7 *803:C *948:B 4.18603e-06
8 *803:C *256:12 0.000253949
9 *803:C *301:10 0
10 *950:B1_N *801:B 2.42802e-05
11 *950:B1_N *802:C 8.23457e-05
12 *950:B1_N *950:A2 1.91597e-05
13 *950:B1_N *130:10 3.57349e-05
14 *950:B1_N *256:12 5.16418e-05
15 *128:10 *801:B 0
16 *128:10 *1021:A 0
17 *128:10 *367:10 4.05358e-05
18 *128:23 *950:A2 1.08758e-05
19 *128:23 *989:D 1.34503e-05
20 *128:23 *130:10 0.000139899
21 *128:23 *256:12 4.66108e-05
22 *803:A *803:C 0.000288251
23 *803:A *950:B1_N 9.54399e-05
*RES
1 *799:Y *128:10 6.98 
2 *128:10 *801:A 1.6 
3 *128:10 *128:23 5.15 
4 *128:23 *950:B1_N 6.21 
5 *128:23 *803:C 7.02 
*END

*D_NET *129 0.00147754
*CONN
*I *801:B I *D sky130_fd_sc_hd__nand2_1
*I *950:A1 I *D sky130_fd_sc_hd__a21bo_1
*I *800:X O *D sky130_fd_sc_hd__or2_1
*CAP
1 *801:B 0.000186822
2 *950:A1 0.000266592
3 *800:X 0
4 *129:4 0.000453414
5 *801:B *989:D 4.99619e-05
6 *801:B *130:10 4.99619e-05
7 *801:B *368:142 1.33293e-05
8 *950:A1 *838:B1 6.74079e-05
9 *950:A1 *131:12 4.70343e-05
10 *950:A1 *368:142 0.000272951
11 *803:A *801:B 4.5783e-05
12 *950:B1_N *801:B 2.42802e-05
13 *128:10 *801:B 0
*RES
1 *800:X *129:4 1.6 
2 *129:4 *950:A1 9.845 
3 *129:4 *801:B 8.885 
*END

*D_NET *130 0.00115066
*CONN
*I *949:A I *D sky130_fd_sc_hd__xnor2_1
*I *802:C I *D sky130_fd_sc_hd__or3_1
*I *801:Y O *D sky130_fd_sc_hd__nand2_1
*CAP
1 *949:A 0
2 *802:C 7.3062e-05
3 *801:Y 9.60061e-05
4 *130:10 0.000169068
5 *802:C *950:A2 8.23457e-05
6 *130:10 *950:A2 4.66108e-05
7 *130:10 *989:D 2.30292e-05
8 *130:10 *256:12 3.57349e-05
9 *801:B *130:10 4.99619e-05
10 *950:B1_N *802:C 8.23457e-05
11 *950:B1_N *130:10 3.57349e-05
12 *1012:A *802:C 0.000159269
13 *127:21 *802:C 0.000157595
14 *128:23 *130:10 0.000139899
*RES
1 *801:Y *130:10 4.24 
2 *130:10 *802:C 8.285 
3 *130:10 *949:A 1.6 
*END

*D_NET *131 0.00347191
*CONN
*I *837:B1 I *D sky130_fd_sc_hd__a211oi_1
*I *838:A1 I *D sky130_fd_sc_hd__o211ai_1
*I *802:X O *D sky130_fd_sc_hd__or3_1
*CAP
1 *837:B1 0.000600111
2 *838:A1 0
3 *802:X 0.000337141
4 *131:12 0.000937252
5 *837:B1 *838:A2 8.40269e-05
6 *837:B1 *838:C1 4.66108e-05
7 *837:B1 *947:A 2.75145e-05
8 *837:B1 *948:B 0
9 *837:B1 *992:CLK 1.61831e-05
10 *837:B1 *992:D 2.75229e-05
11 *837:B1 *165:6 3.38425e-05
12 *837:B1 *166:16 0.000433808
13 *131:12 *838:B1 0
14 *803:B *837:B1 7.70828e-05
15 *950:A1 *131:12 4.70343e-05
16 *1012:A *837:B1 0.000139245
17 *1012:A *131:12 0.000577942
18 *125:12 *131:12 0
19 *127:10 *131:12 8.65905e-05
*RES
1 *802:X *131:12 13.13 
2 *131:12 *838:A1 1.6 
3 *131:12 *837:B1 14.69 
*END

*D_NET *132 0.000355909
*CONN
*I *838:C1 I *D sky130_fd_sc_hd__o211ai_1
*I *803:X O *D sky130_fd_sc_hd__or3_1
*CAP
1 *838:C1 0.000118826
2 *803:X 0.000118826
3 *838:C1 *838:A2 2.16833e-05
4 *838:C1 *838:B1 4.99619e-05
5 *838:C1 *134:18 0
6 *837:B1 *838:C1 4.66108e-05
*RES
1 *803:X *838:C1 5.39 
*END

*D_NET *133 0.00163735
*CONN
*I *838:B1 I *D sky130_fd_sc_hd__o211ai_1
*I *804:X O *D sky130_fd_sc_hd__o21a_1
*CAP
1 *838:B1 0.000387535
2 *804:X 0.000387535
3 *838:B1 *986:CLK 0.000401008
4 *838:B1 *996:CLK 4.19797e-05
5 *838:B1 *167:6 5.83121e-06
6 *838:C1 *838:B1 4.99619e-05
7 *950:A1 *838:B1 6.74079e-05
8 *125:12 *838:B1 0.000296088
9 *131:12 *838:B1 0
*RES
1 *804:X *838:B1 17.535 
*END

*D_NET *134 0.00261636
*CONN
*I *807:A I *D sky130_fd_sc_hd__nand2_1
*I *948:A I *D sky130_fd_sc_hd__nand2_1
*I *838:A2 I *D sky130_fd_sc_hd__o211ai_1
*I *805:Y O *D sky130_fd_sc_hd__nand2_1
*CAP
1 *807:A 0
2 *948:A 0
3 *838:A2 0.000215231
4 *805:Y 0.000142101
5 *134:18 0.000701013
6 *134:10 0.000627883
7 *134:10 *806:A 4.35432e-05
8 *134:10 *806:B 4.82863e-05
9 *134:10 *807:B 5.92269e-05
10 *134:10 *303:21 0
11 *134:10 *303:60 0
12 *134:10 *330:18 2.66935e-05
13 *134:18 *807:B 5.53249e-06
14 *134:18 *946:A 4.66108e-05
15 *134:18 *947:B 0.000138791
16 *134:18 *979:A 7.04108e-05
17 *134:18 *161:10 0.000385327
18 *134:18 *303:21 0
19 *837:B1 *838:A2 8.40269e-05
20 *838:C1 *838:A2 2.16833e-05
21 *838:C1 *134:18 0
*RES
1 *805:Y *134:10 6.12 
2 *134:10 *134:18 11.51 
3 *134:18 *838:A2 4.84 
4 *134:18 *948:A 1.6 
5 *134:10 *807:A 3.6 
*END

*D_NET *135 0.000257067
*CONN
*I *807:B I *D sky130_fd_sc_hd__nand2_1
*I *806:X O *D sky130_fd_sc_hd__or2_1
*CAP
1 *807:B 3.72377e-05
2 *806:X 3.72377e-05
3 *807:B *979:A 0.000117832
4 *134:10 *807:B 5.92269e-05
5 *134:18 *807:B 5.53249e-06
*RES
1 *806:X *807:B 8.58 
*END

*D_NET *136 0.00140066
*CONN
*I *837:C1 I *D sky130_fd_sc_hd__a211oi_1
*I *836:B1 I *D sky130_fd_sc_hd__a21o_1
*I *946:A I *D sky130_fd_sc_hd__nand3_1
*I *807:Y O *D sky130_fd_sc_hd__nand2_1
*CAP
1 *837:C1 0
2 *836:B1 0
3 *946:A 0.000137419
4 *807:Y 5.32477e-05
5 *136:12 0.000234762
6 *136:6 0.000150591
7 *946:A *947:B 0
8 *946:A *948:B 0
9 *946:A *166:16 0
10 *946:A *301:10 0.000199734
11 *136:6 *303:27 7.22354e-05
12 *136:12 *837:A2 4.66108e-05
13 *136:12 *948:B 0
14 *136:12 *166:16 0.000289569
15 *136:12 *303:27 0.000169878
16 *134:18 *946:A 4.66108e-05
*RES
1 *807:Y *136:6 2.74 
2 *136:6 *136:12 3.33 
3 *136:12 *946:A 8.45 
4 *136:12 *836:B1 1.6 
5 *136:6 *837:C1 1.6 
*END

*D_NET *137 0.00258861
*CONN
*I *816:A I *D sky130_fd_sc_hd__nor3_2
*I *966:A1 I *D sky130_fd_sc_hd__o21a_1
*I *968:A I *D sky130_fd_sc_hd__nor2_1
*I *817:B1 I *D sky130_fd_sc_hd__a21o_1
*I *808:X O *D sky130_fd_sc_hd__and2_1
*CAP
1 *816:A 0
2 *966:A1 2.08101e-05
3 *968:A 0
4 *817:B1 0.000173105
5 *808:X 0.00016858
6 *137:24 0.000382927
7 *137:18 0.000512693
8 *137:10 0.000450641
9 *817:B1 *818:A 7.17811e-05
10 *817:B1 *832:B1 1.70935e-05
11 *817:B1 *145:21 0.000182196
12 *817:B1 *303:21 0
13 *817:B1 *366:10 0
14 *966:A1 *966:A2 0
15 *966:A1 *144:8 0
16 *137:10 *965:A 0
17 *137:10 *1079:A 2.03578e-05
18 *137:10 *138:12 5.7344e-05
19 *137:10 *357:8 5.05437e-05
20 *137:10 *357:15 5.83121e-06
21 *137:18 *965:A 0
22 *137:18 *966:B1 5.83589e-05
23 *137:18 *138:12 5.53249e-06
24 *137:18 *144:8 0.000163199
25 *137:18 *145:19 0
26 *137:24 *966:A2 4.82919e-05
27 *137:24 *966:B1 2.08163e-05
28 *137:24 *1087:A 0
29 *137:24 *145:19 0.000172971
30 *137:24 *145:21 5.53249e-06
31 *137:24 *366:10 0
32 *982:RESET_B *137:10 0
*RES
1 *808:X *137:10 6.795 
2 *137:10 *137:18 6.095 
3 *137:18 *137:24 6.47 
4 *137:24 *817:B1 7.785 
5 *137:24 *968:A 3.6 
6 *137:18 *966:A1 1.96 
7 *137:10 *816:A 3.6 
*END

*D_NET *138 0.00180288
*CONN
*I *966:A2 I *D sky130_fd_sc_hd__o21a_1
*I *816:B I *D sky130_fd_sc_hd__nor3_2
*I *809:Y O *D sky130_fd_sc_hd__nor2_1
*CAP
1 *966:A2 0.000175613
2 *816:B 0
3 *809:Y 0.000252657
4 *138:12 0.00042827
5 *966:A2 *966:B1 0.000375055
6 *966:A2 *967:A 0.000181766
7 *966:A2 *967:B 0
8 *966:A2 *144:8 3.23663e-05
9 *966:A2 *145:6 0.000114024
10 *138:12 *808:A 1.61831e-05
11 *138:12 *357:8 4.80285e-05
12 *138:12 *357:15 6.77501e-05
13 *966:A1 *966:A2 0
14 *137:10 *138:12 5.7344e-05
15 *137:18 *138:12 5.53249e-06
16 *137:24 *966:A2 4.82919e-05
*RES
1 *809:Y *138:12 9.155 
2 *138:12 *816:B 1.6 
3 *138:12 *966:A2 7.27 
*END

*D_NET *139 0.000647426
*CONN
*I *811:A I *D sky130_fd_sc_hd__inv_2
*I *815:B1 I *D sky130_fd_sc_hd__o21a_1
*I *810:Y O *D sky130_fd_sc_hd__nand2_1
*CAP
1 *811:A 0
2 *815:B1 4.13019e-05
3 *810:Y 3.95364e-05
4 *139:10 8.08383e-05
5 *815:B1 *813:B 0.000122325
6 *815:B1 *965:B 0.000124895
7 *815:B1 *141:6 4.82919e-05
8 *139:10 *810:A 6.11019e-05
9 *139:10 *815:A2 2.92496e-05
10 *139:10 *143:10 9.54469e-05
11 *139:10 *309:10 4.43871e-06
*RES
1 *810:Y *139:10 6.98 
2 *139:10 *815:B1 3.085 
3 *139:10 *811:A 1.6 
*END

*D_NET *140 0.000755445
*CONN
*I *813:A I *D sky130_fd_sc_hd__nor2_1
*I *811:Y O *D sky130_fd_sc_hd__inv_2
*CAP
1 *813:A 0.000227608
2 *811:Y 0.000227608
3 *813:A *813:B 5.83121e-06
4 *813:A *1087:A 0.000118294
5 *813:A *141:6 4.08514e-05
6 *813:A *309:10 3.1121e-05
7 *1027:A *813:A 0.000104132
*RES
1 *811:Y *813:A 11.565 
*END

*D_NET *141 0.00116134
*CONN
*I *815:A1 I *D sky130_fd_sc_hd__o21a_1
*I *813:B I *D sky130_fd_sc_hd__nor2_1
*I *812:Y O *D sky130_fd_sc_hd__nor2_1
*CAP
1 *815:A1 0
2 *813:B 0.00020856
3 *812:Y 9.10385e-05
4 *141:6 0.000299599
5 *813:B *965:A 0.000116165
6 *813:B *965:B 8.96017e-05
7 *813:B *972:A 4.18603e-06
8 *813:B *981:D 0
9 *813:B *144:8 8.65961e-05
10 *813:B *309:10 0
11 *141:6 *812:A 4.82919e-05
12 *813:A *813:B 5.83121e-06
13 *813:A *141:6 4.08514e-05
14 *815:B1 *813:B 0.000122325
15 *815:B1 *141:6 4.82919e-05
16 *1027:A *813:B 0
*RES
1 *812:Y *141:6 3.43 
2 *141:6 *813:B 10.265 
3 *141:6 *815:A1 1.6 
*END

*D_NET *142 0.000394019
*CONN
*I *965:A I *D sky130_fd_sc_hd__xnor2_1
*I *813:Y O *D sky130_fd_sc_hd__nor2_1
*CAP
1 *965:A 0.000115841
2 *813:Y 0.000115841
3 *965:A *815:A2 0
4 *965:A *981:D 2.87867e-05
5 *965:A *1087:A 1.7386e-05
6 *813:B *965:A 0.000116165
7 *137:10 *965:A 0
8 *137:18 *965:A 0
*RES
1 *813:Y *965:A 9.285 
*END

*D_NET *143 0.00222192
*CONN
*I *971:A I *D sky130_fd_sc_hd__and2_1
*I *965:B I *D sky130_fd_sc_hd__xnor2_1
*I *815:A2 I *D sky130_fd_sc_hd__o21a_1
*I *814:Y O *D sky130_fd_sc_hd__nand2_1
*CAP
1 *971:A 1.7063e-05
2 *965:B 0.00021246
3 *815:A2 7.98701e-05
4 *814:Y 0.000112231
5 *143:10 0.000499887
6 *143:8 0.000336851
7 *815:A2 *309:10 1.14274e-05
8 *965:B *144:8 2.67184e-05
9 *971:A *970:A 1.34503e-05
10 *971:A *971:B 4.99619e-05
11 *971:A *1079:A 8.65905e-05
12 *143:8 *970:A 0.000252282
13 *143:8 *970:B 0.000118496
14 *143:8 *333:25 3.50033e-05
15 *143:10 *810:A 3.04396e-05
16 acc[2] *143:8 0
17 *813:B *965:B 8.96017e-05
18 *815:B1 *965:B 0.000124895
19 *965:A *815:A2 0
20 *139:10 *815:A2 2.92496e-05
21 *139:10 *143:10 9.54469e-05
*RES
1 *814:Y *143:8 7.275 
2 *143:8 *143:10 3.675 
3 *143:10 *815:A2 5.025 
4 *143:10 *965:B 7.425 
5 *143:8 *971:A 4.395 
*END

*D_NET *144 0.00149336
*CONN
*I *966:B1 I *D sky130_fd_sc_hd__o21a_1
*I *816:C I *D sky130_fd_sc_hd__nor3_2
*I *815:X O *D sky130_fd_sc_hd__o21a_1
*CAP
1 *966:B1 6.42343e-05
2 *816:C 0
3 *815:X 0.000300891
4 *144:8 0.000365125
5 *813:B *144:8 8.65961e-05
6 *965:B *144:8 2.67184e-05
7 *966:A1 *144:8 0
8 *966:A2 *966:B1 0.000375055
9 *966:A2 *144:8 3.23663e-05
10 *137:18 *966:B1 5.83589e-05
11 *137:18 *144:8 0.000163199
12 *137:24 *966:B1 2.08163e-05
*RES
1 *815:X *144:8 6.895 
2 *144:8 *816:C 1.6 
3 *144:8 *966:B1 4.915 
*END

*D_NET *145 0.00292081
*CONN
*I *968:B I *D sky130_fd_sc_hd__nor2_1
*I *819:B1 I *D sky130_fd_sc_hd__o22ai_1
*I *832:B1 I *D sky130_fd_sc_hd__o221ai_4
*I *967:A I *D sky130_fd_sc_hd__nor2_1
*I *816:Y O *D sky130_fd_sc_hd__nor3_2
*CAP
1 *968:B 0
2 *819:B1 1.41735e-05
3 *832:B1 0.000183683
4 *967:A 0.000186372
5 *816:Y 7.94854e-05
6 *145:21 0.000383149
7 *145:19 0.000453178
8 *145:6 0.000533743
9 *819:B1 *324:16 8.65961e-05
10 *819:B1 *330:18 8.65961e-05
11 *832:B1 *831:C 5.30673e-05
12 *832:B1 *832:A2 0
13 *832:B1 *832:B2 0.000160658
14 *832:B1 *148:8 0
15 *832:B1 *303:21 0
16 *832:B1 *360:38 0
17 *967:A *967:B 2.65239e-05
18 *145:19 *969:A 0
19 *145:21 *818:B 0
20 *145:21 *969:A 0
21 *817:B1 *832:B1 1.70935e-05
22 *817:B1 *145:21 0.000182196
23 *966:A2 *967:A 0.000181766
24 *966:A2 *145:6 0.000114024
25 *137:18 *145:19 0
26 *137:24 *145:19 0.000172971
27 *137:24 *145:21 5.53249e-06
*RES
1 *816:Y *145:6 2.74 
2 *145:6 *967:A 4.39 
3 *145:6 *145:19 6.695 
4 *145:19 *145:21 3.93 
5 *145:21 *832:B1 7.155 
6 *145:21 *819:B1 4.395 
7 *145:19 *968:B 3.6 
*END

*D_NET *146 0.000857029
*CONN
*I *819:B2 I *D sky130_fd_sc_hd__o22ai_1
*I *832:B2 I *D sky130_fd_sc_hd__o221ai_4
*I *817:X O *D sky130_fd_sc_hd__a21o_1
*CAP
1 *819:B2 2.14899e-05
2 *832:B2 0.000122318
3 *817:X 0
4 *146:4 0.000143808
5 *819:B2 *817:A2 0.000152328
6 *819:B2 *324:16 0.000163204
7 *832:B2 *817:A2 4.66108e-05
8 *832:B2 *954:A 0
9 *832:B2 *303:21 0
10 *832:B2 *324:16 4.66108e-05
11 *832:B1 *832:B2 0.000160658
*RES
1 *817:X *146:4 1.6 
2 *146:4 *832:B2 8.195 
3 *146:4 *819:B2 3.085 
*END

*D_NET *147 0.000455748
*CONN
*I *969:A I *D sky130_fd_sc_hd__xnor2_1
*I *818:X O *D sky130_fd_sc_hd__xor2_1
*CAP
1 *969:A 0.000176475
2 *818:X 0.000176475
3 *969:A *818:B 7.60965e-05
4 *969:A *981:CLK 0
5 *969:A *983:D 2.67022e-05
6 *145:19 *969:A 0
7 *145:21 *969:A 0
*RES
1 *818:X *969:A 9.975 
*END

*D_NET *148 0.00103129
*CONN
*I *955:A I *D sky130_fd_sc_hd__nand2_1
*I *954:A I *D sky130_fd_sc_hd__or2_1
*I *819:Y O *D sky130_fd_sc_hd__o22ai_1
*CAP
1 *955:A 6.04641e-05
2 *954:A 0.000136107
3 *819:Y 6.89447e-05
4 *148:8 0.000265516
5 *954:A *832:A1 1.22676e-05
6 *954:A *956:B 0
7 *954:A *159:23 0
8 *955:A *831:C 0.000148084
9 *955:A *832:A2 4.82919e-05
10 *955:A *360:25 0.000188957
11 *148:8 *832:A1 7.21296e-06
12 *148:8 *360:38 9.54469e-05
13 *832:B1 *148:8 0
14 *832:B2 *954:A 0
*RES
1 *819:Y *148:8 4.98 
2 *148:8 *954:A 5.745 
3 *148:8 *955:A 6.135 
*END

*D_NET *149 0.00143615
*CONN
*I *824:A I *D sky130_fd_sc_hd__or3_1
*I *960:B1 I *D sky130_fd_sc_hd__a21oi_1
*I *961:A I *D sky130_fd_sc_hd__and3_1
*I *820:Y O *D sky130_fd_sc_hd__xnor2_1
*CAP
1 *824:A 2.2025e-05
2 *960:B1 8.9688e-05
3 *961:A 0
4 *820:Y 0.000182525
5 *149:19 0.000122118
6 *149:12 0.00019293
7 *824:A *960:A2 0.000124007
8 *824:A *961:C 3.7712e-05
9 *824:A *369:39 4.82919e-05
10 *960:B1 *960:A1 5.97622e-05
11 *960:B1 *960:A2 0.000175529
12 *960:B1 *961:C 5.45488e-05
13 *960:B1 *962:B 0.000162311
14 *960:B1 *263:10 4.9253e-06
15 *149:12 *834:B1 0
16 *149:12 *963:A2 0.000104286
17 *149:12 *963:B1 4.99619e-05
18 *149:12 *151:16 0
19 *149:12 *369:39 5.53249e-06
*RES
1 *820:Y *149:12 8.21 
2 *149:12 *961:A 1.6 
3 *149:12 *149:19 0.36 
4 *149:19 *960:B1 4.93 
5 *149:19 *824:A 2.74 
*END

*D_NET *150 0.00231543
*CONN
*I *824:B I *D sky130_fd_sc_hd__or3_1
*I *823:A I *D sky130_fd_sc_hd__nor2_1
*I *833:B1 I *D sky130_fd_sc_hd__a21oi_1
*I *821:X O *D sky130_fd_sc_hd__and2_1
*CAP
1 *824:B 0.00011777
2 *823:A 2.23215e-05
3 *833:B1 0.000242455
4 *821:X 0
5 *150:12 0.000379658
6 *150:6 0.000232652
7 *823:A *822:A 0
8 *823:A *151:8 1.31519e-05
9 *823:A *151:16 5.4155e-06
10 *824:B *821:B 2.97561e-05
11 *824:B *961:C 6.45236e-05
12 *824:B *154:8 8.23457e-05
13 *824:B *156:10 0
14 *824:B *261:10 4.9968e-05
15 *833:B1 *820:A 4.05358e-05
16 *833:B1 *1085:A 4.82919e-05
17 *833:B1 *151:16 1.83847e-05
18 *833:B1 *327:8 0.0001249
19 *833:B1 *327:22 4.99619e-05
20 *150:12 *821:B 7.26707e-05
21 *150:12 *961:C 8.53113e-06
22 *150:12 *964:A 0.000141599
23 *150:12 *151:16 0.000161501
24 *1045:A *823:A 1.85674e-05
25 *1045:A *833:B1 0.000390466
*RES
1 *821:X *150:6 3.6 
2 *150:6 *150:12 5.615 
3 *150:12 *833:B1 11.165 
4 *150:12 *823:A 2.215 
5 *150:6 *824:B 5.775 
*END

*D_NET *151 0.00230411
*CONN
*I *823:B I *D sky130_fd_sc_hd__nor2_1
*I *834:B2 I *D sky130_fd_sc_hd__o22a_1
*I *824:C I *D sky130_fd_sc_hd__or3_1
*I *822:Y O *D sky130_fd_sc_hd__nor2_1
*CAP
1 *823:B 0
2 *834:B2 0.000173607
3 *824:C 0
4 *822:Y 6.91458e-05
5 *151:16 0.000508801
6 *151:8 0.000404339
7 *834:B2 *834:A1 8.65905e-05
8 *834:B2 *961:C 3.09164e-05
9 *834:B2 *972:A 0.000227233
10 *834:B2 *261:10 0.000149759
11 *834:B2 *369:39 0.000293652
12 *151:8 *821:A 7.00889e-06
13 *151:8 *821:B 4.82919e-05
14 *151:8 *822:A 0
15 *151:8 *365:16 2.59211e-05
16 *151:16 *821:B 0
17 *151:16 *834:B1 0
18 *151:16 *961:C 5.16418e-05
19 *151:16 *963:A1 0
20 *151:16 *327:22 0
21 *151:16 *365:16 1.85674e-05
22 *151:16 *369:39 1.0183e-05
23 *823:A *151:8 1.31519e-05
24 *823:A *151:16 5.4155e-06
25 *833:B1 *151:16 1.83847e-05
26 *1047:A *151:16 0
27 *149:12 *151:16 0
28 *150:12 *151:16 0.000161501
*RES
1 *822:Y *151:8 3.1 
2 *151:8 *151:16 7.94 
3 *151:16 *824:C 3.6 
4 *151:16 *834:B2 9.315 
5 *151:8 *823:B 1.6 
*END

*D_NET *152 0.000617242
*CONN
*I *964:A I *D sky130_fd_sc_hd__xnor2_1
*I *823:Y O *D sky130_fd_sc_hd__nor2_1
*CAP
1 *964:A 0.000162764
2 *823:Y 0.000162764
3 *964:A *821:B 0.000139238
4 *964:A *987:D 1.08758e-05
5 *150:12 *964:A 0.000141599
*RES
1 *823:Y *964:A 10.32 
*END

*D_NET *153 0.00336117
*CONN
*I *831:A I *D sky130_fd_sc_hd__nor3_1
*I *835:A1 I *D sky130_fd_sc_hd__o31a_1
*I *834:A1 I *D sky130_fd_sc_hd__o22a_1
*I *824:X O *D sky130_fd_sc_hd__or3_1
*CAP
1 *831:A 0.000326104
2 *835:A1 0.000197047
3 *834:A1 1.41866e-05
4 *824:X 7.15226e-05
5 *153:19 0.00079396
6 *153:8 0.000356517
7 *831:A *831:C 0.000201275
8 *831:A *989:CLK 2.75538e-05
9 *831:A *161:10 3.79586e-05
10 *831:A *303:21 2.46089e-05
11 *834:A1 *972:A 8.65905e-05
12 *835:A1 *835:A2 2.0514e-05
13 *835:A1 *835:A3 0.00057429
14 *835:A1 *835:B1 0.000237243
15 *835:A1 *1014:A 6.27029e-05
16 *835:A1 *164:10 1.08758e-05
17 *835:A1 *303:8 4.80182e-05
18 *153:8 *834:A2 2.87867e-05
19 *153:8 *834:B1 0
20 *153:8 *369:39 9.54399e-05
21 *153:19 *835:B1 0
22 *153:19 *989:CLK 5.93844e-05
23 *153:19 *157:29 0
24 *153:19 *261:10 0
25 *834:B2 *834:A1 8.65905e-05
*RES
1 *824:X *153:8 5.235 
2 *153:8 *834:A1 4.395 
3 *153:8 *153:19 3.93 
4 *153:19 *835:A1 9.93 
5 *153:19 *831:A 8.46 
*END

*D_NET *154 0.00270517
*CONN
*I *827:A I *D sky130_fd_sc_hd__nand2_1
*I *961:B I *D sky130_fd_sc_hd__and3_1
*I *834:A2 I *D sky130_fd_sc_hd__o22a_1
*I *960:A1 I *D sky130_fd_sc_hd__a21oi_1
*I *825:Y O *D sky130_fd_sc_hd__nand2_1
*CAP
1 *827:A 4.41396e-05
2 *961:B 0
3 *834:A2 3.65179e-05
4 *960:A1 0.00012972
5 *825:Y 0
6 *154:21 5.42932e-05
7 *154:8 0.000747818
8 *154:4 0.000644462
9 *827:A *825:B 3.95724e-05
10 *827:A *827:B 1.85674e-05
11 *827:A *978:A 5.83121e-06
12 *827:A *156:10 9.80943e-06
13 *834:A2 *834:B1 2.87867e-05
14 *960:A1 *960:A2 0.000143468
15 *960:A1 *962:B 0
16 *960:A1 *369:27 0
17 *154:8 *960:A2 0.000299625
18 *154:8 *978:A 2.8185e-05
19 *154:8 *369:39 0.000268924
20 *154:8 *369:48 3.45588e-05
21 *824:B *154:8 8.23457e-05
22 *960:B1 *960:A1 5.97622e-05
23 *153:8 *834:A2 2.87867e-05
*RES
1 *825:Y *154:4 1.6 
2 *154:4 *154:8 10.815 
3 *154:8 *960:A1 4.495 
4 *154:8 *154:21 0.36 
5 *154:21 *834:A2 6.47 
6 *154:21 *961:B 1.6 
7 *154:4 *827:A 2.755 
*END

*D_NET *155 0.00062089
*CONN
*I *827:B I *D sky130_fd_sc_hd__nand2_1
*I *826:X O *D sky130_fd_sc_hd__or2_1
*CAP
1 *827:B 0.000222112
2 *826:X 0.000222112
3 *827:B *825:B 3.95724e-05
4 *827:B *1068:A 0.000118527
5 *827:A *827:B 1.85674e-05
*RES
1 *826:X *827:B 11.115 
*END

*D_NET *156 0.00523517
*CONN
*I *957:B1 I *D sky130_fd_sc_hd__a21o_1
*I *831:B I *D sky130_fd_sc_hd__nor3_1
*I *835:A2 I *D sky130_fd_sc_hd__o31a_1
*I *958:A I *D sky130_fd_sc_hd__nand3_1
*I *827:Y O *D sky130_fd_sc_hd__nand2_1
*CAP
1 *957:B1 0
2 *831:B 0.000167839
3 *835:A2 0.000305002
4 *958:A 0
5 *827:Y 0.000540693
6 *156:35 0.00083982
7 *156:25 0.000571215
8 *156:10 0.000744929
9 *831:B *835:B1 2.16389e-05
10 *831:B *979:A 0
11 *831:B *989:CLK 6.55328e-05
12 *831:B *303:21 5.65627e-05
13 *835:A2 *835:A3 0.000387896
14 *156:10 *821:A 2.97561e-05
15 *156:10 *825:B 4.99619e-05
16 *156:10 *978:A 7.49327e-05
17 *156:10 *987:CLK 0.000247574
18 *156:10 *261:10 0
19 *156:10 *369:39 0.000428764
20 *156:10 *369:48 7.66083e-05
21 *156:25 *956:A 0.000123225
22 *156:25 *958:C 4.40812e-05
23 *156:25 *959:A 5.68633e-05
24 *156:25 *987:CLK 9.50342e-06
25 *156:25 *261:10 0
26 *156:25 *303:90 0.000132096
27 *156:35 *835:B1 2.66935e-05
28 *156:35 *959:A 3.74161e-05
29 *156:35 *989:CLK 0.000107836
30 *156:35 *989:D 1.0124e-05
31 *156:35 *261:6 4.82863e-05
32 *824:B *156:10 0
33 *827:A *156:10 9.80943e-06
34 *835:A1 *835:A2 2.0514e-05
*RES
1 *827:Y *156:10 12.48 
2 *156:10 *958:A 3.6 
3 *156:10 *156:25 6.17 
4 *156:25 *156:35 7.745 
5 *156:35 *835:A2 7.86 
6 *156:35 *831:B 6.705 
7 *156:25 *957:B1 1.6 
*END

*D_NET *157 0.0050864
*CONN
*I *830:A I *D sky130_fd_sc_hd__nand2_1
*I *957:A1 I *D sky130_fd_sc_hd__a21o_1
*I *958:B I *D sky130_fd_sc_hd__nand3_1
*I *835:A3 I *D sky130_fd_sc_hd__o31a_1
*I *828:Y O *D sky130_fd_sc_hd__nand2_1
*CAP
1 *830:A 0.00011534
2 *957:A1 0
3 *958:B 0.000148182
4 *835:A3 0.000301694
5 *828:Y 4.27971e-05
6 *157:29 0.000239867
7 *157:18 0.00106628
8 *157:8 0.000831039
9 *830:A *159:6 8.40057e-05
10 *830:A *362:8 8.88799e-05
11 *835:A3 *303:8 2.10134e-05
12 *835:A3 *303:84 0.000239807
13 *958:B *958:C 0.000116165
14 *958:B *972:A 5.34747e-05
15 *958:B *261:10 4.70343e-05
16 *157:8 *828:A 5.53249e-06
17 *157:8 *829:A 7.26551e-05
18 *157:8 *362:21 0.000139245
19 *157:18 *829:A 3.05373e-05
20 *157:18 *829:B 8.53113e-06
21 *157:18 *954:B 1.39431e-05
22 *157:18 *984:CLK 6.3889e-05
23 *157:18 *159:6 4.52007e-05
24 *157:18 *303:84 0.00015316
25 *157:18 *303:90 4.00541e-06
26 *157:18 *362:21 4.38051e-05
27 *157:29 *958:C 9.50342e-06
28 *157:29 *259:8 0.000131408
29 *157:29 *261:10 7.21296e-06
30 *157:29 *303:90 0
31 *835:A1 *835:A3 0.00057429
32 *835:A2 *835:A3 0.000387896
33 *153:19 *157:29 0
*RES
1 *828:Y *157:8 5.235 
2 *157:8 *157:18 10.775 
3 *157:18 *835:A3 9.64 
4 *157:18 *157:29 3.89 
5 *157:29 *958:B 6.48 
6 *157:29 *957:A1 3.6 
7 *157:8 *830:A 6.135 
*END

*D_NET *158 0.000459251
*CONN
*I *830:B I *D sky130_fd_sc_hd__nand2_1
*I *829:X O *D sky130_fd_sc_hd__or2_1
*CAP
1 *830:B 0.000193205
2 *829:X 0.000193205
3 *830:B *1068:A 7.28401e-05
*RES
1 *829:X *830:B 9.975 
*END

*D_NET *159 0.00347226
*CONN
*I *955:B I *D sky130_fd_sc_hd__nand2_1
*I *831:C I *D sky130_fd_sc_hd__nor3_1
*I *954:B I *D sky130_fd_sc_hd__or2_1
*I *830:Y O *D sky130_fd_sc_hd__nand2_1
*CAP
1 *955:B 0
2 *831:C 0.000479601
3 *954:B 0.000196065
4 *830:Y 0.000532378
5 *159:23 0.000587032
6 *159:6 0.000835874
7 *831:C *832:A2 1.47256e-05
8 *831:C *832:C1 3.60443e-05
9 *831:C *956:B 8.65961e-05
10 *831:C *161:10 1.57478e-05
11 *831:C *360:25 2.96334e-05
12 *954:B *984:CLK 0.000101325
13 *954:B *303:84 1.16578e-05
14 *159:23 *832:A1 0
15 *159:23 *974:A 0
16 *830:A *159:6 8.40057e-05
17 *831:A *831:C 0.000201275
18 *832:B1 *831:C 5.30673e-05
19 *954:A *159:23 0
20 *955:A *831:C 0.000148084
21 *1043:A *831:C 0
22 *157:18 *954:B 1.39431e-05
23 *157:18 *159:6 4.52007e-05
*RES
1 *830:Y *159:6 7.57 
2 *159:6 *954:B 4.495 
3 *159:6 *159:23 5.38 
4 *159:23 *831:C 10.705 
5 *159:23 *955:B 1.6 
*END

*D_NET *160 0.00016456
*CONN
*I *832:C1 I *D sky130_fd_sc_hd__o221ai_4
*I *831:Y O *D sky130_fd_sc_hd__nor3_1
*CAP
1 *832:C1 3.70938e-05
2 *831:Y 3.70938e-05
3 *832:C1 *161:10 5.43275e-05
4 *831:C *832:C1 3.60443e-05
*RES
1 *831:Y *832:C1 4.37 
*END

*D_NET *161 0.002114
*CONN
*I *946:B I *D sky130_fd_sc_hd__nand3_1
*I *837:A1 I *D sky130_fd_sc_hd__a211oi_1
*I *836:A1 I *D sky130_fd_sc_hd__a21o_1
*I *832:Y O *D sky130_fd_sc_hd__o221ai_4
*CAP
1 *946:B 0
2 *837:A1 0.000102476
3 *836:A1 0
4 *832:Y 0.000320966
5 *161:14 0.00016802
6 *161:10 0.000386509
7 *837:A1 *1021:A 2.23407e-05
8 *837:A1 *164:23 9.50342e-06
9 *837:A1 *301:10 4.31106e-05
10 *837:A1 *303:27 0.000122337
11 *161:10 *946:C 4.66108e-05
12 *161:14 *164:23 0.0002014
13 *161:14 *301:10 0.000197365
14 *831:A *161:10 3.79586e-05
15 *831:C *161:10 1.57478e-05
16 *832:C1 *161:10 5.43275e-05
17 *134:18 *161:10 0.000385327
*RES
1 *832:Y *161:10 7.855 
2 *161:10 *161:14 4.4 
3 *161:14 *836:A1 3.6 
4 *161:14 *837:A1 5.355 
5 *161:10 *946:B 1.6 
*END

*D_NET *162 0.000857181
*CONN
*I *834:B1 I *D sky130_fd_sc_hd__o22a_1
*I *833:Y O *D sky130_fd_sc_hd__a21oi_1
*CAP
1 *834:B1 0.000383261
2 *833:Y 0.000383261
3 *834:B1 *820:A 5.63405e-05
4 *834:B1 *835:B1 5.53249e-06
5 *834:B1 *963:A1 0
6 *834:B1 *963:B1 0
7 *834:B1 *979:A 0
8 *834:B1 *1021:A 0
9 *834:B1 *263:10 0
10 *834:B1 *327:22 0
11 *834:B1 *369:27 0
12 *834:B1 *369:39 0
13 *834:A2 *834:B1 2.87867e-05
14 *149:12 *834:B1 0
15 *151:16 *834:B1 0
16 *153:8 *834:B1 0
*RES
1 *833:Y *834:B1 12.915 
*END

*D_NET *163 0.00106387
*CONN
*I *835:B1 I *D sky130_fd_sc_hd__o31a_1
*I *834:X O *D sky130_fd_sc_hd__o22a_1
*CAP
1 *835:B1 0.000271676
2 *834:X 0.000271676
3 *835:B1 *979:A 0.000141142
4 *835:B1 *989:CLK 0
5 *835:B1 *1014:A 8.8266e-05
6 *831:B *835:B1 2.16389e-05
7 *834:B1 *835:B1 5.53249e-06
8 *835:A1 *835:B1 0.000237243
9 *153:19 *835:B1 0
10 *156:35 *835:B1 2.66935e-05
*RES
1 *834:X *835:B1 13.56 
*END

*D_NET *164 0.00135713
*CONN
*I *837:A2 I *D sky130_fd_sc_hd__a211oi_1
*I *836:A2 I *D sky130_fd_sc_hd__a21o_1
*I *946:C I *D sky130_fd_sc_hd__nand3_1
*I *835:X O *D sky130_fd_sc_hd__o31a_1
*CAP
1 *837:A2 1.36534e-05
2 *836:A2 0
3 *946:C 2.89988e-05
4 *835:X 0.000132237
5 *164:23 8.3821e-05
6 *164:10 0.000231403
7 *837:A2 *303:27 4.66108e-05
8 *164:10 *1013:A 4.9253e-06
9 *164:10 *1014:A 2.59835e-05
10 *164:10 *1021:A 0.000181383
11 *164:10 *301:10 6.55406e-05
12 *164:23 *1021:A 0.000220445
13 *164:23 *301:10 7.12228e-06
14 *835:A1 *164:10 1.08758e-05
15 *837:A1 *164:23 9.50342e-06
16 *136:12 *837:A2 4.66108e-05
17 *161:10 *946:C 4.66108e-05
18 *161:14 *164:23 0.0002014
*RES
1 *835:X *164:10 6.54 
2 *164:10 *946:C 4.05 
3 *164:10 *164:23 4.655 
4 *164:23 *836:A2 1.6 
5 *164:23 *837:A2 2.05 
*END

*D_NET *165 0.000737003
*CONN
*I *948:B I *D sky130_fd_sc_hd__nand2_1
*I *947:A I *D sky130_fd_sc_hd__and2_1
*I *836:X O *D sky130_fd_sc_hd__a21o_1
*CAP
1 *948:B 0.000122305
2 *947:A 9.79255e-06
3 *836:X 3.99592e-05
4 *165:6 0.000172056
5 *947:A *992:CLK 4.99619e-05
6 *948:B *947:B 9.47454e-05
7 *165:6 *992:CLK 1.16578e-05
8 *165:6 *166:16 8.65961e-05
9 *165:6 *303:27 8.43862e-05
10 *803:B *948:B 0
11 *803:C *948:B 4.18603e-06
12 *837:B1 *947:A 2.75145e-05
13 *837:B1 *948:B 0
14 *837:B1 *165:6 3.38425e-05
15 *946:A *948:B 0
16 *1012:A *948:B 0
17 *136:12 *948:B 0
*RES
1 *836:X *165:6 3.085 
2 *165:6 *947:A 2.05 
3 *165:6 *948:B 7.85 
*END

*D_NET *166 0.00380986
*CONN
*I *839:A I *D sky130_fd_sc_hd__or2_1
*I *855:A1 I *D sky130_fd_sc_hd__o211a_1
*I *837:Y O *D sky130_fd_sc_hd__a211oi_1
*CAP
1 *839:A 1.04051e-05
2 *855:A1 0.000248738
3 *837:Y 0.000909473
4 *166:16 0.00116862
5 *855:A1 *855:A2 2.32911e-05
6 *855:A1 *855:B1 2.41747e-05
7 *855:A1 *992:D 1.47347e-05
8 *855:A1 *168:14 4.82863e-05
9 *855:A1 *336:8 1.0418e-05
10 *166:16 *947:B 5.33085e-05
11 *166:16 *988:CLK 2.15594e-05
12 *166:16 *988:D 8.53113e-06
13 *166:16 *992:CLK 4.47125e-05
14 *166:16 *992:D 0.000302738
15 *166:16 *301:10 0
16 *166:16 *303:27 0.000110904
17 *837:B1 *166:16 0.000433808
18 *946:A *166:16 0
19 *136:12 *166:16 0.000289569
20 *165:6 *166:16 8.65961e-05
*RES
1 *837:Y *166:16 20.75 
2 *166:16 *855:A1 4.735 
3 *166:16 *839:A 1.96 
*END

*D_NET *167 0.00186618
*CONN
*I *839:B I *D sky130_fd_sc_hd__or2_1
*I *855:A2 I *D sky130_fd_sc_hd__o211a_1
*I *838:Y O *D sky130_fd_sc_hd__o211ai_1
*CAP
1 *839:B 9.89153e-05
2 *855:A2 0.000240013
3 *838:Y 0.000230322
4 *167:6 0.00056925
5 *839:B *755:A 0
6 *839:B *168:14 6.14776e-05
7 *855:A2 *855:B1 2.02713e-05
8 *855:A2 *855:C1 0.000122331
9 *855:A2 *168:14 4.35348e-05
10 *855:A2 *332:43 0.000172137
11 *855:A2 *336:10 9.54469e-05
12 *855:A2 *336:38 7.26694e-05
13 *167:6 *751:A 2.49909e-05
14 *838:B1 *167:6 5.83121e-06
15 *855:A1 *855:A2 2.32911e-05
16 *992:RESET_B *167:6 8.57024e-05
*RES
1 *838:Y *167:6 5.155 
2 *167:6 *855:A2 10.745 
3 *167:6 *839:B 7.49 
*END

*D_NET *168 0.00205902
*CONN
*I *939:A I *D sky130_fd_sc_hd__xor2_1
*I *940:A1 I *D sky130_fd_sc_hd__a21bo_1
*I *839:X O *D sky130_fd_sc_hd__or2_1
*CAP
1 *939:A 0
2 *940:A1 0.000232681
3 *839:X 0.000195458
4 *168:14 0.000428139
5 *940:A1 *852:B 8.51879e-05
6 *940:A1 *855:B1 5.72516e-05
7 *940:A1 *855:C1 3.74161e-05
8 *940:A1 *940:A2 8.81689e-05
9 *940:A1 *940:B1_N 0.000121023
10 *940:A1 *183:8 4.66108e-05
11 *940:A1 *184:14 4.88478e-05
12 *940:A1 *186:10 3.00381e-05
13 *940:A1 *332:43 0.000197329
14 *168:14 *755:A 0
15 *168:14 *852:B 3.66286e-05
16 *168:14 *855:C1 0.000159791
17 *168:14 *992:D 0.000141149
18 *168:14 *336:38 0
19 *839:B *168:14 6.14776e-05
20 *855:A1 *168:14 4.82863e-05
21 *855:A2 *168:14 4.35348e-05
*RES
1 *839:X *168:14 10.535 
2 *168:14 *940:A1 11.315 
3 *168:14 *939:A 1.6 
*END

*D_NET *169 0.00237606
*CONN
*I *842:A I *D sky130_fd_sc_hd__nand2_1
*I *856:B2 I *D sky130_fd_sc_hd__o221ai_1
*I *942:B1_N I *D sky130_fd_sc_hd__a21bo_1
*I *840:Y O *D sky130_fd_sc_hd__nand2_1
*CAP
1 *842:A 5.09701e-05
2 *856:B2 9.92153e-05
3 *942:B1_N 0
4 *840:Y 3.48321e-05
5 *169:23 0.000600869
6 *169:6 0.000485515
7 *842:A *851:B 7.5416e-05
8 *842:A *857:B1 3.95347e-05
9 *842:A *171:10 5.83121e-06
10 *856:B2 *851:B 0.000284216
11 *856:B2 *857:B1 0.000136313
12 *856:B2 *179:10 9.50342e-06
13 *856:B2 *253:12 0
14 *169:6 *841:A 1.7386e-05
15 *169:6 *350:6 4.05674e-06
16 *169:23 *841:A 4.17054e-05
17 *169:23 *842:B 1.17409e-05
18 *169:23 *857:B1 5.65627e-05
19 *169:23 *942:A1 0.000292482
20 *169:23 *171:10 1.13896e-05
21 *169:23 *302:32 0.00011852
*RES
1 *840:Y *169:6 2.05 
2 *169:6 *942:B1_N 1.6 
3 *169:6 *169:23 12.42 
4 *169:23 *856:B2 7.02 
5 *169:23 *842:A 4.92 
*END

*D_NET *170 0.000886813
*CONN
*I *842:B I *D sky130_fd_sc_hd__nand2_1
*I *942:A1 I *D sky130_fd_sc_hd__a21bo_1
*I *841:X O *D sky130_fd_sc_hd__or2_1
*CAP
1 *842:B 3.01444e-05
2 *942:A1 0.000133726
3 *841:X 0
4 *170:4 0.00016387
5 *842:B *841:A 3.98488e-06
6 *842:B *171:10 4.82919e-05
7 *942:A1 *840:A 0
8 *942:A1 *840:B 0
9 *942:A1 *841:A 0.000126771
10 *942:A1 *942:A2 2.75145e-05
11 *942:A1 *171:10 4.82863e-05
12 *169:23 *842:B 1.17409e-05
13 *169:23 *942:A1 0.000292482
*RES
1 *841:X *170:4 1.6 
2 *170:4 *942:A1 5.875 
3 *170:4 *842:B 2.41 
*END

*D_NET *171 0.00121779
*CONN
*I *941:A I *D sky130_fd_sc_hd__xnor2_1
*I *851:A I *D sky130_fd_sc_hd__nor2_1
*I *842:Y O *D sky130_fd_sc_hd__nand2_1
*CAP
1 *941:A 5.64176e-05
2 *851:A 7.68943e-05
3 *842:Y 0.000154378
4 *171:10 0.00028769
5 *851:A *993:D 4.99619e-05
6 *851:A *302:32 4.99619e-05
7 *941:A *851:B 0.00015896
8 *941:A *852:A 7.43984e-05
9 *941:A *993:D 4.66108e-05
10 *171:10 *857:B1 0.000114492
11 *171:10 *942:A2 0
12 *171:10 *302:32 3.4222e-05
13 *842:A *171:10 5.83121e-06
14 *842:B *171:10 4.82919e-05
15 *942:A1 *171:10 4.82863e-05
16 *169:23 *171:10 1.13896e-05
*RES
1 *842:Y *171:10 6.12 
2 *171:10 *851:A 4.845 
3 *171:10 *941:A 5.43 
*END

*D_NET *172 0.000529873
*CONN
*I *944:A1 I *D sky130_fd_sc_hd__a21bo_1
*I *845:A I *D sky130_fd_sc_hd__nand2_1
*I *843:X O *D sky130_fd_sc_hd__or2_1
*CAP
1 *944:A1 0
2 *845:A 0.000120351
3 *843:X 9.62798e-05
4 *172:6 0.000216631
5 *845:A *845:B 0
6 *845:A *368:10 0
7 *172:6 *856:A1 9.66106e-05
*RES
1 *843:X *172:6 3.43 
2 *172:6 *845:A 7.49 
3 *172:6 *944:A1 1.6 
*END

*D_NET *173 0.00215608
*CONN
*I *845:B I *D sky130_fd_sc_hd__nand2_1
*I *944:B1_N I *D sky130_fd_sc_hd__a21bo_1
*I *856:A1 I *D sky130_fd_sc_hd__o221ai_1
*I *844:Y O *D sky130_fd_sc_hd__nand2_1
*CAP
1 *845:B 0.000153662
2 *944:B1_N 0
3 *856:A1 0.000371628
4 *844:Y 0.000137907
5 *173:12 0.000371628
6 *173:10 0.000291569
7 *845:B *844:A 2.4997e-05
8 *845:B *361:8 7.89767e-05
9 *845:B *368:10 0
10 *856:A1 *843:B 4.00541e-06
11 *856:A1 *944:A2 0.000312964
12 *856:A1 *945:B 0.000163204
13 *856:A1 *253:12 3.83041e-05
14 *173:10 *844:A 8.39175e-05
15 *173:10 *945:B 2.67022e-05
16 *173:10 *368:10 0
17 *845:A *845:B 0
18 *172:6 *856:A1 9.66106e-05
*RES
1 *844:Y *173:10 5.775 
2 *173:10 *173:12 2 
3 *173:12 *856:A1 8.89 
4 *173:12 *944:B1_N 1.6 
5 *173:10 *845:B 6.54 
*END

*D_NET *174 0.00179032
*CONN
*I *943:A I *D sky130_fd_sc_hd__xnor2_1
*I *850:A I *D sky130_fd_sc_hd__or2_1
*I *845:Y O *D sky130_fd_sc_hd__nand2_1
*CAP
1 *943:A 0
2 *850:A 0.000314139
3 *845:Y 0.000334371
4 *174:10 0.000648509
5 *850:A *856:A2 0
6 *850:A *945:A 0.000352161
7 *850:A *994:D 5.85158e-05
8 *850:A *253:12 1.71013e-05
9 *850:A *368:10 0
10 *850:A *368:65 0
11 *174:10 *253:12 6.5525e-05
12 *174:10 *368:10 0
*RES
1 *845:Y *174:10 7.845 
2 *174:10 *850:A 9.465 
3 *174:10 *943:A 3.6 
*END

*D_NET *175 0.000888731
*CONN
*I *849:A I *D sky130_fd_sc_hd__nand2_1
*I *856:C1 I *D sky130_fd_sc_hd__o221ai_1
*I *846:Y O *D sky130_fd_sc_hd__nand2_1
*CAP
1 *849:A 0
2 *856:C1 0.000264616
3 *846:Y 3.06433e-05
4 *175:8 0.000295259
5 *856:C1 *849:B 8.53113e-06
6 *856:C1 *857:B1 6.69608e-06
7 *856:C1 *302:57 0
8 *856:C1 *302:78 0
9 *856:C1 *332:43 0
10 *856:C1 *340:30 9.50342e-06
11 *856:C1 *368:65 0.00011588
12 *175:8 *847:A 0.000107021
13 *175:8 *847:B 3.70488e-05
14 *175:8 *372:37 1.35324e-05
*RES
1 *846:Y *175:8 2.755 
2 *175:8 *856:C1 9.83 
3 *175:8 *849:A 1.6 
*END

*D_NET *176 0.000597846
*CONN
*I *856:A2 I *D sky130_fd_sc_hd__o221ai_1
*I *847:Y O *D sky130_fd_sc_hd__nor2_1
*CAP
1 *856:A2 0.000181224
2 *847:Y 0.000181224
3 *856:A2 *332:43 0.000196738
4 *856:A2 *368:65 3.86607e-05
5 *850:A *856:A2 0
*RES
1 *847:Y *856:A2 9.9 
*END

*D_NET *177 0.000984813
*CONN
*I *849:B I *D sky130_fd_sc_hd__nand2_1
*I *848:X O *D sky130_fd_sc_hd__or2_1
*CAP
1 *849:B 0.000229995
2 *848:X 0.000229995
3 *849:B *753:A 0
4 *849:B *847:A 2.68464e-05
5 *849:B *847:B 4.77719e-05
6 *849:B *848:B 4.30166e-05
7 *849:B *340:12 9.37731e-05
8 *849:B *340:30 3.46262e-05
9 *849:B *372:37 0.000135524
10 acc[15] *849:B 8.64421e-05
11 *856:C1 *849:B 8.53113e-06
12 *1054:A *849:B 4.82919e-05
*RES
1 *848:X *849:B 12.465 
*END

*D_NET *178 0.00214721
*CONN
*I *850:B I *D sky130_fd_sc_hd__or2_1
*I *945:A I *D sky130_fd_sc_hd__xnor2_1
*I *849:Y O *D sky130_fd_sc_hd__nand2_1
*CAP
1 *850:B 0
2 *945:A 0.000277945
3 *849:Y 0.000160539
4 *178:8 0.000438484
5 *945:A *995:D 0.000164528
6 *945:A *179:10 0.000126054
7 *945:A *332:43 5.55591e-05
8 *945:A *368:10 6.99752e-05
9 *945:A *368:42 0.000302194
10 *178:8 *847:B 0.000191645
11 *178:8 *332:43 8.12896e-06
12 *850:A *945:A 0.000352161
*RES
1 *849:Y *178:8 4.045 
2 *178:8 *945:A 9.775 
3 *178:8 *850:B 1.6 
*END

*D_NET *179 0.00204584
*CONN
*I *851:B I *D sky130_fd_sc_hd__nor2_1
*I *856:B1 I *D sky130_fd_sc_hd__o221ai_1
*I *850:X O *D sky130_fd_sc_hd__or2_1
*CAP
1 *851:B 0.000388599
2 *856:B1 0
3 *850:X 0.000139314
4 *179:10 0.000527913
5 *851:B *857:B1 4.71081e-05
6 *851:B *993:D 2.16833e-05
7 *851:B *302:32 9.53428e-06
8 *179:10 *253:12 0
9 *179:10 *332:43 0.000122325
10 *179:10 *368:65 0.00013521
11 *842:A *851:B 7.5416e-05
12 *856:B2 *851:B 0.000284216
13 *856:B2 *179:10 9.50342e-06
14 *941:A *851:B 0.00015896
15 *945:A *179:10 0.000126054
*RES
1 *850:X *179:10 6.885 
2 *179:10 *856:B1 3.6 
3 *179:10 *851:B 11.505 
*END

*D_NET *180 0.001936
*CONN
*I *855:B1 I *D sky130_fd_sc_hd__o211a_1
*I *857:A3 I *D sky130_fd_sc_hd__a31o_1
*I *851:Y O *D sky130_fd_sc_hd__nor2_1
*CAP
1 *855:B1 0.000444144
2 *857:A3 0
3 *851:Y 0.000143098
4 *180:14 0.000587243
5 *855:B1 *940:A2 0.000263857
6 *855:B1 *186:10 3.78263e-05
7 *855:B1 *252:6 6.38247e-05
8 *855:B1 *336:8 5.83121e-06
9 *180:14 *857:B1 4.94326e-05
10 *180:14 *942:A2 0.0001947
11 *180:14 *997:CLK 0
12 *180:14 *252:6 1.08758e-05
13 *180:14 *339:8 3.34652e-05
14 *855:A1 *855:B1 2.41747e-05
15 *855:A2 *855:B1 2.02713e-05
16 *940:A1 *855:B1 5.72516e-05
*RES
1 *851:Y *180:14 8.915 
2 *180:14 *857:A3 1.6 
3 *180:14 *855:B1 9.025 
*END

*D_NET *181 0.000802534
*CONN
*I *854:A I *D sky130_fd_sc_hd__and2_1
*I *940:B1_N I *D sky130_fd_sc_hd__a21bo_1
*I *852:Y O *D sky130_fd_sc_hd__nand2_1
*CAP
1 *854:A 0
2 *940:B1_N 0.000132732
3 *852:Y 4.33857e-05
4 *181:6 0.000176118
5 *940:B1_N *852:A 0
6 *940:B1_N *854:B 0.00015829
7 *940:B1_N *857:A2 0
8 *940:B1_N *940:A2 0.000121023
9 *181:6 *852:B 4.99619e-05
10 *940:A1 *940:B1_N 0.000121023
*RES
1 *852:Y *181:6 2.395 
2 *181:6 *940:B1_N 8.63 
3 *181:6 *854:A 1.6 
*END

*D_NET *182 0.00080891
*CONN
*I *854:B I *D sky130_fd_sc_hd__and2_1
*I *853:X O *D sky130_fd_sc_hd__or2_1
*CAP
1 *854:B 0.000236808
2 *853:X 0.000236808
3 *854:B *852:B 4.89295e-05
4 *854:B *857:A2 0
5 *854:B *940:A2 2.92538e-05
6 *854:B *186:10 7.23602e-05
7 *854:B *336:38 2.64607e-05
8 *940:B1_N *854:B 0.00015829
*RES
1 *853:X *854:B 11.775 
*END

*D_NET *183 0.00179919
*CONN
*I *940:A2 I *D sky130_fd_sc_hd__a21bo_1
*I *855:C1 I *D sky130_fd_sc_hd__o211a_1
*I *939:B I *D sky130_fd_sc_hd__xor2_1
*I *854:X O *D sky130_fd_sc_hd__and2_1
*CAP
1 *940:A2 0.000126418
2 *855:C1 0.000106163
3 *939:B 0
4 *854:X 0
5 *183:8 0.000200746
6 *183:4 0.000221001
7 *855:C1 *992:D 0.000117825
8 *855:C1 *336:10 6.10014e-05
9 *855:C1 *336:38 4.13249e-05
10 *940:A2 *186:10 1.22608e-05
11 *183:8 *852:B 4.40028e-05
12 *854:B *940:A2 2.92538e-05
13 *855:A2 *855:C1 0.000122331
14 *855:B1 *940:A2 0.000263857
15 *940:A1 *855:C1 3.74161e-05
16 *940:A1 *940:A2 8.81689e-05
17 *940:A1 *183:8 4.66108e-05
18 *940:B1_N *940:A2 0.000121023
19 *168:14 *855:C1 0.000159791
*RES
1 *854:X *183:4 1.6 
2 *183:4 *183:8 1.755 
3 *183:8 *939:B 1.6 
4 *183:8 *855:C1 9.23 
5 *183:4 *940:A2 9.26 
*END

*D_NET *184 0.00125235
*CONN
*I *858:A I *D sky130_fd_sc_hd__or2_1
*I *869:A1 I *D sky130_fd_sc_hd__o211ai_1
*I *855:X O *D sky130_fd_sc_hd__o211a_1
*CAP
1 *858:A 0
2 *869:A1 4.81195e-05
3 *855:X 0.000253203
4 *184:14 0.000301323
5 *869:A1 *858:B 2.86975e-05
6 *869:A1 *187:12 2.58336e-05
7 *869:A1 *198:18 0.000123955
8 *184:14 *858:B 0
9 *184:14 *186:10 0
10 *184:14 *187:12 4.60061e-05
11 *184:14 *198:18 7.06072e-05
12 *184:14 *332:43 0.000305761
13 *940:A1 *184:14 4.88478e-05
*RES
1 *855:X *184:14 10.865 
2 *184:14 *869:A1 3.46 
3 *184:14 *858:A 1.6 
*END

*D_NET *185 0.00181648
*CONN
*I *857:B1 I *D sky130_fd_sc_hd__a31o_1
*I *856:Y O *D sky130_fd_sc_hd__o221ai_1
*CAP
1 *857:B1 0.000533905
2 *856:Y 0.000533905
3 *857:B1 *852:A 0.000161623
4 *857:B1 *853:A 2.30797e-05
5 *857:B1 *941:B 8.09021e-06
6 *857:B1 *942:A2 0
7 *857:B1 *997:CLK 0
8 *857:B1 *253:12 0
9 *857:B1 *302:32 4.2857e-05
10 *857:B1 *339:8 3.26889e-05
11 *857:B1 *368:65 3.01898e-05
12 *842:A *857:B1 3.95347e-05
13 *851:B *857:B1 4.71081e-05
14 *856:B2 *857:B1 0.000136313
15 *856:C1 *857:B1 6.69608e-06
16 *169:23 *857:B1 5.65627e-05
17 *171:10 *857:B1 0.000114492
18 *180:14 *857:B1 4.94326e-05
*RES
1 *856:Y *857:B1 17.5275 
*END

*D_NET *186 0.00112239
*CONN
*I *858:B I *D sky130_fd_sc_hd__or2_1
*I *869:A2 I *D sky130_fd_sc_hd__o211ai_1
*I *857:X O *D sky130_fd_sc_hd__a31o_1
*CAP
1 *858:B 9.4788e-05
2 *869:A2 0
3 *857:X 0.000311145
4 *186:10 0.000405933
5 *858:B *869:C1 3.09233e-05
6 *858:B *187:12 8.52883e-05
7 *858:B *198:18 1.31297e-05
8 *186:10 *857:A2 0
9 *854:B *186:10 7.23602e-05
10 *855:B1 *186:10 3.78263e-05
11 *869:A1 *858:B 2.86975e-05
12 *940:A1 *186:10 3.00381e-05
13 *940:A2 *186:10 1.22608e-05
14 *184:14 *858:B 0
15 *184:14 *186:10 0
*RES
1 *857:X *186:10 8.34 
2 *186:10 *869:A2 3.6 
3 *186:10 *858:B 5.52 
*END

*D_NET *187 0.00160965
*CONN
*I *930:A I *D sky130_fd_sc_hd__nand2_1
*I *931:A I *D sky130_fd_sc_hd__xor2_1
*I *858:X O *D sky130_fd_sc_hd__or2_1
*CAP
1 *930:A 0.000189592
2 *931:A 0
3 *858:X 0.000285323
4 *187:12 0.000474915
5 *930:A *197:19 2.42236e-05
6 *930:A *247:14 0.000187733
7 *930:A *341:12 0.000122202
8 *187:12 *869:C1 0.000137837
9 *187:12 *932:A2 2.30184e-05
10 *187:12 *198:18 7.67415e-06
11 *858:B *187:12 8.52883e-05
12 *869:A1 *187:12 2.58336e-05
13 *184:14 *187:12 4.60061e-05
*RES
1 *858:X *187:12 9.845 
2 *187:12 *931:A 1.6 
3 *187:12 *930:A 9.59 
*END

*D_NET *188 0.0021068
*CONN
*I *933:A I *D sky130_fd_sc_hd__and3_1
*I *865:A_N I *D sky130_fd_sc_hd__and2b_1
*I *932:B1 I *D sky130_fd_sc_hd__a21oi_1
*I *859:Y O *D sky130_fd_sc_hd__xnor2_1
*CAP
1 *933:A 9.93549e-05
2 *865:A_N 0
3 *932:B1 7.23976e-05
4 *859:Y 0.000265765
5 *188:23 0.000130649
6 *188:8 0.000369457
7 *932:B1 *869:B1 0
8 *932:B1 *932:A1 9.30717e-05
9 *932:B1 *934:A 2.75229e-05
10 *932:B1 *935:B1 0.000114492
11 *933:A *869:B1 7.49327e-05
12 *933:A *933:B 8.40325e-05
13 *933:A *933:C 9.36199e-05
14 *933:A *934:B 4.82919e-05
15 *188:8 *859:A 9.80032e-06
16 *188:8 *865:B 2.59926e-05
17 *188:8 *869:B1 0.000122325
18 *188:8 *871:A 2.75229e-05
19 *188:8 *872:A3 4.82919e-05
20 *188:8 *935:A1 5.8825e-05
21 *188:8 *935:B1 0.000198939
22 *188:23 *869:B1 7.3151e-05
23 *188:23 *933:B 1.4399e-05
24 *1056:A *188:8 5.39673e-05
*RES
1 *859:Y *188:8 6.895 
2 *188:8 *932:B1 7.43 
3 *188:8 *188:23 0.795 
4 *188:23 *865:A_N 1.6 
5 *188:23 *933:A 4.465 
*END

*D_NET *189 0.0009722
*CONN
*I *937:A1 I *D sky130_fd_sc_hd__a21bo_1
*I *862:A I *D sky130_fd_sc_hd__nand2_1
*I *860:X O *D sky130_fd_sc_hd__or2_1
*CAP
1 *937:A1 2.56208e-05
2 *862:A 7.87576e-05
3 *860:X 9.83124e-05
4 *189:10 0.000202691
5 *862:A *862:B 0.000206123
6 *862:A *864:B 8.18011e-05
7 *937:A1 *343:16 1.83847e-05
8 *189:10 *861:A 4.82919e-05
9 *189:10 *861:B 1.34503e-05
10 *189:10 *862:B 4.44927e-05
11 *189:10 *864:B 1.82563e-05
12 *189:10 *873:C1 1.1561e-05
13 *189:10 *938:B 5.20968e-05
14 *189:10 *190:8 7.23602e-05
*RES
1 *860:X *189:10 6.03 
2 *189:10 *862:A 6 
3 *189:10 *937:A1 4.05 
*END

*D_NET *190 0.00105956
*CONN
*I *937:B1_N I *D sky130_fd_sc_hd__a21bo_1
*I *862:B I *D sky130_fd_sc_hd__nand2_1
*I *861:Y O *D sky130_fd_sc_hd__nand2_1
*CAP
1 *937:B1_N 7.70603e-05
2 *862:B 0.000101145
3 *861:Y 2.19866e-05
4 *190:8 0.000200192
5 *862:B *873:C1 0.000252977
6 *862:B *191:8 1.08758e-05
7 *937:B1_N *343:16 8.51589e-06
8 *190:8 *873:C1 6.38291e-05
9 *862:A *862:B 0.000206123
10 *189:10 *862:B 4.44927e-05
11 *189:10 *190:8 7.23602e-05
*RES
1 *861:Y *190:8 4.47 
2 *190:8 *862:B 6.96 
3 *190:8 *937:B1_N 4.395 
*END

*D_NET *191 0.000865704
*CONN
*I *936:A I *D sky130_fd_sc_hd__xnor2_1
*I *864:A I *D sky130_fd_sc_hd__nor2_1
*I *862:Y O *D sky130_fd_sc_hd__nand2_1
*CAP
1 *936:A 0.00025467
2 *864:A 1.77753e-05
3 *862:Y 7.46399e-05
4 *191:8 0.000347085
5 *936:A *864:B 0
6 *936:A *250:12 0.000160658
7 *862:B *191:8 1.08758e-05
*RES
1 *862:Y *191:8 2.755 
2 *191:8 *864:A 1.96 
3 *191:8 *936:A 9.92 
*END

*D_NET *192 0.00153717
*CONN
*I *938:A I *D sky130_fd_sc_hd__xnor2_1
*I *864:B I *D sky130_fd_sc_hd__nor2_1
*I *863:Y O *D sky130_fd_sc_hd__xnor2_1
*CAP
1 *938:A 4.63412e-05
2 *864:B 0.000265968
3 *863:Y 0.00017042
4 *192:10 0.000482729
5 *864:B *873:C1 0
6 *864:B *938:B 0.000296081
7 *864:B *250:12 7.1635e-05
8 *864:B *310:14 0
9 *938:A *310:14 3.03684e-05
10 *192:10 *863:A 4.35348e-05
11 *192:10 *870:A1 3.00381e-05
12 *192:10 *873:C1 0
13 *192:10 *310:14 0
14 *192:10 *344:16 0
15 *862:A *864:B 8.18011e-05
16 *936:A *864:B 0
17 *189:10 *864:B 1.82563e-05
*RES
1 *863:Y *192:10 6.12 
2 *192:10 *864:B 10.08 
3 *192:10 *938:A 4.395 
*END

*D_NET *193 0.00146543
*CONN
*I *865:B I *D sky130_fd_sc_hd__and2b_1
*I *871:C I *D sky130_fd_sc_hd__and3_1
*I *864:Y O *D sky130_fd_sc_hd__nor2_1
*CAP
1 *865:B 0.000134729
2 *871:C 8.56328e-05
3 *864:Y 0.000218409
4 *193:8 0.00043877
5 *865:B *935:A1 8.49205e-05
6 *865:B *935:B1 9.52646e-05
7 *865:B *250:12 8.65905e-05
8 *871:C *871:A 7.63204e-05
9 *871:C *872:B1 2.23407e-05
10 *871:C *935:A2 0.000118586
11 *871:C *342:16 1.54061e-06
12 *193:8 *872:B1 7.63282e-05
13 *193:8 *873:C1 0
14 *193:8 *1064:A 0
15 *193:8 *250:12 0
16 *1055:A *193:8 0
17 *188:8 *865:B 2.59926e-05
*RES
1 *864:Y *193:8 6.765 
2 *193:8 *871:C 5.655 
3 *193:8 *865:B 6.465 
*END

*D_NET *194 0.00281415
*CONN
*I *869:B1 I *D sky130_fd_sc_hd__o211ai_1
*I *872:A3 I *D sky130_fd_sc_hd__a31o_1
*I *865:X O *D sky130_fd_sc_hd__and2b_1
*CAP
1 *869:B1 0.000448712
2 *872:A3 0.000471759
3 *865:X 0
4 *194:4 0.000920471
5 *869:B1 *869:C1 4.89295e-05
6 *869:B1 *932:A1 2.66935e-05
7 *869:B1 *932:A2 0.000162972
8 *869:B1 *934:B 0.000116158
9 *869:B1 *935:B1 0
10 *872:A3 *872:B1 0
11 *872:A3 *932:A1 0
12 *872:A3 *935:B1 1.7396e-05
13 *872:A3 *1064:A 1.61831e-05
14 *872:A3 *195:8 0
15 *872:A3 *250:12 9.86689e-05
16 *872:A3 *341:27 0.000167502
17 *932:B1 *869:B1 0
18 *933:A *869:B1 7.49327e-05
19 *188:8 *869:B1 0.000122325
20 *188:8 *872:A3 4.82919e-05
21 *188:23 *869:B1 7.3151e-05
*RES
1 *865:X *194:4 1.6 
2 *194:4 *872:A3 12.95 
3 *194:4 *869:B1 13.31 
*END

*D_NET *195 0.00122185
*CONN
*I *868:A I *D sky130_fd_sc_hd__and2_1
*I *933:B I *D sky130_fd_sc_hd__and3_1
*I *932:A1 I *D sky130_fd_sc_hd__a21oi_1
*I *866:Y O *D sky130_fd_sc_hd__nand2_1
*CAP
1 *868:A 9.54288e-05
2 *933:B 0.000193642
3 *932:A1 0.000104847
4 *866:Y 0
5 *195:8 0.000357135
6 *195:4 0.000154076
7 *868:A *867:A 3.23663e-05
8 *868:A *373:21 5.53774e-05
9 *932:A1 *935:B1 1.07797e-05
10 *869:B1 *932:A1 2.66935e-05
11 *872:A3 *932:A1 0
12 *872:A3 *195:8 0
13 *932:B1 *932:A1 9.30717e-05
14 *933:A *933:B 8.40325e-05
15 *188:23 *933:B 1.4399e-05
*RES
1 *866:Y *195:4 1.6 
2 *195:4 *195:8 2.87 
3 *195:8 *932:A1 5.745 
4 *195:8 *933:B 6.12 
5 *195:4 *868:A 3.46 
*END

*D_NET *196 0.000241085
*CONN
*I *868:B I *D sky130_fd_sc_hd__and2_1
*I *867:X O *D sky130_fd_sc_hd__or2_1
*CAP
1 *868:B 3.27929e-05
2 *867:X 3.27929e-05
3 *868:B *867:A 0.000126054
4 *868:B *197:6 4.94457e-05
*RES
1 *867:X *868:B 4.34 
*END

*D_NET *197 0.00132436
*CONN
*I *931:B I *D sky130_fd_sc_hd__xor2_1
*I *869:C1 I *D sky130_fd_sc_hd__o211ai_1
*I *930:B I *D sky130_fd_sc_hd__nand2_1
*I *868:X O *D sky130_fd_sc_hd__and2_1
*CAP
1 *931:B 0
2 *869:C1 0.00012315
3 *930:B 2.09808e-05
4 *868:X 0.00010077
5 *197:19 0.000229019
6 *197:6 0.00022762
7 *869:C1 *934:B 0
8 *869:C1 *198:18 7.00889e-06
9 *869:C1 *247:14 7.47284e-05
10 *197:6 *867:A 4.40028e-05
11 *197:6 *341:12 2.86975e-05
12 *197:6 *341:23 2.58336e-05
13 *197:19 *247:14 0.000124344
14 *197:19 *341:12 2.68464e-05
15 *858:B *869:C1 3.09233e-05
16 *868:B *197:6 4.94457e-05
17 *869:B1 *869:C1 4.89295e-05
18 *930:A *197:19 2.42236e-05
19 *187:12 *869:C1 0.000137837
*RES
1 *868:X *197:6 3.775 
2 *197:6 *930:B 1.96 
3 *197:6 *197:19 4.34 
4 *197:19 *869:C1 6.54 
5 *197:19 *931:B 3.6 
*END

*D_NET *198 0.00446537
*CONN
*I *889:A1 I *D sky130_fd_sc_hd__a211o_1
*I *874:A I *D sky130_fd_sc_hd__nand2_1
*I *869:Y O *D sky130_fd_sc_hd__o211ai_1
*CAP
1 *889:A1 0.000245443
2 *874:A 0.000159058
3 *869:Y 0.000881147
4 *198:18 0.00128565
5 *874:A *923:A 7.62018e-05
6 *874:A *923:B 2.10152e-05
7 *874:A *1000:CLK 8.49205e-05
8 *874:A *346:14 8.12896e-06
9 *889:A1 *888:A 0.000129497
10 *889:A1 *889:B1 4.1133e-05
11 *889:A1 *923:B 0.000148477
12 *889:A1 *304:12 5.12431e-05
13 *889:A1 *304:14 1.52184e-05
14 *889:A1 *370:32 0
15 *198:18 *757:A 2.26364e-05
16 *198:18 *998:CLK 0
17 *198:18 *1000:CLK 4.77757e-05
18 *198:18 *1000:D 6.60042e-05
19 *198:18 *247:14 0
20 *198:18 *304:14 0
21 *198:18 *332:43 0.000646748
22 *198:18 *341:12 5.79482e-05
23 *198:18 *346:14 9.76407e-06
24 *198:18 *370:21 6.87329e-05
25 *198:18 *370:32 0.000176254
26 *858:B *198:18 1.31297e-05
27 *869:A1 *198:18 0.000123955
28 *869:C1 *198:18 7.00889e-06
29 *998:RESET_B *198:18 0
30 *184:14 *198:18 7.06072e-05
31 *187:12 *198:18 7.67415e-06
*RES
1 *869:Y *198:18 24.545 
2 *198:18 *874:A 4.48 
3 *198:18 *889:A1 9.5728 
*END

*D_NET *199 0.000162663
*CONN
*I *873:B1 I *D sky130_fd_sc_hd__a211oi_1
*I *870:X O *D sky130_fd_sc_hd__o211a_1
*CAP
1 *873:B1 2.40502e-05
2 *870:X 2.40502e-05
3 *873:B1 *873:C1 7.4027e-05
4 *873:B1 *308:14 4.05358e-05
*RES
1 *870:X *873:B1 8.07 
*END

*D_NET *200 0.000706163
*CONN
*I *872:B1 I *D sky130_fd_sc_hd__a31o_1
*I *871:X O *D sky130_fd_sc_hd__and3_1
*CAP
1 *872:B1 0.000165107
2 *871:X 0.000165107
3 *872:B1 *935:A2 0.000117832
4 *872:B1 *935:B1 0
5 *872:B1 *250:12 6.28765e-05
6 *872:B1 *341:27 4.82863e-05
7 *872:B1 *373:21 4.82863e-05
8 *871:C *872:B1 2.23407e-05
9 *872:A3 *872:B1 0
10 *193:8 *872:B1 7.63282e-05
*RES
1 *871:X *872:B1 11.07 
*END

*D_NET *201 0.00174803
*CONN
*I *873:C1 I *D sky130_fd_sc_hd__a211oi_1
*I *872:X O *D sky130_fd_sc_hd__a31o_1
*CAP
1 *873:C1 0.000626829
2 *872:X 0.000626829
3 *873:C1 *870:B1 0
4 *873:C1 *938:B 0
5 *873:C1 *1064:A 4.91189e-05
6 *873:C1 *250:12 0
7 *873:C1 *307:16 0
8 *873:C1 *308:14 4.2857e-05
9 *873:C1 *343:22 0
10 *873:C1 *343:33 0
11 *873:C1 *344:16 0
12 acc[18] *873:C1 0
13 *862:B *873:C1 0.000252977
14 *864:B *873:C1 0
15 *873:B1 *873:C1 7.4027e-05
16 *189:10 *873:C1 1.1561e-05
17 *190:8 *873:C1 6.38291e-05
18 *192:10 *873:C1 0
19 *193:8 *873:C1 0
*RES
1 *872:X *873:C1 18.78 
*END

*D_NET *202 0.00218435
*CONN
*I *889:A2 I *D sky130_fd_sc_hd__a211o_1
*I *874:B I *D sky130_fd_sc_hd__nand2_1
*I *873:Y O *D sky130_fd_sc_hd__a211oi_1
*CAP
1 *889:A2 0.000131385
2 *874:B 0.000105951
3 *873:Y 0.000488336
4 *202:6 0.000725672
5 *874:B *887:A 0
6 *874:B *889:B1 0
7 *874:B *923:A 4.9968e-05
8 *874:B *215:10 0.000114492
9 *874:B *304:12 0
10 *874:B *304:14 0
11 *874:B *310:14 0
12 *889:A2 *888:B 5.88283e-05
13 *889:A2 *889:B1 4.0486e-05
14 *889:A2 *924:B1_N 4.77757e-05
15 *202:6 *887:A 2.75145e-05
16 *202:6 *888:B 3.79854e-05
17 *202:6 *924:B1_N 4.66108e-05
18 *202:6 *1067:A 7.22354e-05
19 *202:6 *1069:A 0.000140511
20 *202:6 *216:6 7.60965e-05
21 *202:6 *344:33 2.05056e-05
*RES
1 *873:Y *202:6 9.64 
2 *202:6 *874:B 7.49 
3 *202:6 *889:A2 4.045 
*END

*D_NET *203 0.00102295
*CONN
*I *923:A I *D sky130_fd_sc_hd__xnor2_1
*I *924:A1 I *D sky130_fd_sc_hd__a21bo_1
*I *874:Y O *D sky130_fd_sc_hd__nand2_1
*CAP
1 *923:A 0.000102434
2 *924:A1 0.000183686
3 *874:Y 0
4 *203:4 0.00028612
5 *923:A *346:14 0.00011378
6 *924:A1 *887:A 0
7 *924:A1 *215:10 0.000149475
8 *924:A1 *346:14 6.12852e-05
9 *874:A *923:A 7.62018e-05
10 *874:B *923:A 4.9968e-05
*RES
1 *874:Y *203:4 1.6 
2 *203:4 *924:A1 8.465 
3 *203:4 *923:A 8.06 
*END

*D_NET *204 0.00156325
*CONN
*I *926:B1_N I *D sky130_fd_sc_hd__a21bo_1
*I *892:A I *D sky130_fd_sc_hd__or3_1
*I *877:A I *D sky130_fd_sc_hd__nand2_1
*I *875:Y O *D sky130_fd_sc_hd__nand2_1
*CAP
1 *926:B1_N 0
2 *892:A 9.35473e-05
3 *877:A 2.08101e-05
4 *875:Y 0.000190135
5 *204:19 0.000367086
6 *204:6 0.000484484
7 *877:A *875:A 0
8 *892:A *884:C 0.000115054
9 *892:A *885:A 1.73877e-05
10 *892:A *892:B 6.76978e-05
11 *892:A *1001:CLK 1.91597e-05
12 *892:A *209:17 0
13 *892:A *212:30 3.68999e-05
14 *204:6 *875:A 2.16917e-05
15 *204:6 *877:B 8.65961e-05
16 *204:6 *311:8 5.83121e-06
17 *204:19 *885:A 3.68682e-05
18 *204:19 *209:17 0
*RES
1 *875:Y *204:6 4.465 
2 *204:6 *877:A 1.96 
3 *204:6 *204:19 5.99 
4 *204:19 *892:A 5.955 
5 *204:19 *926:B1_N 3.6 
*END

*D_NET *205 0.00141792
*CONN
*I *877:B I *D sky130_fd_sc_hd__nand2_1
*I *926:A1 I *D sky130_fd_sc_hd__a21bo_1
*I *876:X O *D sky130_fd_sc_hd__or2_1
*CAP
1 *877:B 0.000181785
2 *926:A1 0.000270817
3 *876:X 0.000115272
4 *205:10 0.000567874
5 *877:B *876:A 0
6 *877:B *1001:D 5.4003e-05
7 *877:B *206:10 0
8 *877:B *245:10 0
9 *926:A1 *892:B 1.08758e-05
10 *926:A1 *1001:CLK 6.0011e-05
11 *205:10 *876:A 0
12 *205:10 *1001:D 7.06865e-05
13 *204:6 *877:B 8.65961e-05
*RES
1 *876:X *205:10 5.265 
2 *205:10 *926:A1 7.29 
3 *205:10 *877:B 7.05 
*END

*D_NET *206 0.000997213
*CONN
*I *884:A I *D sky130_fd_sc_hd__nor3_1
*I *925:A I *D sky130_fd_sc_hd__xnor2_1
*I *877:Y O *D sky130_fd_sc_hd__nand2_1
*CAP
1 *884:A 0.000129024
2 *925:A 0
3 *877:Y 0.000192325
4 *206:10 0.000321349
5 *884:A *884:B 7.60965e-05
6 *884:A *925:B 8.65905e-05
7 *206:10 *876:A 0
8 *206:10 *926:A2 5.93588e-05
9 *206:10 *1001:D 4.61658e-05
10 *206:10 *209:17 0
11 *206:10 *244:8 1.22762e-05
12 *206:10 *245:10 7.4027e-05
13 *877:B *206:10 0
*RES
1 *877:Y *206:10 9.275 
2 *206:10 *925:A 1.6 
3 *206:10 *884:A 4.12 
*END

*D_NET *207 0.000615653
*CONN
*I *928:A1 I *D sky130_fd_sc_hd__a21bo_1
*I *880:A I *D sky130_fd_sc_hd__nand2_1
*I *878:X O *D sky130_fd_sc_hd__or2_1
*CAP
1 *928:A1 0.000129033
2 *880:A 6.30634e-05
3 *878:X 0
4 *207:4 0.000192097
5 *880:A *928:A2 0
6 *880:A *929:B 6.20952e-05
7 *880:A *208:12 5.4256e-05
8 *928:A1 *1002:CLK 0.000115108
*RES
1 *878:X *207:4 1.6 
2 *207:4 *880:A 7.235 
3 *207:4 *928:A1 3.79 
*END

*D_NET *208 0.00178839
*CONN
*I *891:A_N I *D sky130_fd_sc_hd__nand2b_1
*I *928:B1_N I *D sky130_fd_sc_hd__a21bo_1
*I *880:B I *D sky130_fd_sc_hd__nand2_1
*I *879:Y O *D sky130_fd_sc_hd__nand2_1
*CAP
1 *891:A_N 5.53073e-05
2 *928:B1_N 6.0197e-05
3 *880:B 0
4 *879:Y 0.000121821
5 *208:21 0.000329168
6 *208:12 0.000335485
7 *928:B1_N *1003:D 3.79351e-05
8 *928:B1_N *212:16 6.95473e-06
9 *208:12 *878:A 0.000140912
10 *208:12 *878:B 0.000140912
11 *208:12 *927:A 4.99619e-05
12 *208:12 *928:A2 2.0514e-05
13 *208:12 *1002:D 0
14 *208:12 *245:10 5.39961e-05
15 *208:21 *927:A 2.05056e-05
16 *208:21 *928:A2 0.000236355
17 *208:21 *929:A 0.000124105
18 *880:A *208:12 5.4256e-05
*RES
1 *879:Y *208:12 9.47 
2 *208:12 *880:B 1.6 
3 *208:12 *208:21 4.26 
4 *208:21 *928:B1_N 6.725 
5 *208:21 *891:A_N 2.41 
*END

*D_NET *209 0.00270036
*CONN
*I *892:B I *D sky130_fd_sc_hd__or3_1
*I *884:B I *D sky130_fd_sc_hd__nor3_1
*I *927:A I *D sky130_fd_sc_hd__xnor2_1
*I *880:Y O *D sky130_fd_sc_hd__nand2_1
*CAP
1 *892:B 0.000200556
2 *884:B 0.000159482
3 *927:A 0.000247791
4 *880:Y 0
5 *209:17 0.0006019
6 *209:4 0.000489653
7 *884:B *884:C 5.83121e-06
8 *884:B *890:B 1.34594e-05
9 *884:B *926:A2 9.71067e-05
10 *892:B *1001:CLK 4.7672e-05
11 *927:A *927:B 0.000234167
12 *927:A *928:A2 9.80943e-06
13 *927:A *1002:D 0.000201503
14 *209:17 *884:C 0
15 *209:17 *885:A 0
16 *209:17 *926:A2 4.38051e-05
17 *209:17 *929:B 2.97004e-06
18 *209:17 *212:30 0
19 *209:17 *245:10 0.000119521
20 *884:A *884:B 7.60965e-05
21 *892:A *892:B 6.76978e-05
22 *892:A *209:17 0
23 *926:A1 *892:B 1.08758e-05
24 *204:19 *209:17 0
25 *206:10 *209:17 0
26 *208:12 *927:A 4.99619e-05
27 *208:21 *927:A 2.05056e-05
*RES
1 *880:Y *209:4 1.6 
2 *209:4 *927:A 7.585 
3 *209:4 *209:17 6.695 
4 *209:17 *884:B 6.555 
5 *209:17 *892:B 6.12 
*END

*D_NET *210 0.00293947
*CONN
*I *893:A I *D sky130_fd_sc_hd__and4_1
*I *883:A I *D sky130_fd_sc_hd__nand2_1
*I *881:Y O *D sky130_fd_sc_hd__nand2_1
*CAP
1 *893:A 0.000374688
2 *883:A 8.94663e-05
3 *881:Y 0.000130623
4 *210:6 0.000594777
5 *883:A *883:B 5.58286e-05
6 *883:A *370:134 0.000235335
7 *893:A *893:C 0.000122801
8 *893:A *893:D 9.00258e-05
9 *893:A *222:12 2.97802e-05
10 *893:A *304:74 0.000349827
11 *893:A *370:32 0.000600197
12 *893:A *370:134 4.44927e-05
13 *210:6 *882:A 8.65961e-05
14 *210:6 *313:8 1.61831e-05
15 *210:6 *370:36 5.05521e-05
16 *210:6 *370:55 2.16833e-05
17 *210:6 *370:134 4.66108e-05
*RES
1 *881:Y *210:6 4.12 
2 *210:6 *883:A 4.135 
3 *210:6 *893:A 16.25 
*END

*D_NET *211 0.00124831
*CONN
*I *883:B I *D sky130_fd_sc_hd__nand2_1
*I *891:B I *D sky130_fd_sc_hd__nand2b_1
*I *882:X O *D sky130_fd_sc_hd__or2_1
*CAP
1 *883:B 0.000311245
2 *891:B 4.2252e-05
3 *882:X 0.000207675
4 *211:6 0.000561172
5 *883:B *212:16 7.01359e-05
6 *883:A *883:B 5.58286e-05
*RES
1 *882:X *211:6 4.465 
2 *211:6 *891:B 2.1625 
3 *211:6 *883:B 10.79 
*END

*D_NET *212 0.00311284
*CONN
*I *929:A I *D sky130_fd_sc_hd__xnor2_1
*I *892:C I *D sky130_fd_sc_hd__or3_1
*I *884:C I *D sky130_fd_sc_hd__nor3_1
*I *883:Y O *D sky130_fd_sc_hd__nand2_1
*CAP
1 *929:A 5.11602e-05
2 *892:C 0
3 *884:C 0.000167752
4 *883:Y 0.000399269
5 *212:30 0.000515408
6 *212:16 0.000798084
7 *884:C *885:A 0.000117086
8 *884:C *890:B 4.94457e-05
9 *884:C *926:A2 0
10 *884:C *1001:CLK 8.41307e-05
11 *884:C *304:51 0
12 *212:16 *878:A 0
13 *212:16 *928:A2 6.28843e-05
14 *212:16 *929:B 0
15 *212:16 *1002:CLK 0.000115531
16 *212:16 *1003:D 9.35189e-05
17 *212:16 *304:76 7.15651e-05
18 *212:30 *885:A 8.22567e-05
19 *212:30 *929:B 0
20 *212:30 *1001:CLK 8.41307e-05
21 *212:30 *304:51 8.80293e-06
22 *212:30 *304:68 5.28359e-05
23 *883:B *212:16 7.01359e-05
24 *884:B *884:C 5.83121e-06
25 *892:A *884:C 0.000115054
26 *892:A *212:30 3.68999e-05
27 *928:B1_N *212:16 6.95473e-06
28 *208:21 *929:A 0.000124105
29 *209:17 *884:C 0
30 *209:17 *212:30 0
*RES
1 *883:Y *212:16 13.99 
2 *212:16 *212:30 8.78 
3 *212:30 *884:C 9.245 
4 *212:30 *892:C 1.6 
5 *212:16 *929:A 4.74 
*END

*D_NET *213 0.000808001
*CONN
*I *885:A I *D sky130_fd_sc_hd__inv_2
*I *884:Y O *D sky130_fd_sc_hd__nor3_1
*CAP
1 *885:A 0.000277201
2 *884:Y 0.000277201
3 *884:C *885:A 0.000117086
4 *892:A *885:A 1.73877e-05
5 *204:19 *885:A 3.68682e-05
6 *209:17 *885:A 0
7 *212:30 *885:A 8.22567e-05
*RES
1 *884:Y *885:A 12.315 
*END

*D_NET *214 0.00197539
*CONN
*I *890:A I *D sky130_fd_sc_hd__or2_1
*I *889:B1 I *D sky130_fd_sc_hd__a211o_1
*I *885:Y O *D sky130_fd_sc_hd__inv_2
*CAP
1 *890:A 0
2 *889:B1 0.000364728
3 *885:Y 0.000279087
4 *214:14 0.000643816
5 *889:B1 *888:B 5.80239e-05
6 *889:B1 *890:B 4.77757e-05
7 *889:B1 *215:21 0
8 *889:B1 *217:8 1.67131e-05
9 *889:B1 *304:10 4.82919e-05
10 *889:B1 *304:12 7.61867e-05
11 *889:B1 *304:51 1.01155e-05
12 *214:14 *893:B 7.31592e-05
13 *214:14 *893:C 7.06865e-05
14 *214:14 *304:10 3.77879e-05
15 *214:14 *304:51 0.000128197
16 *214:14 *304:68 3.92044e-05
17 *874:B *889:B1 0
18 *889:A1 *889:B1 4.1133e-05
19 *889:A2 *889:B1 4.0486e-05
*RES
1 *885:Y *214:14 10.865 
2 *214:14 *889:B1 11.4537 
3 *214:14 *890:A 1.6 
*END

*D_NET *215 0.00273533
*CONN
*I *890:B I *D sky130_fd_sc_hd__or2_1
*I *888:A I *D sky130_fd_sc_hd__nand2_1
*I *924:B1_N I *D sky130_fd_sc_hd__a21bo_1
*I *886:Y O *D sky130_fd_sc_hd__nand2_1
*CAP
1 *890:B 0.000267563
2 *888:A 0.000453832
3 *924:B1_N 2.23552e-05
4 *886:Y 0.00013929
5 *215:21 0.000752177
6 *215:10 0.000192428
7 *888:A *923:B 3.59531e-06
8 *888:A *304:12 2.53191e-06
9 *890:B *244:8 0
10 *924:B1_N *888:B 4.98818e-05
11 *215:10 *887:A 0
12 *215:10 *346:14 0.000203178
13 *215:10 *346:22 4.99619e-05
14 *215:21 *887:A 0
15 *874:B *215:10 0.000114492
16 *884:B *890:B 1.34594e-05
17 *884:C *890:B 4.94457e-05
18 *889:A1 *888:A 0.000129497
19 *889:A2 *924:B1_N 4.77757e-05
20 *889:B1 *890:B 4.77757e-05
21 *889:B1 *215:21 0
22 *924:A1 *215:10 0.000149475
23 *202:6 *924:B1_N 4.66108e-05
*RES
1 *886:Y *215:10 7.41 
2 *215:10 *924:B1_N 4.395 
3 *215:10 *215:21 0.4875 
4 *215:21 *888:A 5.51143 
5 *215:21 *890:B 7.6275 
*END

*D_NET *216 0.00132406
*CONN
*I *888:B I *D sky130_fd_sc_hd__nand2_1
*I *924:A2 I *D sky130_fd_sc_hd__a21bo_1
*I *887:X O *D sky130_fd_sc_hd__or2_1
*CAP
1 *888:B 0.000275937
2 *924:A2 0
3 *887:X 4.67744e-05
4 *216:6 0.000322712
5 *888:B *217:8 5.33107e-05
6 *888:B *218:6 0.000344511
7 *889:A2 *888:B 5.88283e-05
8 *889:B1 *888:B 5.80239e-05
9 *924:B1_N *888:B 4.98818e-05
10 *202:6 *888:B 3.79854e-05
11 *202:6 *216:6 7.60965e-05
*RES
1 *887:X *216:6 2.74 
2 *216:6 *924:A2 1.6 
3 *216:6 *888:B 7.945 
*END

*D_NET *217 0.000899436
*CONN
*I *889:C1 I *D sky130_fd_sc_hd__a211o_1
*I *923:B I *D sky130_fd_sc_hd__xnor2_1
*I *888:Y O *D sky130_fd_sc_hd__nand2_1
*CAP
1 *889:C1 0
2 *923:B 0.000138083
3 *888:Y 5.46738e-05
4 *217:8 0.000192757
5 *923:B *1000:CLK 4.82919e-05
6 *923:B *304:12 0.000176514
7 *923:B *346:14 4.60061e-05
8 *874:A *923:B 2.10152e-05
9 *888:A *923:B 3.59531e-06
10 *888:B *217:8 5.33107e-05
11 *889:A1 *923:B 0.000148477
12 *889:B1 *217:8 1.67131e-05
*RES
1 *888:Y *217:8 2.755 
2 *217:8 *923:B 8.99 
3 *217:8 *889:C1 1.6 
*END

*D_NET *218 0.00286406
*CONN
*I *894:A1 I *D sky130_fd_sc_hd__a21oi_1
*I *914:B I *D sky130_fd_sc_hd__and3_1
*I *895:A1 I *D sky130_fd_sc_hd__a21o_1
*I *889:X O *D sky130_fd_sc_hd__a211o_1
*CAP
1 *894:A1 3.28188e-05
2 *914:B 0.000465214
3 *895:A1 9.36289e-05
4 *889:X 0.000387328
5 *218:10 0.000603984
6 *218:6 0.000465287
7 *894:A1 *1004:CLK 1.61831e-05
8 *895:A1 *304:6 7.14699e-05
9 *895:A1 *304:10 4.66108e-05
10 *914:B *914:C 5.40822e-05
11 *914:B *370:32 0.00014641
12 *218:6 *894:A2 6.58423e-05
13 *218:10 *370:32 7.06865e-05
14 *888:B *218:6 0.000344511
15 *914:A *914:B 0
16 *120:10 *914:B 0
*RES
1 *889:X *218:6 6.535 
2 *218:6 *218:10 2.87 
3 *218:10 *895:A1 4.74 
4 *218:10 *914:B 10.2 
5 *218:6 *894:A1 2.05 
*END

*D_NET *219 0.000326519
*CONN
*I *893:B I *D sky130_fd_sc_hd__and4_1
*I *890:X O *D sky130_fd_sc_hd__or2_1
*CAP
1 *893:B 0.000117317
2 *890:X 0.000117317
3 *893:B *222:12 3.48449e-06
4 *893:B *304:10 1.52418e-05
5 *214:14 *893:B 7.31592e-05
*RES
1 *890:X *893:B 9.285 
*END

*D_NET *220 0.000844703
*CONN
*I *893:C I *D sky130_fd_sc_hd__and4_1
*I *891:Y O *D sky130_fd_sc_hd__nand2b_1
*CAP
1 *893:C 0.000248626
2 *891:Y 0.000248626
3 *893:C *893:D 1.47256e-05
4 *893:C *304:68 0.000139238
5 *893:C *304:74 0
6 *893:A *893:C 0.000122801
7 *214:14 *893:C 7.06865e-05
*RES
1 *891:Y *893:C 11.595 
*END

*D_NET *221 0.000492796
*CONN
*I *893:D I *D sky130_fd_sc_hd__and4_1
*I *892:X O *D sky130_fd_sc_hd__or3_1
*CAP
1 *893:D 0.000180599
2 *892:X 0.000180599
3 *893:D *1001:CLK 2.68464e-05
4 *893:A *893:D 9.00258e-05
5 *893:C *893:D 1.47256e-05
*RES
1 *892:X *893:D 6.44 
*END

*D_NET *222 0.00215382
*CONN
*I *914:C I *D sky130_fd_sc_hd__and3_1
*I *895:A2 I *D sky130_fd_sc_hd__a21o_1
*I *894:A2 I *D sky130_fd_sc_hd__a21oi_1
*I *893:X O *D sky130_fd_sc_hd__and4_1
*CAP
1 *914:C 0.000445073
2 *895:A2 2.15187e-05
3 *894:A2 0.000145818
4 *893:X 0
5 *222:12 0.000307597
6 *222:4 0.000585333
7 *894:A2 *1004:CLK 0.000215195
8 *894:A2 *304:12 0
9 *894:A2 *370:32 1.01155e-05
10 *895:A2 *304:10 4.77719e-05
11 *222:12 *370:32 0.000222204
12 *893:A *222:12 2.97802e-05
13 *893:B *222:12 3.48449e-06
14 *914:B *914:C 5.40822e-05
15 *218:6 *894:A2 6.58423e-05
*RES
1 *893:X *222:4 1.6 
2 *222:4 *222:12 5.465 
3 *222:12 *894:A2 6.63 
4 *222:12 *895:A2 4.05 
5 *222:4 *914:C 6.595 
*END

*D_NET *223 0.0016216
*CONN
*I *915:A I *D sky130_fd_sc_hd__nor2_1
*I *894:Y O *D sky130_fd_sc_hd__a21oi_1
*CAP
1 *915:A 0.000635034
2 *894:Y 0.000635034
3 *915:A *1004:CLK 0.000145184
4 *915:A *1004:D 0.00019302
5 *915:A *370:80 0
6 *894:B1 *915:A 1.33293e-05
7 *914:A *915:A 0
8 *118:25 *915:A 0
*RES
1 *894:Y *915:A 17.085 
*END

*D_NET *224 0.00421843
*CONN
*I *896:A3 I *D sky130_fd_sc_hd__a31oi_1
*I *897:A3 I *D sky130_fd_sc_hd__a311o_1
*I *919:A2 I *D sky130_fd_sc_hd__a21o_1
*I *916:B I *D sky130_fd_sc_hd__nand2_1
*I *895:X O *D sky130_fd_sc_hd__a21o_1
*CAP
1 *896:A3 7.25538e-05
2 *897:A3 0.000267304
3 *919:A2 0
4 *916:B 5.77042e-05
5 *895:X 0.000460127
6 *224:21 0.000409196
7 *224:12 0.000279127
8 *224:8 0.000612211
9 *896:A3 *790:B 9.50342e-06
10 *896:A3 *1073:A 0
11 *896:A3 *314:10 1.71207e-05
12 *896:A3 *351:25 0
13 *897:A3 *1019:A 0
14 *897:A3 *1073:A 0
15 *224:8 *789:A 4.82919e-05
16 *224:8 *790:A 2.16833e-05
17 *224:8 *1015:A 2.66586e-05
18 *224:12 *1073:A 0
19 *224:12 *314:10 0.000163019
20 *791:B *224:8 3.00381e-05
21 *895:B1 *224:8 0.000211748
22 *897:A1 *897:A3 5.99868e-05
23 *897:A2 *897:A3 0.00021881
24 *897:B1 *897:A3 5.23362e-05
25 *897:C1 *897:A3 2.68721e-05
26 *111:12 *897:A3 8.53113e-06
27 *117:18 *897:A3 1.03423e-05
28 *118:17 *224:8 5.5626e-05
29 *118:34 *897:A3 4.99619e-05
30 *118:34 *916:B 0.000120655
31 *118:34 *224:21 0.000390466
32 *120:8 *224:8 0.000538555
*RES
1 *895:X *224:8 13.71 
2 *224:8 *224:12 3.89 
3 *224:12 *916:B 2.74 
4 *224:12 *224:21 3.555 
5 *224:21 *919:A2 1.6 
6 *224:21 *897:A3 11.2025 
7 *224:8 *896:A3 4.665 
*END

*D_NET *225 0.000761433
*CONN
*I *898:B I *D sky130_fd_sc_hd__xnor2_1
*I *896:Y O *D sky130_fd_sc_hd__a31oi_1
*CAP
1 *898:B 0.000118109
2 *896:Y 0.000118109
3 *898:B *1073:A 5.16348e-05
4 *898:B *301:28 7.70758e-05
5 *898:B *351:25 5.0249e-05
6 *896:A1 *898:B 0.000122325
7 *896:B1 *898:B 0.000122325
8 *897:B1 *898:B 1.52945e-05
9 *897:C1 *898:B 8.6311e-05
*RES
1 *896:Y *898:B 10.995 
*END

*D_NET *226 0.00294137
*CONN
*I *911:A1 I *D sky130_fd_sc_hd__a21oi_1
*I *907:A2 I *D sky130_fd_sc_hd__a31o_1
*I *902:B I *D sky130_fd_sc_hd__nand2_1
*I *897:X O *D sky130_fd_sc_hd__a311o_1
*CAP
1 *911:A1 8.14288e-05
2 *907:A2 9.60999e-05
3 *902:B 0
4 *897:X 0.000543872
5 *226:21 0.000690752
6 *226:12 0.0010571
7 *907:A2 *911:B1 9.91076e-05
8 *907:A2 *227:17 8.91594e-05
9 *911:A1 *913:A 3.17194e-05
10 *226:12 *1019:A 4.82863e-05
11 *226:21 *913:A 4.30929e-05
12 *226:21 *913:B 4.66742e-05
13 *774:A *226:12 5.26479e-05
14 *774:A *226:21 1.31519e-05
15 *101:18 *226:12 4.82863e-05
*RES
1 *897:X *226:12 8.395 
2 *226:12 *902:B 1.6 
3 *226:12 *226:21 6.15 
4 *226:21 *907:A2 7.535 
5 *226:21 *911:A1 2.92 
*END

*D_NET *227 0.00230873
*CONN
*I *910:A1 I *D sky130_fd_sc_hd__a21o_1
*I *907:B1 I *D sky130_fd_sc_hd__a31o_1
*I *901:A_N I *D sky130_fd_sc_hd__nand2b_1
*I *899:Y O *D sky130_fd_sc_hd__nor2_1
*CAP
1 *910:A1 0.000202007
2 *907:B1 0
3 *901:A_N 0.000201446
4 *899:Y 0
5 *227:17 0.000445463
6 *227:4 0.000444902
7 *901:A_N *900:A 0.00012657
8 *901:A_N *228:8 0.000106633
9 *910:A1 *908:B 1.88904e-05
10 *910:A1 *911:B1 4.91927e-05
11 *910:A1 *1077:A 0.000173163
12 *910:A1 *231:12 4.82919e-05
13 *910:A1 *232:6 1.56428e-05
14 *227:17 *769:A 7.16094e-05
15 *227:17 *911:A2 0.000139231
16 *227:17 *911:B1 5.03144e-05
17 *227:17 *1011:D 3.39151e-05
18 *227:17 *1077:A 9.22953e-05
19 *227:17 *228:25 0
20 *227:17 *305:77 0
21 *227:17 *306:8 0
22 *907:A2 *227:17 8.91594e-05
*RES
1 *899:Y *227:4 1.6 
2 *227:4 *901:A_N 5.425 
3 *227:4 *227:17 7.715 
4 *227:17 *907:B1 3.6 
5 *227:17 *910:A1 7.44 
*END

*D_NET *228 0.00202904
*CONN
*I *907:A3 I *D sky130_fd_sc_hd__a31o_1
*I *909:A1 I *D sky130_fd_sc_hd__o211a_1
*I *901:B I *D sky130_fd_sc_hd__nand2b_1
*I *900:Y O *D sky130_fd_sc_hd__nand2_1
*CAP
1 *907:A3 7.76914e-05
2 *909:A1 1.77753e-05
3 *901:B 4.56794e-06
4 *900:Y 0.000175029
5 *228:25 0.000447344
6 *228:8 0.000531475
7 *907:A3 *911:A2 6.16148e-05
8 *907:A3 *913:B 4.66108e-05
9 *228:8 *900:A 3.00381e-05
10 *228:25 *911:A2 0
11 *228:25 *305:45 0
12 *228:25 *305:73 5.16418e-05
13 *228:25 *305:77 0
14 *228:25 *355:12 0.00015829
15 *901:A_N *228:8 0.000106633
16 *907:A1 *907:A3 0.000158965
17 *909:C1 *907:A3 3.09088e-05
18 *909:C1 *909:A1 0
19 *909:C1 *228:25 2.11084e-05
20 *101:18 *228:25 0
21 *101:40 *228:25 0.000109346
22 *227:17 *228:25 0
*RES
1 *900:Y *228:8 4.825 
2 *228:8 *901:B 1.70875 
3 *228:8 *228:25 10.78 
4 *228:25 *909:A1 1.96 
5 *228:25 *907:A3 3.775 
*END

*D_NET *229 0.000954815
*CONN
*I *903:A I *D sky130_fd_sc_hd__xnor2_1
*I *901:Y O *D sky130_fd_sc_hd__nand2b_1
*CAP
1 *903:A 0.000241123
2 *901:Y 0.000241123
3 *903:A *767:A 0.000201503
4 *903:A *903:B 6.23399e-05
5 *903:A *1009:D 0.000156622
6 *903:A *305:45 5.21046e-05
*RES
1 *901:Y *903:A 12.585 
*END

*D_NET *230 0.00140828
*CONN
*I *903:B I *D sky130_fd_sc_hd__xnor2_1
*I *902:Y O *D sky130_fd_sc_hd__nand2_1
*CAP
1 *903:B 0.000408623
2 *902:Y 0.000408623
3 *903:B *767:A 0.00011686
4 *903:B *980:CLK 2.9664e-05
5 *903:B *1009:D 7.93632e-05
6 *903:B *305:45 0.000112373
7 *903:B *355:12 0
8 *774:B *903:B 7.06865e-05
9 *903:A *903:B 6.23399e-05
10 *101:18 *903:B 9.47454e-05
11 *103:12 *903:B 2.50049e-05
*RES
1 *902:Y *903:B 15.975 
*END

*D_NET *231 0.00124279
*CONN
*I *910:B1 I *D sky130_fd_sc_hd__a21o_1
*I *906:A_N I *D sky130_fd_sc_hd__and2b_1
*I *909:A2 I *D sky130_fd_sc_hd__o211a_1
*I *904:Y O *D sky130_fd_sc_hd__nor2_1
*CAP
1 *910:B1 1.96346e-05
2 *906:A_N 1.41956e-05
3 *909:A2 0.000177043
4 *904:Y 9.13406e-05
5 *231:12 0.000294047
6 *231:6 0.000213784
7 *909:A2 *909:B1 0.00013621
8 *909:A2 *232:10 1.5186e-05
9 *910:B1 *910:A2 4.00541e-06
10 *231:6 *904:B 1.83756e-05
11 *231:6 *911:B1 7.49327e-05
12 *231:6 *232:6 4.41363e-05
13 *231:12 *911:B1 4.82919e-05
14 *231:12 *232:6 1.55249e-05
15 *231:12 *232:10 5.35969e-06
16 *909:C1 *909:A2 1.82476e-05
17 *910:A1 *231:12 4.82919e-05
18 *101:40 *909:A2 4.18603e-06
*RES
1 *904:Y *231:6 3.43 
2 *231:6 *231:12 1.95 
3 *231:12 *909:A2 8.465 
4 *231:12 *906:A_N 1.96 
5 *231:6 *910:B1 1.96 
*END

*D_NET *232 0.00177842
*CONN
*I *910:A2 I *D sky130_fd_sc_hd__a21o_1
*I *906:B I *D sky130_fd_sc_hd__and2b_1
*I *909:B1 I *D sky130_fd_sc_hd__o211a_1
*I *905:Y O *D sky130_fd_sc_hd__nand2_1
*CAP
1 *910:A2 3.08041e-05
2 *906:B 0
3 *909:B1 0.000192041
4 *905:Y 0.00031948
5 *232:10 0.00034186
6 *232:6 0.000500104
7 *909:B1 *305:77 0
8 *232:6 *904:B 0.000158066
9 *909:A2 *909:B1 0.00013621
10 *909:A2 *232:10 1.5186e-05
11 *910:A1 *232:6 1.56428e-05
12 *910:B1 *910:A2 4.00541e-06
13 *231:6 *232:6 4.41363e-05
14 *231:12 *232:6 1.55249e-05
15 *231:12 *232:10 5.35969e-06
*RES
1 *905:Y *232:6 5.5 
2 *232:6 *232:10 1.845 
3 *232:10 *909:B1 8.9 
4 *232:10 *906:B 1.6 
5 *232:6 *910:A2 2.47 
*END

*D_NET *233 0.000212245
*CONN
*I *908:A I *D sky130_fd_sc_hd__xnor2_1
*I *906:X O *D sky130_fd_sc_hd__and2b_1
*CAP
1 *908:A 9.99841e-05
2 *906:X 9.99841e-05
3 *908:A *1007:CLK 0
4 *908:A *1007:D 1.22762e-05
5 *908:A *305:77 0
*RES
1 *906:X *908:A 8.835 
*END

*D_NET *234 0.00145044
*CONN
*I *908:B I *D sky130_fd_sc_hd__xnor2_1
*I *907:X O *D sky130_fd_sc_hd__a31o_1
*CAP
1 *908:B 0.000425418
2 *907:X 0.000425418
3 *908:B *911:B1 9.37731e-05
4 *908:B *1007:CLK 7.47215e-05
5 *908:B *1010:D 4.94798e-05
6 *908:B *1077:A 0
7 *908:B *305:77 0.000314445
8 *907:A1 *908:B 4.82919e-05
9 *910:A1 *908:B 1.88904e-05
*RES
1 *907:X *908:B 15.705 
*END

*D_NET *235 0.00103971
*CONN
*I *911:A2 I *D sky130_fd_sc_hd__a21oi_1
*I *909:X O *D sky130_fd_sc_hd__o211a_1
*CAP
1 *911:A2 0.000252572
2 *909:X 0.000252572
3 *911:A2 *913:B 0.000192125
4 *911:A2 *1077:A 0.000141592
5 *907:A3 *911:A2 6.16148e-05
6 *227:17 *911:A2 0.000139231
7 *228:25 *911:A2 0
*RES
1 *909:X *911:A2 11.82 
*END

*D_NET *236 0.00112331
*CONN
*I *911:B1 I *D sky130_fd_sc_hd__a21oi_1
*I *910:X O *D sky130_fd_sc_hd__a21o_1
*CAP
1 *911:B1 0.000274562
2 *910:X 0.000274562
3 *911:B1 *913:B 0.000114167
4 *911:B1 *305:77 4.44109e-05
5 *907:A2 *911:B1 9.91076e-05
6 *908:B *911:B1 9.37731e-05
7 *910:A1 *911:B1 4.91927e-05
8 *227:17 *911:B1 5.03144e-05
9 *231:6 *911:B1 7.49327e-05
10 *231:12 *911:B1 4.82919e-05
*RES
1 *910:X *911:B1 12.825 
*END

*D_NET *237 0.000402731
*CONN
*I *913:A I *D sky130_fd_sc_hd__xnor2_1
*I *911:Y O *D sky130_fd_sc_hd__a21oi_1
*CAP
1 *913:A 0.000121108
2 *911:Y 0.000121108
3 *913:A *913:B 8.57024e-05
4 *911:A1 *913:A 3.17194e-05
5 *226:21 *913:A 4.30929e-05
*RES
1 *911:Y *913:A 5.645 
*END

*D_NET *238 0.00117237
*CONN
*I *913:B I *D sky130_fd_sc_hd__xnor2_1
*I *912:Y O *D sky130_fd_sc_hd__xnor2_1
*CAP
1 *913:B 0.000240497
2 *912:Y 0.000240497
3 *913:B *912:A 3.00381e-05
4 *913:B *305:77 0.00013521
5 *907:A1 *913:B 4.08514e-05
6 *907:A3 *913:B 4.66108e-05
7 *911:A2 *913:B 0.000192125
8 *911:B1 *913:B 0.000114167
9 *913:A *913:B 8.57024e-05
10 *226:21 *913:B 4.66742e-05
*RES
1 *912:Y *913:B 12.84 
*END

*D_NET *239 0.000134849
*CONN
*I *915:B I *D sky130_fd_sc_hd__nor2_1
*I *914:X O *D sky130_fd_sc_hd__and3_1
*CAP
1 *915:B 6.74244e-05
2 *914:X 6.74244e-05
*RES
1 *914:X *915:B 4.265 
*END

*D_NET *240 0.00102994
*CONN
*I *918:A2 I *D sky130_fd_sc_hd__a21bo_1
*I *917:B I *D sky130_fd_sc_hd__xnor2_1
*I *916:Y O *D sky130_fd_sc_hd__nand2_1
*CAP
1 *918:A2 0.000118208
2 *917:B 0
3 *916:Y 0.000127656
4 *240:10 0.000245864
5 *918:A2 *775:A 2.29156e-05
6 *918:A2 *776:B 8.23457e-05
7 *918:A2 *314:10 0
8 *918:A2 *370:63 0.000152814
9 *240:10 *314:10 0
10 *240:10 *370:63 3.09233e-05
11 *240:10 *370:80 3.47837e-05
12 *918:A1 *918:A2 2.16833e-05
13 *104:12 *918:A2 0.00015806
14 *118:25 *240:10 2.30292e-05
15 *118:34 *240:10 1.16578e-05
*RES
1 *916:Y *240:10 5.685 
2 *240:10 *917:B 3.6 
3 *240:10 *918:A2 6.975 
*END

*D_NET *241 0.000749119
*CONN
*I *920:B I *D sky130_fd_sc_hd__xnor2_1
*I *918:X O *D sky130_fd_sc_hd__a21bo_1
*CAP
1 *920:B 0.00021607
2 *918:X 0.00021607
3 *920:B *881:B 0
4 *920:B *882:B 0
5 *920:B *1006:D 0.000118513
6 *920:B *1074:A 0
7 *920:B *370:55 0.000124895
8 acc[23] *920:B 0
9 *920:A *920:B 7.35729e-05
*RES
1 *918:X *920:B 11.76 
*END

*D_NET *242 0.000590966
*CONN
*I *921:C I *D sky130_fd_sc_hd__and3_1
*I *919:X O *D sky130_fd_sc_hd__a21o_1
*CAP
1 *921:C 0.000263581
2 *919:X 0.000263581
3 *921:C *1073:A 0
4 *784:B *921:C 1.51894e-06
5 *787:A *921:C 0
6 *788:A1 *921:C 0
7 *921:A *921:C 5.53249e-06
8 *107:12 *921:C 1.22676e-05
9 *111:12 *921:C 3.86529e-05
10 *112:8 *921:C 5.83121e-06
11 *116:12 *921:C 0
*RES
1 *919:X *921:C 11.295 
*END

*D_NET *243 0.00056884
*CONN
*I *922:B I *D sky130_fd_sc_hd__xor2_1
*I *921:X O *D sky130_fd_sc_hd__and3_1
*CAP
1 *922:B 7.67198e-05
2 *921:X 7.67198e-05
3 *784:B *922:B 0.000160483
4 *107:12 *922:B 0.000122325
5 *107:25 *922:B 0.000114024
6 *112:8 *922:B 1.85674e-05
*RES
1 *921:X *922:B 6.08 
*END

*D_NET *244 0.000689636
*CONN
*I *926:A2 I *D sky130_fd_sc_hd__a21bo_1
*I *925:B I *D sky130_fd_sc_hd__xnor2_1
*I *924:X O *D sky130_fd_sc_hd__a21bo_1
*CAP
1 *926:A2 5.87687e-05
2 *925:B 3.64111e-05
3 *924:X 0.00010007
4 *244:8 0.000195249
5 *884:A *925:B 8.65905e-05
6 *884:B *926:A2 9.71067e-05
7 *884:C *926:A2 0
8 *890:B *244:8 0
9 *206:10 *926:A2 5.93588e-05
10 *206:10 *244:8 1.22762e-05
11 *209:17 *926:A2 4.38051e-05
*RES
1 *924:X *244:8 5.235 
2 *244:8 *925:B 4.395 
3 *244:8 *926:A2 5.49 
*END

*D_NET *245 0.00262359
*CONN
*I *928:A2 I *D sky130_fd_sc_hd__a21bo_1
*I *927:B I *D sky130_fd_sc_hd__xnor2_1
*I *926:X O *D sky130_fd_sc_hd__a21bo_1
*CAP
1 *928:A2 0.000270424
2 *927:B 0.000433109
3 *926:X 0.000183292
4 *245:10 0.000886825
5 *928:A2 *878:A 0
6 *928:A2 *929:B 3.86607e-05
7 *245:10 *876:A 0
8 *245:10 *929:B 0
9 *245:10 *1002:D 0
10 *877:B *245:10 0
11 *880:A *928:A2 0
12 *927:A *927:B 0.000234167
13 *927:A *928:A2 9.80943e-06
14 *206:10 *245:10 7.4027e-05
15 *208:12 *928:A2 2.0514e-05
16 *208:12 *245:10 5.39961e-05
17 *208:21 *928:A2 0.000236355
18 *209:17 *245:10 0.000119521
19 *212:16 *928:A2 6.28843e-05
*RES
1 *926:X *245:10 9.785 
2 *245:10 *927:B 7.405 
3 *245:10 *928:A2 9.845 
*END

*D_NET *246 0.000247186
*CONN
*I *929:B I *D sky130_fd_sc_hd__xnor2_1
*I *928:X O *D sky130_fd_sc_hd__a21bo_1
*CAP
1 *929:B 7.173e-05
2 *928:X 7.173e-05
3 *880:A *929:B 6.20952e-05
4 *928:A2 *929:B 3.86607e-05
5 *209:17 *929:B 2.97004e-06
6 *212:16 *929:B 0
7 *212:30 *929:B 0
8 *245:10 *929:B 0
*RES
1 *928:X *929:B 8.835 
*END

*D_NET *247 0.0019634
*CONN
*I *932:A2 I *D sky130_fd_sc_hd__a21oi_1
*I *933:C I *D sky130_fd_sc_hd__and3_1
*I *930:Y O *D sky130_fd_sc_hd__nand2_1
*CAP
1 *932:A2 0.000268424
2 *933:C 9.41246e-05
3 *930:Y 0.000263119
4 *247:14 0.000625668
5 *932:A2 *934:A 3.95724e-05
6 *932:A2 *934:B 0
7 *247:14 *341:12 6.07575e-06
8 *869:B1 *932:A2 0.000162972
9 *869:C1 *247:14 7.47284e-05
10 *930:A *247:14 0.000187733
11 *933:A *933:C 9.36199e-05
12 *187:12 *932:A2 2.30184e-05
13 *197:19 *247:14 0.000124344
14 *198:18 *247:14 0
*RES
1 *930:Y *247:14 10.025 
2 *247:14 *933:C 2.8 
3 *247:14 *932:A2 10.295 
*END

*D_NET *248 0.0010973
*CONN
*I *934:A I *D sky130_fd_sc_hd__nor2_1
*I *935:B1 I *D sky130_fd_sc_hd__a21o_1
*I *932:Y O *D sky130_fd_sc_hd__a21oi_1
*CAP
1 *934:A 0.000117186
2 *935:B1 0.00017948
3 *932:Y 0
4 *248:4 0.000296666
5 *935:B1 *935:A2 0
6 *865:B *935:B1 9.52646e-05
7 *869:B1 *935:B1 0
8 *872:A3 *935:B1 1.7396e-05
9 *872:B1 *935:B1 0
10 *932:A1 *935:B1 1.07797e-05
11 *932:A2 *934:A 3.95724e-05
12 *932:B1 *934:A 2.75229e-05
13 *932:B1 *935:B1 0.000114492
14 *188:8 *935:B1 0.000198939
*RES
1 *932:Y *248:4 1.6 
2 *248:4 *935:B1 9.83 
3 *248:4 *934:A 3.805 
*END

*D_NET *249 0.000359959
*CONN
*I *934:B I *D sky130_fd_sc_hd__nor2_1
*I *933:X O *D sky130_fd_sc_hd__and3_1
*CAP
1 *934:B 9.77544e-05
2 *933:X 9.77544e-05
3 *869:B1 *934:B 0.000116158
4 *869:C1 *934:B 0
5 *932:A2 *934:B 0
6 *933:A *934:B 4.82919e-05
*RES
1 *933:X *934:B 9.03 
*END

*D_NET *250 0.00133983
*CONN
*I *936:B I *D sky130_fd_sc_hd__xnor2_1
*I *937:A2 I *D sky130_fd_sc_hd__a21bo_1
*I *935:X O *D sky130_fd_sc_hd__a21o_1
*CAP
1 *936:B 0
2 *937:A2 5.83275e-05
3 *935:X 0.000308447
4 *250:12 0.000366774
5 *937:A2 *938:B 3.31103e-05
6 *937:A2 *343:16 9.2741e-05
7 *864:B *250:12 7.1635e-05
8 *865:B *250:12 8.65905e-05
9 *872:A3 *250:12 9.86689e-05
10 *872:B1 *250:12 6.28765e-05
11 *873:C1 *250:12 0
12 *936:A *250:12 0.000160658
13 *193:8 *250:12 0
*RES
1 *935:X *250:12 11.855 
2 *250:12 *937:A2 3.085 
3 *250:12 *936:B 1.6 
*END

*D_NET *251 0.000820519
*CONN
*I *938:B I *D sky130_fd_sc_hd__xnor2_1
*I *937:X O *D sky130_fd_sc_hd__a21bo_1
*CAP
1 *938:B 0.000219616
2 *937:X 0.000219616
3 *864:B *938:B 0.000296081
4 *873:C1 *938:B 0
5 *937:A2 *938:B 3.31103e-05
6 *189:10 *938:B 5.20968e-05
*RES
1 *937:X *938:B 11.415 
*END

*D_NET *252 0.00187654
*CONN
*I *941:B I *D sky130_fd_sc_hd__xnor2_1
*I *942:A2 I *D sky130_fd_sc_hd__a21bo_1
*I *940:X O *D sky130_fd_sc_hd__a21bo_1
*CAP
1 *941:B 7.33839e-05
2 *942:A2 0.000464017
3 *940:X 8.44935e-05
4 *252:6 0.000621894
5 *941:B *852:A 5.02217e-05
6 *942:A2 *756:A 0
7 *942:A2 *841:A 4.99619e-05
8 *942:A2 *841:B 6.02123e-05
9 *942:A2 *997:CLK 0.000140912
10 *942:A2 *302:32 8.09021e-06
11 *942:A2 *339:8 1.83463e-05
12 *942:A2 *368:10 0
13 *855:B1 *252:6 6.38247e-05
14 *857:B1 *941:B 8.09021e-06
15 *857:B1 *942:A2 0
16 *942:A1 *942:A2 2.75145e-05
17 *171:10 *942:A2 0
18 *180:14 *942:A2 0.0001947
19 *180:14 *252:6 1.08758e-05
*RES
1 *940:X *252:6 2.74 
2 *252:6 *942:A2 12.935 
3 *252:6 *941:B 6.98 
*END

*D_NET *253 0.00113233
*CONN
*I *943:B I *D sky130_fd_sc_hd__xnor2_1
*I *944:A2 I *D sky130_fd_sc_hd__a21bo_1
*I *942:X O *D sky130_fd_sc_hd__a21bo_1
*CAP
1 *943:B 0
2 *944:A2 0.000121881
3 *942:X 0.000193632
4 *253:12 0.000315514
5 *253:12 *302:32 6.74079e-05
6 *253:12 *368:10 0
7 *850:A *253:12 1.71013e-05
8 *856:A1 *944:A2 0.000312964
9 *856:A1 *253:12 3.83041e-05
10 *856:B2 *253:12 0
11 *857:B1 *253:12 0
12 *174:10 *253:12 6.5525e-05
13 *179:10 *253:12 0
*RES
1 *942:X *253:12 9.725 
2 *253:12 *944:A2 4.465 
3 *253:12 *943:B 1.6 
*END

*D_NET *254 0.000554078
*CONN
*I *945:B I *D sky130_fd_sc_hd__xnor2_1
*I *944:X O *D sky130_fd_sc_hd__a21bo_1
*CAP
1 *945:B 0.000182086
2 *944:X 0.000182086
3 *945:B *844:A 0
4 *945:B *368:10 0
5 *856:A1 *945:B 0.000163204
6 *173:10 *945:B 2.67022e-05
*RES
1 *944:X *945:B 10.065 
*END

*D_NET *255 0.000792392
*CONN
*I *947:B I *D sky130_fd_sc_hd__and2_1
*I *946:Y O *D sky130_fd_sc_hd__nand3_1
*CAP
1 *947:B 0.000248508
2 *946:Y 0.000248508
3 *947:B *988:CLK 8.53113e-06
4 *946:A *947:B 0
5 *948:B *947:B 9.47454e-05
6 *1012:A *947:B 0
7 *134:18 *947:B 0.000138791
8 *166:16 *947:B 5.33085e-05
*RES
1 *946:Y *947:B 11.01 
*END

*D_NET *256 0.00142144
*CONN
*I *949:B I *D sky130_fd_sc_hd__xnor2_1
*I *950:A2 I *D sky130_fd_sc_hd__a21bo_1
*I *948:Y O *D sky130_fd_sc_hd__nand2_1
*CAP
1 *949:B 0
2 *950:A2 0.000139402
3 *948:Y 0.000161363
4 *256:12 0.000300765
5 *256:12 *301:10 0
6 *802:C *950:A2 8.23457e-05
7 *803:C *256:12 0.000253949
8 *950:B1_N *950:A2 1.91597e-05
9 *950:B1_N *256:12 5.16418e-05
10 *951:A *950:A2 0.000272978
11 *128:23 *950:A2 1.08758e-05
12 *128:23 *256:12 4.66108e-05
13 *130:10 *950:A2 4.66108e-05
14 *130:10 *256:12 3.57349e-05
*RES
1 *948:Y *256:12 9.47 
2 *256:12 *950:A2 4.81 
3 *256:12 *949:B 1.6 
*END

*D_NET *257 0.000868054
*CONN
*I *952:A2 I *D sky130_fd_sc_hd__a21bo_1
*I *951:B I *D sky130_fd_sc_hd__xnor2_1
*I *950:X O *D sky130_fd_sc_hd__a21bo_1
*CAP
1 *952:A2 0.000118909
2 *951:B 2.12116e-05
3 *950:X 5.55422e-05
4 *257:6 0.000195662
5 *952:A2 *986:CLK 1.07797e-05
6 *952:A2 *334:10 0
7 *952:A2 *368:100 8.65905e-05
8 *952:A2 *368:108 0.000163019
9 *798:B *952:A2 4.82919e-05
10 *951:A *951:B 4.82863e-05
11 *951:A *257:6 0.000119762
*RES
1 *950:X *257:6 2.74 
2 *257:6 *951:B 2.05 
3 *257:6 *952:A2 8.54 
*END

*D_NET *258 0.00174972
*CONN
*I *953:B I *D sky130_fd_sc_hd__xnor2_1
*I *952:X O *D sky130_fd_sc_hd__a21bo_1
*CAP
1 *953:B 0.00041785
2 *952:X 0.00041785
3 *953:B *991:D 9.54399e-05
4 *953:B *1060:A 0.000314178
5 *953:B *302:57 5.72299e-05
6 *953:B *302:78 2.51754e-05
7 *953:B *332:43 8.53113e-06
8 *953:B *340:30 0
9 *953:B *368:74 4.41506e-05
10 *953:B *368:100 0.000179035
11 *953:A *953:B 9.64021e-05
12 *995:RESET_B *953:B 9.38785e-05
*RES
1 *952:X *953:B 15.915 
*END

*D_NET *259 0.000932913
*CONN
*I *956:A I *D sky130_fd_sc_hd__and2_1
*I *957:A2 I *D sky130_fd_sc_hd__a21o_1
*I *958:C I *D sky130_fd_sc_hd__nand3_1
*I *954:X O *D sky130_fd_sc_hd__or2_1
*CAP
1 *956:A 3.95717e-05
2 *957:A2 0
3 *958:C 6.1757e-05
4 *954:X 7.21719e-05
5 *259:19 3.95717e-05
6 *259:8 0.000133929
7 *956:A *959:A 0.000161529
8 *958:C *261:10 0
9 *259:8 *303:90 0
10 *958:B *958:C 0.000116165
11 *156:25 *956:A 0.000123225
12 *156:25 *958:C 4.40812e-05
13 *157:29 *958:C 9.50342e-06
14 *157:29 *259:8 0.000131408
*RES
1 *954:X *259:8 5.235 
2 *259:8 *958:C 5.235 
3 *259:8 *259:19 2 
4 *259:19 *957:A2 1.6 
5 *259:19 *956:A 3.085 
*END

*D_NET *260 0.000775979
*CONN
*I *956:B I *D sky130_fd_sc_hd__and2_1
*I *955:Y O *D sky130_fd_sc_hd__nand2_1
*CAP
1 *956:B 0.000301141
2 *955:Y 0.000301141
3 *956:B *959:B 0
4 *956:B *974:A 0
5 *956:B *984:D 0
6 *956:B *303:90 8.71001e-05
7 *831:C *956:B 8.65961e-05
8 *954:A *956:B 0
*RES
1 *955:Y *956:B 11.67 
*END

*D_NET *261 0.00367408
*CONN
*I *959:A I *D sky130_fd_sc_hd__and2_1
*I *960:A2 I *D sky130_fd_sc_hd__a21oi_1
*I *961:C I *D sky130_fd_sc_hd__and3_1
*I *957:X O *D sky130_fd_sc_hd__a21o_1
*CAP
1 *959:A 0.00031903
2 *960:A2 9.06412e-05
3 *961:C 0.000239621
4 *957:X 2.22788e-05
5 *261:10 0.000557975
6 *261:6 0.000569022
7 *959:A *984:D 5.30673e-05
8 *959:A *985:D 5.05521e-05
9 *960:A2 *369:39 6.26945e-05
10 *961:C *369:39 0.00016063
11 *824:A *960:A2 0.000124007
12 *824:A *961:C 3.7712e-05
13 *824:B *961:C 6.45236e-05
14 *824:B *261:10 4.9968e-05
15 *834:B2 *961:C 3.09164e-05
16 *834:B2 *261:10 0.000149759
17 *956:A *959:A 0.000161529
18 *958:B *261:10 4.70343e-05
19 *958:C *261:10 0
20 *960:A1 *960:A2 0.000143468
21 *960:B1 *960:A2 0.000175529
22 *960:B1 *961:C 5.45488e-05
23 *150:12 *961:C 8.53113e-06
24 *151:16 *961:C 5.16418e-05
25 *153:19 *261:10 0
26 *154:8 *960:A2 0.000299625
27 *156:10 *261:10 0
28 *156:25 *959:A 5.68633e-05
29 *156:25 *261:10 0
30 *156:35 *959:A 3.74161e-05
31 *156:35 *261:6 4.82863e-05
32 *157:29 *261:10 7.21296e-06
*RES
1 *957:X *261:6 2.05 
2 *261:6 *261:10 6.185 
3 *261:10 *961:C 7.395 
4 *261:10 *960:A2 7.86 
5 *261:6 *959:A 7.57 
*END

*D_NET *262 0.00096075
*CONN
*I *959:B I *D sky130_fd_sc_hd__and2_1
*I *958:Y O *D sky130_fd_sc_hd__nand3_1
*CAP
1 *959:B 0.000357024
2 *958:Y 0.000357024
3 *959:B *972:A 0.000182334
4 *959:B *985:D 0
5 *959:B *987:CLK 0
6 *959:B *303:90 0
7 *956:B *959:B 0
8 *985:RESET_B *959:B 0
9 *1044:A *959:B 6.4368e-05
*RES
1 *958:Y *959:B 12.72 
*END

*D_NET *263 0.000906043
*CONN
*I *962:A I *D sky130_fd_sc_hd__nor2_1
*I *963:B1 I *D sky130_fd_sc_hd__a21oi_1
*I *960:Y O *D sky130_fd_sc_hd__a21oi_1
*CAP
1 *962:A 0
2 *963:B1 0.000242233
3 *960:Y 6.95049e-05
4 *263:10 0.000311738
5 *963:B1 *963:A2 0.000162311
6 *963:B1 *1021:A 0
7 *963:B1 *364:6 5.83121e-06
8 *963:B1 *364:28 3.96737e-05
9 *263:10 *962:B 1.13341e-05
10 *263:10 *1021:A 0
11 *263:10 *369:27 8.53113e-06
12 *834:B1 *963:B1 0
13 *834:B1 *263:10 0
14 *960:B1 *263:10 4.9253e-06
15 *149:12 *963:B1 4.99619e-05
*RES
1 *960:Y *263:10 4.665 
2 *263:10 *963:B1 7.41 
3 *263:10 *962:A 3.6 
*END

*D_NET *264 0.000653385
*CONN
*I *962:B I *D sky130_fd_sc_hd__nor2_1
*I *961:X O *D sky130_fd_sc_hd__and3_1
*CAP
1 *962:B 0.000199568
2 *961:X 0.000199568
3 *962:B *986:D 4.99619e-05
4 *962:B *369:27 3.06427e-05
5 *960:A1 *962:B 0
6 *960:B1 *962:B 0.000162311
7 *263:10 *962:B 1.13341e-05
*RES
1 *961:X *962:B 6.545 
*END

*D_NET *265 0.00038246
*CONN
*I *964:B I *D sky130_fd_sc_hd__xnor2_1
*I *963:Y O *D sky130_fd_sc_hd__a21oi_1
*CAP
1 *964:B 0.00014515
2 *963:Y 0.00014515
3 *964:B *963:A2 9.21592e-05
*RES
1 *963:Y *964:B 5.735 
*END

*D_NET *266 0.000199246
*CONN
*I *967:B I *D sky130_fd_sc_hd__nor2_1
*I *966:X O *D sky130_fd_sc_hd__o21a_1
*CAP
1 *967:B 7.58068e-05
2 *966:X 7.58068e-05
3 *967:B *982:D 2.11084e-05
4 *966:A2 *967:B 0
5 *967:A *967:B 2.65239e-05
*RES
1 *966:X *967:B 4.7 
*END

*D_NET *267 0.000208981
*CONN
*I *969:B I *D sky130_fd_sc_hd__xnor2_1
*I *968:Y O *D sky130_fd_sc_hd__nor2_1
*CAP
1 *969:B 0.00010449
2 *968:Y 0.00010449
*RES
1 *968:Y *969:B 4.685 
*END

*D_NET *268 0.000194749
*CONN
*I *971:B I *D sky130_fd_sc_hd__and2_1
*I *970:X O *D sky130_fd_sc_hd__or2_1
*CAP
1 *971:B 4.58599e-05
2 *970:X 4.58599e-05
3 *971:B *970:A 7.00889e-06
4 *971:B *1079:A 4.60584e-05
5 *971:A *971:B 4.99619e-05
*RES
1 *970:X *971:B 4.34 
*END

*D_NET *269 0.000494209
*CONN
*I *980:D I *D sky130_fd_sc_hd__dfrtp_1
*I *971:X O *D sky130_fd_sc_hd__and2_1
*CAP
1 *980:D 0.000211753
2 *971:X 0.000211753
3 *980:D *970:A 0
4 *980:D *1079:A 7.07032e-05
*RES
1 *971:X *980:D 10.155 
*END

*D_NET *270 0.000578252
*CONN
*I *981:D I *D sky130_fd_sc_hd__dfrtp_1
*I *965:Y O *D sky130_fd_sc_hd__xnor2_1
*CAP
1 *981:D 0.000274732
2 *965:Y 0.000274732
3 *981:D *972:A 0
4 *813:B *981:D 0
5 *965:A *981:D 2.87867e-05
*RES
1 *965:Y *981:D 11.505 
*END

*D_NET *271 0.000425827
*CONN
*I *982:D I *D sky130_fd_sc_hd__dfrtp_1
*I *967:Y O *D sky130_fd_sc_hd__nor2_1
*CAP
1 *982:D 0.000202359
2 *967:Y 0.000202359
3 *967:B *982:D 2.11084e-05
*RES
1 *967:Y *982:D 9.81 
*END

*D_NET *272 0.00026198
*CONN
*I *983:D I *D sky130_fd_sc_hd__dfrtp_4
*I *969:Y O *D sky130_fd_sc_hd__xnor2_1
*CAP
1 *983:D 0.000103658
2 *969:Y 0.000103658
3 *983:D *981:CLK 2.79625e-05
4 *969:A *983:D 2.67022e-05
*RES
1 *969:Y *983:D 8.79375 
*END

*D_NET *273 0.000354216
*CONN
*I *984:D I *D sky130_fd_sc_hd__dfrtp_1
*I *956:X O *D sky130_fd_sc_hd__and2_1
*CAP
1 *984:D 0.000150574
2 *956:X 0.000150574
3 *984:D *974:A 0
4 *956:B *984:D 0
5 *959:A *984:D 5.30673e-05
*RES
1 *956:X *984:D 9.375 
*END

*D_NET *274 0.000321566
*CONN
*I *985:D I *D sky130_fd_sc_hd__dfrtp_1
*I *959:X O *D sky130_fd_sc_hd__and2_1
*CAP
1 *985:D 0.000110948
2 *959:X 0.000110948
3 *985:D *303:90 4.91189e-05
4 *959:A *985:D 5.05521e-05
5 *959:B *985:D 0
*RES
1 *959:X *985:D 9.375 
*END

*D_NET *275 0.00137707
*CONN
*I *986:D I *D sky130_fd_sc_hd__dfrtp_1
*I *962:Y O *D sky130_fd_sc_hd__nor2_1
*CAP
1 *986:D 0.000623822
2 *962:Y 0.000623822
3 *986:D *986:CLK 4.00541e-06
4 *986:D *1021:A 3.86607e-05
5 *986:D *369:27 3.67955e-05
6 *962:B *986:D 4.99619e-05
*RES
1 *962:Y *986:D 14.505 
*END

*D_NET *276 0.00043011
*CONN
*I *987:D I *D sky130_fd_sc_hd__dfrtp_1
*I *964:Y O *D sky130_fd_sc_hd__xnor2_1
*CAP
1 *987:D 0.000183083
2 *964:Y 0.000183083
3 *987:D *987:CLK 5.30673e-05
4 *964:A *987:D 1.08758e-05
*RES
1 *964:Y *987:D 6.08 
*END

*D_NET *277 0.0007434
*CONN
*I *988:D I *D sky130_fd_sc_hd__dfrtp_1
*I *947:X O *D sky130_fd_sc_hd__and2_1
*CAP
1 *988:D 0.000294968
2 *947:X 0.000294968
3 *988:D *988:CLK 0.000144934
4 *988:D *301:10 0
5 *1012:A *988:D 0
6 *166:16 *988:D 8.53113e-06
*RES
1 *947:X *988:D 12.615 
*END

*D_NET *278 0.00160218
*CONN
*I *989:D I *D sky130_fd_sc_hd__dfrtp_1
*I *949:Y O *D sky130_fd_sc_hd__xnor2_1
*CAP
1 *989:D 0.000707048
2 *949:Y 0.000707048
3 *989:D *989:CLK 4.9253e-06
4 *989:D *367:10 8.65961e-05
5 *801:B *989:D 4.99619e-05
6 *128:23 *989:D 1.34503e-05
7 *130:10 *989:D 2.30292e-05
8 *156:35 *989:D 1.0124e-05
*RES
1 *949:Y *989:D 12.425 
*END

*D_NET *279 0.00125627
*CONN
*I *990:D I *D sky130_fd_sc_hd__dfrtp_1
*I *951:Y O *D sky130_fd_sc_hd__xnor2_1
*CAP
1 *990:D 0.000508828
2 *951:Y 0.000508828
3 *990:D *302:16 8.30885e-05
4 *990:D *302:18 0.000107238
5 *990:D *334:10 4.82919e-05
*RES
1 *951:Y *990:D 10.355 
*END

*D_NET *280 0.000325333
*CONN
*I *991:D I *D sky130_fd_sc_hd__dfrtp_1
*I *953:Y O *D sky130_fd_sc_hd__xnor2_1
*CAP
1 *991:D 6.88311e-05
2 *953:Y 6.88311e-05
3 *991:D *302:78 9.22308e-05
4 *953:B *991:D 9.54399e-05
*RES
1 *953:Y *991:D 8.775 
*END

*D_NET *281 0.00148922
*CONN
*I *992:D I *D sky130_fd_sc_hd__dfrtp_1
*I *939:X O *D sky130_fd_sc_hd__xor2_1
*CAP
1 *992:D 0.000375153
2 *939:X 0.000375153
3 *992:D *336:8 0.000134938
4 *837:B1 *992:D 2.75229e-05
5 *855:A1 *992:D 1.47347e-05
6 *855:C1 *992:D 0.000117825
7 *166:16 *992:D 0.000302738
8 *168:14 *992:D 0.000141149
*RES
1 *939:X *992:D 16.275 
*END

*D_NET *282 0.000638238
*CONN
*I *993:D I *D sky130_fd_sc_hd__dfrtp_1
*I *941:Y O *D sky130_fd_sc_hd__xnor2_1
*CAP
1 *993:D 0.000204465
2 *941:Y 0.000204465
3 *993:D *841:B 4.58257e-05
4 *993:D *852:A 0
5 *993:D *302:32 6.52265e-05
6 *851:A *993:D 4.99619e-05
7 *851:B *993:D 2.16833e-05
8 *941:A *993:D 4.66108e-05
*RES
1 *941:Y *993:D 7.115 
*END

*D_NET *283 0.001057
*CONN
*I *994:D I *D sky130_fd_sc_hd__dfrtp_1
*I *943:Y O *D sky130_fd_sc_hd__xnor2_1
*CAP
1 *994:D 0.000291189
2 *943:Y 0.000291189
3 *994:D *753:A 0
4 *994:D *994:CLK 0.000178714
5 *994:D *995:D 4.75576e-05
6 *994:D *332:14 7.3664e-05
7 *994:D *368:10 0.000116165
8 *850:A *994:D 5.85158e-05
9 *994:RESET_B *994:D 0
*RES
1 *943:Y *994:D 13.17 
*END

*D_NET *284 0.000619459
*CONN
*I *995:D I *D sky130_fd_sc_hd__dfrtp_1
*I *945:Y O *D sky130_fd_sc_hd__xnor2_1
*CAP
1 *995:D 0.000203687
2 *945:Y 0.000203687
3 *995:D *753:A 0
4 *945:A *995:D 0.000164528
5 *994:D *995:D 4.75576e-05
*RES
1 *945:Y *995:D 10.155 
*END

*D_NET *285 0.000846154
*CONN
*I *996:D I *D sky130_fd_sc_hd__dfrtp_1
*I *931:X O *D sky130_fd_sc_hd__xor2_1
*CAP
1 *996:D 0.000423077
2 *931:X 0.000423077
*RES
1 *931:X *996:D 9.17 
*END

*D_NET *286 0.00071529
*CONN
*I *997:D I *D sky130_fd_sc_hd__dfrtp_1
*I *934:Y O *D sky130_fd_sc_hd__nor2_1
*CAP
1 *997:D 0.000320269
2 *934:Y 0.000320269
3 *997:D *756:A 7.47512e-05
*RES
1 *934:Y *997:D 11.2125 
*END

*D_NET *287 0.000366996
*CONN
*I *998:D I *D sky130_fd_sc_hd__dfrtp_1
*I *936:Y O *D sky130_fd_sc_hd__xnor2_1
*CAP
1 *998:D 7.7218e-05
2 *936:Y 7.7218e-05
3 *998:D *998:CLK 0.000108785
4 *998:D *343:16 0.000103775
*RES
1 *936:Y *998:D 5.555 
*END

*D_NET *288 0.00104029
*CONN
*I *999:D I *D sky130_fd_sc_hd__dfrtp_1
*I *938:Y O *D sky130_fd_sc_hd__xnor2_1
*CAP
1 *999:D 0.000400001
2 *938:Y 0.000400001
3 *999:D *310:14 0.000193251
4 *999:RESET_B *999:D 4.70393e-05
*RES
1 *938:Y *999:D 10.325 
*END

*D_NET *289 0.000317839
*CONN
*I *1000:D I *D sky130_fd_sc_hd__dfrtp_1
*I *923:Y O *D sky130_fd_sc_hd__xnor2_1
*CAP
1 *1000:D 5.56013e-05
2 *923:Y 5.56013e-05
3 *1000:D *1000:CLK 4.77757e-05
4 *1000:D *346:14 9.28568e-05
5 *198:18 *1000:D 6.60042e-05
*RES
1 *923:Y *1000:D 5.045 
*END

*D_NET *290 0.000258693
*CONN
*I *1001:D I *D sky130_fd_sc_hd__dfrtp_1
*I *925:Y O *D sky130_fd_sc_hd__xnor2_1
*CAP
1 *1001:D 4.39188e-05
2 *925:Y 4.39188e-05
3 *877:B *1001:D 5.4003e-05
4 *205:10 *1001:D 7.06865e-05
5 *206:10 *1001:D 4.61658e-05
*RES
1 *925:Y *1001:D 8.58 
*END

*D_NET *291 0.000660596
*CONN
*I *1002:D I *D sky130_fd_sc_hd__dfrtp_1
*I *927:Y O *D sky130_fd_sc_hd__xnor2_1
*CAP
1 *1002:D 0.000229547
2 *927:Y 0.000229547
3 *1002:D *760:A 0
4 *927:A *1002:D 0.000201503
5 *1002:RESET_B *1002:D 0
6 *208:12 *1002:D 0
7 *245:10 *1002:D 0
*RES
1 *927:Y *1002:D 11.175 
*END

*D_NET *292 0.000660922
*CONN
*I *1003:D I *D sky130_fd_sc_hd__dfrtp_1
*I *929:Y O *D sky130_fd_sc_hd__xnor2_1
*CAP
1 *1003:D 0.000185691
2 *929:Y 0.000185691
3 *1003:D *1002:CLK 9.35294e-05
4 *1003:D *304:76 6.45562e-05
5 *928:B1_N *1003:D 3.79351e-05
6 *212:16 *1003:D 9.35189e-05
*RES
1 *929:Y *1003:D 10.845 
*END

*D_NET *293 0.000646694
*CONN
*I *1004:D I *D sky130_fd_sc_hd__dfrtp_1
*I *915:Y O *D sky130_fd_sc_hd__nor2_1
*CAP
1 *1004:D 0.000226837
2 *915:Y 0.000226837
3 *894:B1 *1004:D 0
4 *915:A *1004:D 0.00019302
5 *120:10 *1004:D 0
*RES
1 *915:Y *1004:D 11.505 
*END

*D_NET *294 0.00107072
*CONN
*I *1005:D I *D sky130_fd_sc_hd__dfrtp_1
*I *917:Y O *D sky130_fd_sc_hd__xnor2_1
*CAP
1 *1005:D 0.000378461
2 *917:Y 0.000378461
3 *1005:D *764:A 4.99619e-05
4 *1005:D *775:B 5.30673e-05
5 *1005:D *352:23 9.21168e-05
6 *1005:RESET_B *1005:D 0.000118651
*RES
1 *917:Y *1005:D 10.565 
*END

*D_NET *295 0.000452143
*CONN
*I *1006:D I *D sky130_fd_sc_hd__dfrtp_1
*I *920:Y O *D sky130_fd_sc_hd__xnor2_1
*CAP
1 *1006:D 0.000101292
2 *920:Y 0.000101292
3 *1006:D *1074:A 4.70256e-05
4 *1006:D *370:55 8.40213e-05
5 *920:B *1006:D 0.000118513
*RES
1 *920:Y *1006:D 9.375 
*END

*D_NET *296 0.000623936
*CONN
*I *1007:D I *D sky130_fd_sc_hd__dfrtp_1
*I *922:X O *D sky130_fd_sc_hd__xor2_1
*CAP
1 *1007:D 0.00025782
2 *922:X 0.00025782
3 *1007:D *1007:CLK 0
4 *784:A *1007:D 4.60584e-05
5 *784:B *1007:D 4.99619e-05
6 *908:A *1007:D 1.22762e-05
*RES
1 *922:X *1007:D 11.61 
*END

*D_NET *297 0.000327117
*CONN
*I *1008:D I *D sky130_fd_sc_hd__dfrtp_1
*I *898:Y O *D sky130_fd_sc_hd__xnor2_1
*CAP
1 *1008:D 0.000154371
2 *898:Y 0.000154371
3 *1008:D *982:CLK 0
4 *1008:D *301:28 0
5 *1008:D *305:10 0
6 *103:12 *1008:D 1.83756e-05
*RES
1 *898:Y *1008:D 9.54 
*END

*D_NET *298 0.000532966
*CONN
*I *1009:D I *D sky130_fd_sc_hd__dfrtp_1
*I *903:Y O *D sky130_fd_sc_hd__xnor2_1
*CAP
1 *1009:D 0.000148491
2 *903:Y 0.000148491
3 *903:A *1009:D 0.000156622
4 *903:B *1009:D 7.93632e-05
*RES
1 *903:Y *1009:D 6.425 
*END

*D_NET *299 0.000414471
*CONN
*I *1010:D I *D sky130_fd_sc_hd__dfrtp_1
*I *908:Y O *D sky130_fd_sc_hd__xnor2_1
*CAP
1 *1010:D 0.000182496
2 *908:Y 0.000182496
3 *908:B *1010:D 4.94798e-05
*RES
1 *908:Y *1010:D 5.30375 
*END

*D_NET *300 0.000259388
*CONN
*I *1011:D I *D sky130_fd_sc_hd__dfrtp_1
*I *913:Y O *D sky130_fd_sc_hd__xnor2_1
*CAP
1 *1011:D 5.42397e-05
2 *913:Y 5.42397e-05
3 *1011:D *1077:A 4.82919e-05
4 *1011:D *305:77 5.13155e-05
5 *1011:D *319:16 1.7386e-05
6 *227:17 *1011:D 3.39151e-05
*RES
1 *913:Y *1011:D 8.775 
*END

*D_NET *301 0.00648942
*CONN
*I *1016:A I *D sky130_fd_sc_hd__clkbuf_16
*I *1015:A I *D sky130_fd_sc_hd__clkbuf_16
*I *1014:A I *D sky130_fd_sc_hd__clkbuf_16
*I *1013:A I *D sky130_fd_sc_hd__clkbuf_16
*I *1012:X O *D sky130_fd_sc_hd__clkbuf_16
*CAP
1 *1016:A 0.000222868
2 *1015:A 0.000501377
3 *1014:A 0.000143072
4 *1013:A 0.000234574
5 *1012:X 0
6 *301:28 0.0013719
7 *301:10 0.000916691
8 *301:6 0.0011867
9 *1015:A *763:A 7.00889e-06
10 *1015:A *790:B 7.23533e-05
11 *1015:A *351:25 6.36494e-05
12 *301:10 *1021:A 0.00029878
13 *301:28 *759:A 0
14 *301:28 *1021:A 0.000132631
15 *301:28 *351:25 9.84957e-05
16 *803:C *301:10 0
17 *835:A1 *1014:A 6.27029e-05
18 *835:B1 *1014:A 8.8266e-05
19 *837:A1 *301:10 4.31106e-05
20 *898:A *1016:A 2.75145e-05
21 *898:B *301:28 7.70758e-05
22 *946:A *301:10 0.000199734
23 *988:D *301:10 0
24 *1008:D *301:28 0
25 *103:12 *1016:A 9.66106e-05
26 *118:17 *1015:A 0.000316698
27 *161:14 *301:10 0.000197365
28 *164:10 *1013:A 4.9253e-06
29 *164:10 *1014:A 2.59835e-05
30 *164:10 *301:10 6.55406e-05
31 *164:23 *301:10 7.12228e-06
32 *166:16 *301:10 0
33 *224:8 *1015:A 2.66586e-05
34 *256:12 *301:10 0
*RES
1 *1012:X *301:6 3.6 
2 *301:6 *301:10 14.6 
3 *301:10 *1013:A 4.81 
4 *301:10 *1014:A 4.12 
5 *301:6 *301:28 14.345 
6 *301:28 *1015:A 12.56 
7 *301:28 *1016:A 4.48 
*END

*D_NET *302 0.0114975
*CONN
*I *986:CLK I *D sky130_fd_sc_hd__dfrtp_1
*I *996:CLK I *D sky130_fd_sc_hd__dfrtp_1
*I *1017:A I *D sky130_fd_sc_hd__clkbuf_4
*I *995:CLK I *D sky130_fd_sc_hd__dfrtp_1
*I *994:CLK I *D sky130_fd_sc_hd__dfrtp_1
*I *991:CLK I *D sky130_fd_sc_hd__dfrtp_1
*I *990:CLK I *D sky130_fd_sc_hd__dfrtp_1
*I *993:CLK I *D sky130_fd_sc_hd__dfrtp_1
*I *997:CLK I *D sky130_fd_sc_hd__dfrtp_1
*I *1013:X O *D sky130_fd_sc_hd__clkbuf_16
*CAP
1 *986:CLK 0.000529147
2 *996:CLK 0.000431186
3 *1017:A 0
4 *995:CLK 0
5 *994:CLK 0.000204059
6 *991:CLK 2.5684e-05
7 *990:CLK 0
8 *993:CLK 0
9 *997:CLK 0.000185479
10 *1013:X 0
11 *302:103 0.000960332
12 *302:78 0.00106466
13 *302:57 0.00110029
14 *302:32 0.000616267
15 *302:18 0.000624538
16 *302:16 0.000643192
17 *302:8 0.000618158
18 *302:4 0.000382717
19 *986:CLK *334:10 0
20 *986:CLK *368:108 0.000355871
21 *996:CLK *755:A 0.000322585
22 *996:CLK *368:108 0.000116853
23 *997:CLK *756:A 0.000133938
24 *997:CLK *853:A 0
25 *997:CLK *857:A2 0
26 *302:16 *1060:A 8.77073e-05
27 *302:16 *368:108 0
28 *302:32 *841:B 0.000236121
29 *302:32 *368:10 0
30 *302:57 *332:43 0.000308443
31 *302:78 *753:A 0.000166458
32 *795:A *986:CLK 9.14035e-05
33 *804:A2 *986:CLK 3.23663e-05
34 *838:B1 *986:CLK 0.000401008
35 *838:B1 *996:CLK 4.19797e-05
36 *851:A *302:32 4.99619e-05
37 *851:B *302:32 9.53428e-06
38 *856:C1 *302:57 0
39 *856:C1 *302:78 0
40 *857:B1 *997:CLK 0
41 *857:B1 *302:32 4.2857e-05
42 *942:A2 *997:CLK 0.000140912
43 *942:A2 *302:32 8.09021e-06
44 *952:A2 *986:CLK 1.07797e-05
45 *953:B *302:57 5.72299e-05
46 *953:B *302:78 2.51754e-05
47 *986:D *986:CLK 4.00541e-06
48 *990:D *302:16 8.30885e-05
49 *990:D *302:18 0.000107238
50 *991:D *302:78 9.22308e-05
51 *992:RESET_B *996:CLK 0.000139245
52 *993:D *302:32 6.52265e-05
53 *994:D *994:CLK 0.000178714
54 *994:RESET_B *994:CLK 0
55 *995:RESET_B *302:78 0.000413021
56 *1012:A *996:CLK 0
57 *124:23 *986:CLK 4.11293e-05
58 *125:12 *986:CLK 8.09021e-06
59 *126:12 *986:CLK 0.000120381
60 *169:23 *302:32 0.00011852
61 *171:10 *302:32 3.4222e-05
62 *180:14 *997:CLK 0
63 *253:12 *302:32 6.74079e-05
*RES
1 *1013:X *302:4 1.6 
2 *302:4 *302:8 4.26 
3 *302:8 *302:16 8.575 
4 *302:16 *302:18 3.555 
5 *302:18 *302:32 12.835 
6 *302:32 *997:CLK 9.785 
7 *302:32 *993:CLK 1.6 
8 *302:18 *990:CLK 1.6 
9 *302:16 *302:57 6.185 
10 *302:57 *991:CLK 4.05 
11 *302:57 *302:78 13.88 
12 *302:78 *994:CLK 9.23 
13 *302:78 *995:CLK 1.6 
14 *302:8 *1017:A 1.6 
15 *302:4 *302:103 2 
16 *302:103 *996:CLK 13.59 
17 *302:103 *986:CLK 16.485 
*END

*D_NET *303 0.00828655
*CONN
*I *984:CLK I *D sky130_fd_sc_hd__dfrtp_1
*I *985:CLK I *D sky130_fd_sc_hd__dfrtp_1
*I *987:CLK I *D sky130_fd_sc_hd__dfrtp_1
*I *981:CLK I *D sky130_fd_sc_hd__dfrtp_1
*I *983:CLK I *D sky130_fd_sc_hd__dfrtp_4
*I *1018:A I *D sky130_fd_sc_hd__clkbuf_4
*I *988:CLK I *D sky130_fd_sc_hd__dfrtp_1
*I *992:CLK I *D sky130_fd_sc_hd__dfrtp_1
*I *989:CLK I *D sky130_fd_sc_hd__dfrtp_1
*I *1014:X O *D sky130_fd_sc_hd__clkbuf_16
*CAP
1 *984:CLK 2.78012e-05
2 *985:CLK 0
3 *987:CLK 0.000246332
4 *981:CLK 0.000289904
5 *983:CLK 2.08101e-05
6 *1018:A 0
7 *988:CLK 0.000298067
8 *992:CLK 1.59642e-05
9 *989:CLK 0.000154811
10 *1014:X 0
11 *303:90 0.00041964
12 *303:84 0.000406007
13 *303:60 0.000763128
14 *303:27 0.00075177
15 *303:23 0.000437739
16 *303:21 0.000685859
17 *303:8 0.000532776
18 *303:4 0.000349417
19 *981:CLK *818:B 0
20 *981:CLK *972:A 0
21 *987:CLK *821:A 3.47668e-05
22 *303:27 *330:18 8.65905e-05
23 *303:60 *806:B 2.11921e-05
24 *303:60 *818:A 4.82919e-05
25 *303:60 *818:B 0.000159313
26 *303:60 *330:18 3.67779e-05
27 *817:B1 *303:21 0
28 *831:A *989:CLK 2.75538e-05
29 *831:A *303:21 2.46089e-05
30 *831:B *989:CLK 6.55328e-05
31 *831:B *303:21 5.65627e-05
32 *832:B1 *303:21 0
33 *832:B2 *303:21 0
34 *835:A1 *303:8 4.80182e-05
35 *835:A3 *303:8 2.10134e-05
36 *835:A3 *303:84 0.000239807
37 *835:B1 *989:CLK 0
38 *837:A1 *303:27 0.000122337
39 *837:A2 *303:27 4.66108e-05
40 *837:B1 *992:CLK 1.61831e-05
41 *947:A *992:CLK 4.99619e-05
42 *947:B *988:CLK 8.53113e-06
43 *954:B *984:CLK 0.000101325
44 *954:B *303:84 1.16578e-05
45 *956:B *303:90 8.71001e-05
46 *959:B *987:CLK 0
47 *959:B *303:90 0
48 *969:A *981:CLK 0
49 *983:D *981:CLK 2.79625e-05
50 *985:D *303:90 4.91189e-05
51 *987:D *987:CLK 5.30673e-05
52 *988:D *988:CLK 0.000144934
53 *989:D *989:CLK 4.9253e-06
54 *1012:A *988:CLK 0
55 *134:10 *303:21 0
56 *134:10 *303:60 0
57 *134:18 *303:21 0
58 *136:6 *303:27 7.22354e-05
59 *136:12 *303:27 0.000169878
60 *153:19 *989:CLK 5.93844e-05
61 *156:10 *987:CLK 0.000247574
62 *156:25 *987:CLK 9.50342e-06
63 *156:25 *303:90 0.000132096
64 *156:35 *989:CLK 0.000107836
65 *157:18 *984:CLK 6.3889e-05
66 *157:18 *303:84 0.00015316
67 *157:18 *303:90 4.00541e-06
68 *157:29 *303:90 0
69 *165:6 *992:CLK 1.16578e-05
70 *165:6 *303:27 8.43862e-05
71 *166:16 *988:CLK 2.15594e-05
72 *166:16 *992:CLK 4.47125e-05
73 *166:16 *303:27 0.000110904
74 *259:8 *303:90 0
*RES
1 *1014:X *303:4 1.6 
2 *303:4 *303:8 3.83 
3 *303:8 *989:CLK 7.395 
4 *303:8 *303:21 3.93 
5 *303:21 *303:23 2 
6 *303:23 *303:27 8.4 
7 *303:27 *992:CLK 2.395 
8 *303:27 *988:CLK 11.015 
9 *303:23 *1018:A 1.6 
10 *303:21 *303:60 9.11 
11 *303:60 *983:CLK 1.96 
12 *303:60 *981:CLK 10.175 
13 *303:4 *303:84 4.77 
14 *303:84 *303:90 6.035 
15 *303:90 *987:CLK 8.685 
16 *303:90 *985:CLK 3.6 
17 *303:84 *984:CLK 2.74 
*END

*D_NET *304 0.00998296
*CONN
*I *1004:CLK I *D sky130_fd_sc_hd__dfrtp_1
*I *1005:CLK I *D sky130_fd_sc_hd__dfrtp_1
*I *1006:CLK I *D sky130_fd_sc_hd__dfrtp_1
*I *1003:CLK I *D sky130_fd_sc_hd__dfrtp_1
*I *1002:CLK I *D sky130_fd_sc_hd__dfrtp_1
*I *1001:CLK I *D sky130_fd_sc_hd__dfrtp_1
*I *1000:CLK I *D sky130_fd_sc_hd__dfrtp_1
*I *999:CLK I *D sky130_fd_sc_hd__dfrtp_1
*I *998:CLK I *D sky130_fd_sc_hd__dfrtp_1
*I *1015:X O *D sky130_fd_sc_hd__clkbuf_16
*CAP
1 *1004:CLK 0.000196089
2 *1005:CLK 3.13509e-05
3 *1006:CLK 0.000448014
4 *1003:CLK 0
5 *1002:CLK 0.000286527
6 *1001:CLK 0.000374866
7 *1000:CLK 2.85755e-05
8 *999:CLK 0
9 *998:CLK 0.000624621
10 *1015:X 6.65652e-05
11 *304:76 0.000422224
12 *304:74 0.000768008
13 *304:68 0.000460521
14 *304:51 0.000760873
15 *304:14 0.000752992
16 *304:12 0.000378697
17 *304:10 0.000533524
18 *304:6 0.000433295
19 *998:CLK *343:16 8.29385e-05
20 *1000:CLK *346:14 9.80032e-06
21 *1004:CLK *370:32 0.000155928
22 *1006:CLK *1072:A 8.65961e-05
23 *874:A *1000:CLK 8.49205e-05
24 *874:B *304:12 0
25 *874:B *304:14 0
26 *884:C *1001:CLK 8.41307e-05
27 *884:C *304:51 0
28 *888:A *304:12 2.53191e-06
29 *889:A1 *304:12 5.12431e-05
30 *889:A1 *304:14 1.52184e-05
31 *889:B1 *304:10 4.82919e-05
32 *889:B1 *304:12 7.61867e-05
33 *889:B1 *304:51 1.01155e-05
34 *892:A *1001:CLK 1.91597e-05
35 *892:B *1001:CLK 4.7672e-05
36 *893:A *304:74 0.000349827
37 *893:B *304:10 1.52418e-05
38 *893:C *304:68 0.000139238
39 *893:C *304:74 0
40 *893:D *1001:CLK 2.68464e-05
41 *894:A1 *1004:CLK 1.61831e-05
42 *894:A2 *1004:CLK 0.000215195
43 *894:A2 *304:12 0
44 *894:B1 *1004:CLK 0.000145184
45 *895:A1 *304:6 7.14699e-05
46 *895:A1 *304:10 4.66108e-05
47 *895:A2 *304:10 4.77719e-05
48 *895:B1 *304:6 0.000122331
49 *915:A *1004:CLK 0.000145184
50 *923:B *1000:CLK 4.82919e-05
51 *923:B *304:12 0.000176514
52 *926:A1 *1001:CLK 6.0011e-05
53 *928:A1 *1002:CLK 0.000115108
54 *998:D *998:CLK 0.000108785
55 *1000:D *1000:CLK 4.77757e-05
56 *1003:D *1002:CLK 9.35294e-05
57 *1003:D *304:76 6.45562e-05
58 *198:18 *998:CLK 0
59 *198:18 *1000:CLK 4.77757e-05
60 *198:18 *304:14 0
61 *212:16 *1002:CLK 0.000115531
62 *212:16 *304:76 7.15651e-05
63 *212:30 *1001:CLK 8.41307e-05
64 *212:30 *304:51 8.80293e-06
65 *212:30 *304:68 5.28359e-05
66 *214:14 *304:10 3.77879e-05
67 *214:14 *304:51 0.000128197
68 *214:14 *304:68 3.92044e-05
*RES
1 *1015:X *304:6 3.085 
2 *304:6 *304:10 4.865 
3 *304:10 *304:12 3.93 
4 *304:12 *304:14 2.145 
5 *304:14 *998:CLK 13.23 
6 *304:14 *999:CLK 3.6 
7 *304:12 *1000:CLK 4.74 
8 *304:10 *304:51 2.91 
9 *304:51 *1001:CLK 9.585 
10 *304:51 *304:68 6.41 
11 *304:68 *304:74 8.185 
12 *304:74 *304:76 2.52 
13 *304:76 *1002:CLK 7.225 
14 *304:76 *1003:CLK 1.6 
15 *304:74 *1006:CLK 8.26 
16 *304:68 *1005:CLK 2.05 
17 *304:6 *1004:CLK 11.39 
*END

*D_NET *305 0.00799644
*CONN
*I *1011:CLK I *D sky130_fd_sc_hd__dfrtp_1
*I *1007:CLK I *D sky130_fd_sc_hd__dfrtp_1
*I *1010:CLK I *D sky130_fd_sc_hd__dfrtp_1
*I *1009:CLK I *D sky130_fd_sc_hd__dfrtp_1
*I *980:CLK I *D sky130_fd_sc_hd__dfrtp_1
*I *1019:A I *D sky130_fd_sc_hd__clkbuf_8
*I *1008:CLK I *D sky130_fd_sc_hd__dfrtp_1
*I *982:CLK I *D sky130_fd_sc_hd__dfrtp_1
*I *1016:X O *D sky130_fd_sc_hd__clkbuf_16
*CAP
1 *1011:CLK 0
2 *1007:CLK 0.000464645
3 *1010:CLK 0
4 *1009:CLK 0
5 *980:CLK 0.000238947
6 *1019:A 0.000173489
7 *1008:CLK 0.000219741
8 *982:CLK 0.000481633
9 *1016:X 0
10 *305:77 0.000859213
11 *305:73 0.000617443
12 *305:45 0.000387591
13 *305:41 0.000572938
14 *305:10 0.000789142
15 *305:8 0.000500018
16 *305:4 0.000440181
17 *980:CLK *767:A 0
18 *980:CLK *371:14 0.000163199
19 *980:CLK *371:24 0
20 *982:CLK *1021:A 0
21 *1007:CLK *354:8 0.000192209
22 *305:73 *772:B 8.8266e-05
23 *305:73 *773:A 0.000122325
24 *305:73 *1077:A 1.34503e-05
25 *305:73 *319:16 0.000191302
26 *305:73 *355:19 2.0514e-05
27 *774:B *305:41 8.22234e-06
28 *897:A3 *1019:A 0
29 *897:C1 *1019:A 0
30 *903:A *305:45 5.21046e-05
31 *903:B *980:CLK 2.9664e-05
32 *903:B *305:45 0.000112373
33 *908:A *1007:CLK 0
34 *908:A *305:77 0
35 *908:B *1007:CLK 7.47215e-05
36 *908:B *305:77 0.000314445
37 *909:B1 *305:77 0
38 *909:C1 *305:77 2.86623e-05
39 *911:B1 *305:77 4.44109e-05
40 *913:B *305:77 0.00013521
41 *1007:D *1007:CLK 0
42 *1008:D *982:CLK 0
43 *1008:D *305:10 0
44 *1008:RESET_B *982:CLK 5.39718e-05
45 *1009:RESET_B *980:CLK 5.30673e-05
46 *1009:RESET_B *305:45 0
47 *1011:D *305:77 5.13155e-05
48 *101:18 *305:41 2.77183e-05
49 *101:18 *305:73 1.79204e-05
50 *101:40 *305:77 0.000171316
51 *103:12 *305:8 0.00014785
52 *103:12 *305:41 3.72916e-05
53 *226:12 *1019:A 4.82863e-05
54 *227:17 *305:77 0
55 *228:25 *305:45 0
56 *228:25 *305:73 5.16418e-05
57 *228:25 *305:77 0
*RES
1 *1016:X *305:4 1.6 
2 *305:4 *305:8 5.21 
3 *305:8 *305:10 1.38 
4 *305:10 *982:CLK 11.865 
5 *305:10 *1008:CLK 6.81 
6 *305:8 *1019:A 6.45 
7 *305:4 *305:41 2.52 
8 *305:41 *305:45 5.42 
9 *305:45 *980:CLK 8.265 
10 *305:45 *1009:CLK 3.6 
11 *305:41 *305:73 8.275 
12 *305:73 *305:77 10.265 
13 *305:77 *1010:CLK 3.6 
14 *305:77 *1007:CLK 10.095 
15 *305:73 *1011:CLK 1.6 
*END

*D_NET *306 0.00178361
*CONN
*I *814:A I *D sky130_fd_sc_hd__nand2_1
*I *970:A I *D sky130_fd_sc_hd__or2_1
*I *1024:X O *D sky130_fd_sc_hd__clkbuf_1
*CAP
1 *814:A 0
2 *970:A 0.000246471
3 *1024:X 0.000202293
4 *306:8 0.000448764
5 *970:A *1079:A 1.17409e-05
6 *970:A *333:25 1.46411e-05
7 *970:A *371:32 4.18603e-06
8 *306:8 *769:A 0.000138188
9 *306:8 *1078:A 0.000354434
10 *306:8 *356:10 7.06865e-05
11 *306:8 *371:32 1.94636e-05
12 *971:A *970:A 1.34503e-05
13 *971:B *970:A 7.00889e-06
14 *980:D *970:A 0
15 *143:8 *970:A 0.000252282
16 *227:17 *306:8 0
*RES
1 *1024:X *306:8 9.06 
2 *306:8 *970:A 8.43 
3 *306:8 *814:A 3.6 
*END

*D_NET *307 0.00121897
*CONN
*I *870:B1 I *D sky130_fd_sc_hd__o211a_1
*I *861:A I *D sky130_fd_sc_hd__nand2_1
*I *860:A I *D sky130_fd_sc_hd__or2_1
*I *1025:X O *D sky130_fd_sc_hd__buf_1
*CAP
1 *870:B1 6.53309e-05
2 *861:A 4.40455e-05
3 *860:A 0
4 *1025:X 8.86139e-05
5 *307:16 0.000232984
6 *307:8 0.000342884
7 *861:A *861:B 6.52265e-05
8 *870:B1 *870:C1 6.18754e-05
9 *307:8 *310:14 2.66586e-05
10 *307:16 *860:B 7.00889e-06
11 *307:16 *861:B 8.65961e-05
12 *307:16 *870:C1 0.00011398
13 *307:16 *343:33 1.70935e-05
14 *873:C1 *870:B1 0
15 *873:C1 *307:16 0
16 *1025:A *307:8 1.83847e-05
17 *189:10 *861:A 4.82919e-05
*RES
1 *1025:X *307:8 4.74 
2 *307:8 *307:16 5.81 
3 *307:16 *860:A 1.6 
4 *307:16 *861:A 2.74 
5 *307:8 *870:B1 4.98 
*END

*D_NET *308 0.00163807
*CONN
*I *873:A1 I *D sky130_fd_sc_hd__a211oi_1
*I *863:A I *D sky130_fd_sc_hd__xnor2_1
*I *870:A1 I *D sky130_fd_sc_hd__o211a_1
*I *1026:X O *D sky130_fd_sc_hd__buf_1
*CAP
1 *873:A1 0
2 *863:A 3.12909e-05
3 *870:A1 7.13766e-05
4 *1026:X 0.000281046
5 *308:14 0.00021351
6 *308:10 0.000391889
7 *863:A *870:A2 8.65961e-05
8 *863:A *344:16 3.83041e-05
9 *870:A1 *870:A2 0.000198939
10 *308:10 *876:B 5.83121e-06
11 *308:10 *1067:A 3.31204e-05
12 *308:14 *1067:A 2.7881e-05
13 *308:14 *344:33 0.000101325
14 *873:B1 *308:14 4.05358e-05
15 *873:C1 *308:14 4.2857e-05
16 *192:10 *863:A 4.35348e-05
17 *192:10 *870:A1 3.00381e-05
*RES
1 *1026:X *308:10 6.99 
2 *308:10 *308:14 4.91 
3 *308:14 *870:A1 3.43 
4 *308:14 *863:A 2.74 
5 *308:10 *873:A1 3.6 
*END

*D_NET *309 0.00116447
*CONN
*I *810:A I *D sky130_fd_sc_hd__nand2_1
*I *812:A I *D sky130_fd_sc_hd__nor2_1
*I *1027:X O *D sky130_fd_sc_hd__clkbuf_1
*CAP
1 *810:A 0.000162123
2 *812:A 2.2266e-05
3 *1027:X 0.00019972
4 *309:10 0.000384109
5 *810:A *810:B 5.21545e-05
6 *810:A *321:8 4.66108e-05
7 *810:A *345:21 2.97004e-06
8 *309:10 *1087:A 2.66586e-05
9 *309:10 *345:21 4.71151e-05
10 *813:A *309:10 3.1121e-05
11 *813:B *309:10 0
12 *815:A2 *309:10 1.14274e-05
13 *1027:A *309:10 2.89259e-05
14 *1039:A *810:A 4.99341e-06
15 *139:10 *810:A 6.11019e-05
16 *139:10 *309:10 4.43871e-06
17 *141:6 *812:A 4.82919e-05
18 *143:10 *810:A 3.04396e-05
*RES
1 *1027:X *309:10 6.72 
2 *309:10 *812:A 4.05 
3 *309:10 *810:A 6.84 
*END

*D_NET *310 0.00203507
*CONN
*I *887:A I *D sky130_fd_sc_hd__or2_1
*I *886:A I *D sky130_fd_sc_hd__nand2_1
*I *1028:X O *D sky130_fd_sc_hd__clkbuf_1
*CAP
1 *887:A 0.000154748
2 *886:A 0
3 *1028:X 0.000663488
4 *310:14 0.000818236
5 *887:A *346:22 7.25122e-05
6 *310:14 *344:16 0
7 *864:B *310:14 0
8 *874:B *887:A 0
9 *874:B *310:14 0
10 *924:A1 *887:A 0
11 *938:A *310:14 3.03684e-05
12 *999:D *310:14 0.000193251
13 *999:RESET_B *310:14 0
14 *1025:A *310:14 4.82919e-05
15 *192:10 *310:14 0
16 *202:6 *887:A 2.75145e-05
17 *215:10 *887:A 0
18 *215:21 *887:A 0
19 *307:8 *310:14 2.66586e-05
*RES
1 *1028:X *310:14 13.035 
2 *310:14 *886:A 3.6 
3 *310:14 *887:A 6.45 
*END

*D_NET *311 0.00140903
*CONN
*I *875:A I *D sky130_fd_sc_hd__nand2_1
*I *876:A I *D sky130_fd_sc_hd__or2_1
*I *1029:X O *D sky130_fd_sc_hd__clkbuf_1
*CAP
1 *875:A 4.28368e-05
2 *876:A 0.000188035
3 *1029:X 0.000245198
4 *311:8 0.000476069
5 *876:A *760:A 7.21296e-06
6 *876:A *875:B 0.000187766
7 *876:A *876:B 0.000186099
8 *311:8 *760:A 4.82919e-05
9 *877:A *875:A 0
10 *877:B *876:A 0
11 *204:6 *875:A 2.16917e-05
12 *204:6 *311:8 5.83121e-06
13 *205:10 *876:A 0
14 *206:10 *876:A 0
15 *245:10 *876:A 0
*RES
1 *1029:X *311:8 5.17 
2 *311:8 *876:A 10.04 
3 *311:8 *875:A 2.41 
*END

*D_NET *312 0.000783923
*CONN
*I *879:A I *D sky130_fd_sc_hd__nand2_1
*I *878:A I *D sky130_fd_sc_hd__or2_1
*I *1030:X O *D sky130_fd_sc_hd__clkbuf_1
*CAP
1 *879:A 0
2 *878:A 0.000101952
3 *1030:X 0.000129389
4 *312:8 0.000231341
5 *878:A *878:B 3.76596e-05
6 *312:8 *370:134 0.000142669
7 *928:A2 *878:A 0
8 *208:12 *878:A 0.000140912
9 *212:16 *878:A 0
*RES
1 *1030:X *312:8 4.39 
2 *312:8 *878:A 8 
3 *312:8 *879:A 1.6 
*END

*D_NET *313 0.00123888
*CONN
*I *881:A I *D sky130_fd_sc_hd__nand2_1
*I *882:A I *D sky130_fd_sc_hd__or2_1
*I *1031:X O *D sky130_fd_sc_hd__clkbuf_1
*CAP
1 *881:A 0
2 *882:A 0.000200099
3 *1031:X 6.12608e-05
4 *313:8 0.00026136
5 *882:A *881:B 0
6 *882:A *882:B 0
7 *882:A *370:32 6.31804e-05
8 *882:A *370:55 5.95498e-05
9 *882:A *370:134 1.22762e-05
10 *313:8 *762:A 9.72742e-06
11 *313:8 *881:B 2.15986e-05
12 *313:8 *370:55 0.000234192
13 *1003:RESET_B *882:A 0.000162318
14 *1031:A *313:8 5.05437e-05
15 *210:6 *882:A 8.65961e-05
16 *210:6 *313:8 1.61831e-05
*RES
1 *1031:X *313:8 4.045 
2 *313:8 *882:A 10.325 
3 *313:8 *881:A 1.6 
*END

*D_NET *314 0.002493
*CONN
*I *789:A I *D sky130_fd_sc_hd__nand2_1
*I *790:A I *D sky130_fd_sc_hd__or2_1
*I *1032:X O *D sky130_fd_sc_hd__clkbuf_1
*CAP
1 *789:A 0.000165914
2 *790:A 8.33112e-06
3 *1032:X 0.000433295
4 *314:10 0.00060754
5 *314:10 *776:A 5.16348e-05
6 *314:10 *790:B 8.53113e-06
7 *314:10 *1073:A 0
8 *314:10 *315:10 0.000252282
9 *314:10 *370:80 0.000186635
10 *782:B *314:10 0
11 *896:A1 *789:A 3.99153e-05
12 *896:A3 *314:10 1.71207e-05
13 *896:B1 *789:A 0.00010666
14 *897:A1 *789:A 0
15 *918:A2 *314:10 0
16 *106:10 *314:10 5.72091e-05
17 *110:23 *314:10 0
18 *118:6 *789:A 0.000199685
19 *118:17 *789:A 7.52909e-05
20 *118:17 *790:A 4.99619e-05
21 *224:8 *789:A 4.82919e-05
22 *224:8 *790:A 2.16833e-05
23 *224:12 *314:10 0.000163019
24 *240:10 *314:10 0
*RES
1 *1032:X *314:10 15.395 
2 *314:10 *790:A 2.05 
3 *314:10 *789:A 6.805 
*END

*D_NET *315 0.00193153
*CONN
*I *775:A I *D sky130_fd_sc_hd__nand2_1
*I *776:A I *D sky130_fd_sc_hd__or2_1
*I *1033:X O *D sky130_fd_sc_hd__clkbuf_1
*CAP
1 *775:A 0.000284532
2 *776:A 3.03378e-05
3 *1033:X 0.000163828
4 *315:10 0.000478698
5 *315:10 *766:A 4.35348e-05
6 *315:10 *370:63 0
7 *315:10 *370:106 3.00381e-05
8 *918:A1 *775:A 0.000303098
9 *918:A2 *775:A 2.29156e-05
10 *1006:RESET_B *315:10 0.000166346
11 *104:12 *775:A 0.000104286
12 *110:23 *315:10 0
13 *314:10 *776:A 5.16348e-05
14 *314:10 *315:10 0.000252282
*RES
1 *1033:X *315:10 7.905 
2 *315:10 *776:A 4.215 
3 *315:10 *775:A 8.22 
*END

*D_NET *316 0.00224237
*CONN
*I *779:A I *D sky130_fd_sc_hd__nand2_1
*I *780:A I *D sky130_fd_sc_hd__or2_1
*I *785:B1 I *D sky130_fd_sc_hd__o211a_1
*I *1034:X O *D sky130_fd_sc_hd__buf_1
*CAP
1 *779:A 0
2 *780:A 0.000122877
3 *785:B1 3.94146e-05
4 *1034:X 0.00014556
5 *316:29 0.000374813
6 *316:8 0.000436911
7 *780:A *1073:A 0
8 *780:A *353:16 7.60965e-05
9 *780:A *353:20 1.26626e-05
10 *785:B1 *786:A2 9.30717e-05
11 *785:B1 *318:18 2.68721e-05
12 *316:8 *766:A 0.000192125
13 *316:29 *766:A 4.07091e-05
14 *316:29 *786:A2 6.89933e-05
15 *316:29 *1075:A 0.000163204
16 *316:29 *353:20 0
17 *781:A *780:A 4.21314e-05
18 *781:A *316:29 3.45252e-05
19 *781:B *780:A 8.85944e-05
20 *787:A *785:B1 0.000139231
21 *921:A *780:A 0.000141606
22 *1034:A *316:29 2.97004e-06
23 *1036:A *316:29 0
*RES
1 *1034:X *316:8 5.43 
2 *316:8 *785:B1 5.235 
3 *316:8 *316:29 6.905 
4 *316:29 *780:A 9.14 
5 *316:29 *779:A 1.6 
*END

*D_NET *317 0.000619503
*CONN
*I *797:A I *D sky130_fd_sc_hd__or2_1
*I *796:A I *D sky130_fd_sc_hd__nand2_1
*I *1035:X O *D sky130_fd_sc_hd__clkbuf_1
*CAP
1 *797:A 0
2 *796:A 6.77475e-05
3 *1035:X 0.000124975
4 *317:10 0.000192723
5 *796:A *797:B 5.84828e-05
6 *317:10 *1058:A 0
7 *317:10 *334:10 0
8 *795:A *796:A 1.23763e-05
9 *795:B *317:10 0
10 *125:6 *796:A 0.000163199
*RES
1 *1035:X *317:10 7.235 
2 *317:10 *796:A 3.805 
3 *317:10 *797:A 1.6 
*END

*D_NET *318 0.00206479
*CONN
*I *786:A1 I *D sky130_fd_sc_hd__a211o_1
*I *785:A1 I *D sky130_fd_sc_hd__o211a_1
*I *778:A I *D sky130_fd_sc_hd__xnor2_1
*I *1036:X O *D sky130_fd_sc_hd__buf_1
*CAP
1 *786:A1 0
2 *785:A1 0
3 *778:A 0.000220986
4 *1036:X 0.0002481
5 *318:18 0.000336397
6 *318:8 0.000363511
7 *778:A *778:B 4.1688e-05
8 *778:A *785:A2 2.24411e-05
9 *778:A *785:C1 0.000164874
10 *778:A *353:8 0
11 *778:A *353:16 1.08758e-05
12 *778:A *354:8 2.22783e-05
13 *318:8 *766:A 9.27255e-06
14 *318:18 *766:A 4.66108e-05
15 *318:18 *786:A2 0.000134509
16 *785:B1 *318:18 2.68721e-05
17 *786:B1 *318:18 0.000180675
18 *1034:A *318:8 0.000199833
19 *1034:A *318:18 5.83121e-06
20 *1036:A *318:8 3.00381e-05
*RES
1 *1036:X *318:8 5.08 
2 *318:8 *318:18 6.955 
3 *318:18 *778:A 5.53 
4 *318:18 *785:A1 1.6 
5 *318:8 *786:A1 1.6 
*END

*D_NET *319 0.00229175
*CONN
*I *772:A I *D sky130_fd_sc_hd__nand2_1
*I *773:A I *D sky130_fd_sc_hd__or2_1
*I *1037:X O *D sky130_fd_sc_hd__clkbuf_1
*CAP
1 *772:A 1.77753e-05
2 *773:A 5.98407e-05
3 *1037:X 0.000775848
4 *319:16 0.000853464
5 *772:A *772:B 0
6 *773:A *355:19 1.56428e-05
7 *319:16 *1057:A 3.47498e-05
8 *319:16 *1077:A 2.69297e-05
9 *319:16 *355:19 1.19928e-05
10 *319:16 *359:10 1.67382e-05
11 *1011:D *319:16 1.7386e-05
12 *1011:RESET_B *319:16 3.67779e-05
13 *1037:A *319:16 3.38178e-05
14 *1038:A *319:16 5.20968e-05
15 *101:18 *773:A 2.50602e-05
16 *305:73 *773:A 0.000122325
17 *305:73 *319:16 0.000191302
*RES
1 *1037:X *319:16 16.67 
2 *319:16 *773:A 3.355 
3 *319:16 *772:A 2.215 
*END

*D_NET *320 0.00061274
*CONN
*I *899:A I *D sky130_fd_sc_hd__nor2_1
*I *900:A I *D sky130_fd_sc_hd__nand2_1
*I *1038:X O *D sky130_fd_sc_hd__clkbuf_1
*CAP
1 *899:A 1.80144e-05
2 *900:A 8.45608e-05
3 *1038:X 1.19067e-05
4 *320:6 0.000114482
5 *899:A *769:A 9.72742e-06
6 *899:A *356:18 5.70727e-05
7 *900:A *769:A 3.00381e-05
8 *900:A *900:B 4.99619e-05
9 *900:A *356:18 6.12198e-05
10 *320:6 *769:A 1.37328e-05
11 *901:A_N *900:A 0.00012657
12 *1038:A *899:A 5.4155e-06
13 *228:8 *900:A 3.00381e-05
*RES
1 *1038:X *320:6 1.96 
2 *320:6 *900:A 4.48 
3 *320:6 *899:A 2.755 
*END

*D_NET *321 0.000928112
*CONN
*I *809:A I *D sky130_fd_sc_hd__nor2_1
*I *808:A I *D sky130_fd_sc_hd__and2_1
*I *1039:X O *D sky130_fd_sc_hd__clkbuf_1
*CAP
1 *809:A 2.08101e-05
2 *808:A 6.18833e-05
3 *1039:X 0.000312065
4 *321:8 0.000394759
5 *808:A *357:15 4.82863e-05
6 *321:8 *810:B 2.75145e-05
7 *810:A *321:8 4.66108e-05
8 *138:12 *808:A 1.61831e-05
*RES
1 *1039:X *321:8 6.55 
2 *321:8 *808:A 2.74 
3 *321:8 *809:A 1.96 
*END

*D_NET *322 0.000899864
*CONN
*I *905:A I *D sky130_fd_sc_hd__nand2_1
*I *904:A I *D sky130_fd_sc_hd__nor2_1
*I *1040:X O *D sky130_fd_sc_hd__clkbuf_1
*CAP
1 *905:A 0
2 *904:A 2.89741e-05
3 *1040:X 0.000244405
4 *322:12 0.00027338
5 *904:A *904:B 2.49909e-05
6 *322:12 *912:A 0.000211261
7 *322:12 *1078:A 0.000116853
*RES
1 *1040:X *322:12 9.5 
2 *322:12 *904:A 2.05 
3 *322:12 *905:A 1.6 
*END

*D_NET *323 0.00201925
*CONN
*I *912:A I *D sky130_fd_sc_hd__xnor2_1
*I *1041:X O *D sky130_fd_sc_hd__clkbuf_1
*CAP
1 *912:A 0.000429381
2 *1041:X 0.000429381
3 *912:A *769:A 0.000661142
4 *912:A *905:B 8.08153e-06
5 *912:A *1078:A 3.76674e-05
6 *912:A *358:10 6.74234e-05
7 *913:B *912:A 3.00381e-05
8 *1010:RESET_B *912:A 0.000144877
9 *322:12 *912:A 0.000211261
*RES
1 *1041:X *912:A 18.015 
*END

*D_NET *324 0.00275724
*CONN
*I *832:A1 I *D sky130_fd_sc_hd__o221ai_4
*I *819:A1 I *D sky130_fd_sc_hd__o22ai_1
*I *817:A1 I *D sky130_fd_sc_hd__a21o_1
*I *818:A I *D sky130_fd_sc_hd__xor2_1
*I *1042:X O *D sky130_fd_sc_hd__clkbuf_2
*CAP
1 *832:A1 0.000116444
2 *819:A1 0
3 *817:A1 0
4 *818:A 0.000114074
5 *1042:X 0.000361982
6 *324:16 0.000221655
7 *324:10 0.000150512
8 *324:6 0.000521356
9 *832:A1 *818:B 1.71013e-05
10 *832:A1 *360:38 6.36656e-05
11 *324:6 *974:A 0.000160635
12 *324:6 *330:18 0.000287532
13 *324:10 *330:18 1.34503e-05
14 *324:16 *817:A2 6.75975e-05
15 *324:16 *330:18 0.000225267
16 *817:B1 *818:A 7.17811e-05
17 *819:B1 *324:16 8.65961e-05
18 *819:B2 *324:16 0.000163204
19 *832:B2 *324:16 4.66108e-05
20 *954:A *832:A1 1.22676e-05
21 *148:8 *832:A1 7.21296e-06
22 *159:23 *832:A1 0
23 *303:60 *818:A 4.82919e-05
*RES
1 *1042:X *324:6 8.95 
2 *324:6 *324:10 0.81 
3 *324:10 *324:16 4.02 
4 *324:16 *818:A 7.685 
5 *324:16 *817:A1 1.6 
6 *324:10 *819:A1 1.6 
7 *324:6 *832:A1 7.745 
*END

*D_NET *325 0.00111014
*CONN
*I *828:A I *D sky130_fd_sc_hd__nand2_1
*I *829:A I *D sky130_fd_sc_hd__or2_1
*I *1043:X O *D sky130_fd_sc_hd__clkbuf_1
*CAP
1 *828:A 3.15126e-05
2 *829:A 0.000249318
3 *1043:X 0
4 *325:6 0.000280831
5 *828:A *972:A 2.42236e-05
6 *828:A *360:25 2.75229e-05
7 *828:A *362:21 1.52945e-05
8 *829:A *829:B 5.42217e-05
9 *829:A *972:A 0.000106218
10 *829:A *1082:A 0
11 *984:RESET_B *829:A 0.000163985
12 *1043:A *828:A 4.82919e-05
13 *157:8 *828:A 5.53249e-06
14 *157:8 *829:A 7.26551e-05
15 *157:18 *829:A 3.05373e-05
*RES
1 *1043:X *325:6 3.6 
2 *325:6 *829:A 9.36 
3 *325:6 *828:A 4.665 
*END

*D_NET *326 0.00151981
*CONN
*I *826:A I *D sky130_fd_sc_hd__or2_1
*I *825:A I *D sky130_fd_sc_hd__nand2_1
*I *1044:X O *D sky130_fd_sc_hd__clkbuf_1
*CAP
1 *826:A 0.000312544
2 *825:A 0.000121359
3 *1044:X 6.42973e-05
4 *326:10 0.0004982
5 *825:A *972:A 7.15931e-05
6 *825:A *363:10 0
7 *825:A *369:52 0.000250133
8 *826:A *826:B 2.75145e-05
9 *826:A *972:A 1.56428e-05
10 *326:10 *972:A 7.06865e-05
11 *326:10 *975:A 2.49909e-05
12 *326:10 *369:52 6.28498e-05
*RES
1 *1044:X *326:10 4.92 
2 *326:10 *825:A 6.51 
3 *326:10 *826:A 7.17 
*END

*D_NET *327 0.00182555
*CONN
*I *963:A1 I *D sky130_fd_sc_hd__a21oi_1
*I *833:A1 I *D sky130_fd_sc_hd__a21oi_1
*I *820:A I *D sky130_fd_sc_hd__xnor2_1
*I *1045:X O *D sky130_fd_sc_hd__buf_1
*CAP
1 *963:A1 0.000113613
2 *833:A1 0
3 *820:A 0.000137244
4 *1045:X 8.10783e-05
5 *327:22 0.000376182
6 *327:8 0.000433629
7 *820:A *1021:A 0
8 *820:A *1085:A 2.16917e-05
9 *820:A *364:14 0.000189569
10 *327:22 *1085:A 0.00012564
11 acc[6] *327:22 4.82919e-05
12 *833:B1 *820:A 4.05358e-05
13 *833:B1 *327:8 0.0001249
14 *833:B1 *327:22 4.99619e-05
15 *834:B1 *820:A 5.63405e-05
16 *834:B1 *963:A1 0
17 *834:B1 *327:22 0
18 *1045:A *820:A 2.68721e-05
19 *151:16 *963:A1 0
20 *151:16 *327:22 0
*RES
1 *1045:X *327:8 4.74 
2 *327:8 *327:22 5.975 
3 *327:22 *820:A 8.96 
4 *327:22 *833:A1 1.6 
5 *327:8 *963:A1 5.235 
*END

*D_NET *328 0.00177335
*CONN
*I *793:A I *D sky130_fd_sc_hd__nor2_1
*I *792:A I *D sky130_fd_sc_hd__nand2_1
*I *794:A I *D sky130_fd_sc_hd__or2_1
*I *1046:X O *D sky130_fd_sc_hd__clkbuf_1
*CAP
1 *793:A 7.80912e-05
2 *792:A 0
3 *794:A 7.01055e-05
4 *1046:X 4.0326e-05
5 *328:23 0.000377469
6 *328:8 0.00040981
7 *793:A *792:B 7.08489e-05
8 *793:A *335:8 0
9 *793:A *335:12 8.05245e-05
10 *794:A *1059:A 4.82863e-05
11 *328:23 *1088:A 0
12 *328:23 *331:10 0
13 *328:23 *335:22 0
14 acc[11] *794:A 0.000200615
15 *1046:A *794:A 8.65905e-05
16 *1046:A *328:8 4.82919e-05
17 *1046:A *328:23 1.0183e-05
18 *121:12 *793:A 0.000124007
19 *124:23 *328:23 0.000128197
*RES
1 *1046:X *328:8 2.41 
2 *328:8 *794:A 3.775 
3 *328:8 *328:23 9.235 
4 *328:23 *792:A 1.6 
5 *328:23 *793:A 4.4125 
*END

*D_NET *329 0.000800798
*CONN
*I *822:A I *D sky130_fd_sc_hd__nor2_1
*I *821:A I *D sky130_fd_sc_hd__and2_1
*I *1047:X O *D sky130_fd_sc_hd__clkbuf_1
*CAP
1 *822:A 4.97545e-05
2 *821:A 0.000185004
3 *1047:X 3.20504e-05
4 *329:6 0.000266809
5 *821:A *821:B 0.000164294
6 *821:A *365:12 0
7 *821:A *365:16 1.17409e-05
8 *822:A *365:16 5.4155e-06
9 *329:6 *365:16 9.27255e-06
10 *823:A *822:A 0
11 *987:CLK *821:A 3.47668e-05
12 *1047:A *329:6 4.9253e-06
13 *151:8 *821:A 7.00889e-06
14 *151:8 *822:A 0
15 *156:10 *821:A 2.97561e-05
*RES
1 *1047:X *329:6 2.05 
2 *329:6 *821:A 9.47 
3 *329:6 *822:A 2.47 
*END

*D_NET *330 0.00316918
*CONN
*I *805:A I *D sky130_fd_sc_hd__nand2_1
*I *806:A I *D sky130_fd_sc_hd__or2_1
*I *1048:X O *D sky130_fd_sc_hd__clkbuf_1
*CAP
1 *805:A 0
2 *806:A 5.224e-05
3 *1048:X 0.00101578
4 *330:18 0.00106802
5 *806:A *806:B 4.82863e-05
6 *330:18 *817:A2 1.33293e-05
7 *330:18 *974:A 0.000160635
8 *330:18 *979:A 0
9 *330:18 *366:10 4.43871e-06
10 *819:B1 *330:18 8.65961e-05
11 *134:10 *806:A 4.35432e-05
12 *134:10 *330:18 2.66935e-05
13 *303:27 *330:18 8.65905e-05
14 *303:60 *330:18 3.67779e-05
15 *324:6 *330:18 0.000287532
16 *324:10 *330:18 1.34503e-05
17 *324:16 *330:18 0.000225267
*RES
1 *1048:X *330:18 20.675 
2 *330:18 *806:A 2.74 
3 *330:18 *805:A 1.6 
*END

*D_NET *331 0.00100079
*CONN
*I *800:A I *D sky130_fd_sc_hd__or2_1
*I *799:A I *D sky130_fd_sc_hd__nand2_1
*I *1049:X O *D sky130_fd_sc_hd__clkbuf_1
*CAP
1 *800:A 7.95842e-05
2 *799:A 0
3 *1049:X 0.000282747
4 *331:10 0.000362331
5 *800:A *800:B 4.24643e-05
6 *800:A *368:142 3.23663e-05
7 *331:10 *1088:A 0.000201296
8 *124:23 *331:10 0
9 *328:23 *331:10 0
*RES
1 *1049:X *331:10 11.315 
2 *331:10 *799:A 1.6 
3 *331:10 *800:A 3.1 
*END

*D_NET *332 0.0142837
*CONN
*I *1023:A I *D sky130_fd_sc_hd__buf_2
*I *1021:A I *D sky130_fd_sc_hd__buf_2
*I *1022:A I *D sky130_fd_sc_hd__buf_4
*I *1020:A I *D sky130_fd_sc_hd__buf_4
*I *1050:X O *D sky130_fd_sc_hd__dlymetal6s2s_1
*CAP
1 *1023:A 0.000470294
2 *1021:A 0.00133437
3 *1022:A 8.11427e-05
4 *1020:A 0
5 *1050:X 0.000364068
6 *332:52 0.00277394
7 *332:43 0.00254535
8 *332:14 0.001859
9 *1021:A *979:A 0
10 *1021:A *1088:A 0
11 *1021:A *364:14 0
12 *1021:A *367:10 0
13 *1021:A *369:12 0.000112971
14 *1021:A *369:27 0
15 *1022:A *370:8 1.16578e-05
16 *332:14 *753:A 9.863e-05
17 *332:14 *338:10 0
18 *332:43 *757:A 0.000187766
19 *332:43 *847:A 0.000244653
20 *332:43 *847:B 2.8001e-05
21 *332:43 *1060:A 0.000306728
22 *332:43 *336:10 2.86895e-05
23 *332:43 *336:38 7.9474e-05
24 *332:43 *368:10 8.40269e-05
25 *332:43 *368:42 0.000313852
26 *332:43 *368:65 4.66108e-05
27 *332:43 *368:74 1.91597e-05
28 *332:52 *370:8 4.82863e-05
29 *820:A *1021:A 0
30 *834:B1 *1021:A 0
31 *837:A1 *1021:A 2.23407e-05
32 *855:A2 *332:43 0.000172137
33 *856:A2 *332:43 0.000196738
34 *856:C1 *332:43 0
35 *940:A1 *332:43 0.000197329
36 *945:A *332:43 5.55591e-05
37 *953:B *332:43 8.53113e-06
38 *963:B1 *1021:A 0
39 *982:CLK *1021:A 0
40 *986:D *1021:A 3.86607e-05
41 *986:RESET_B *1021:A 9.30717e-05
42 *989:RESET_B *1021:A 0.000162325
43 *994:D *332:14 7.3664e-05
44 *996:RESET_B *332:43 0
45 *1045:A *1021:A 0
46 *128:10 *1021:A 0
47 *164:10 *1021:A 0.000181383
48 *164:23 *1021:A 0.000220445
49 *178:8 *332:43 8.12896e-06
50 *179:10 *332:43 0.000122325
51 *184:14 *332:43 0.000305761
52 *198:18 *332:43 0.000646748
53 *263:10 *1021:A 0
54 *301:10 *1021:A 0.00029878
55 *301:28 *1021:A 0.000132631
56 *302:57 *332:43 0.000308443
*RES
1 *1050:X *332:14 11.495 
2 *332:14 *1020:A 1.6 
3 *332:14 *332:43 41.54 
4 *332:43 *1022:A 2.74 
5 *332:43 *332:52 14.595 
6 *332:52 *1021:A 32.48 
7 *332:52 *1023:A 8.605 
*END

*D_NET *333 0.0040392
*CONN
*I *1057:A I *D sky130_fd_sc_hd__buf_2
*I *814:B I *D sky130_fd_sc_hd__nand2_1
*I *970:B I *D sky130_fd_sc_hd__or2_1
*I *980:Q O *D sky130_fd_sc_hd__dfrtp_1
*CAP
1 *1057:A 0.000655906
2 *814:B 7.39652e-05
3 *970:B 0.000121402
4 *980:Q 0.000106683
5 *333:25 0.000818785
6 *333:8 0.000316999
7 *814:B *371:24 3.95724e-05
8 *970:B *1079:A 2.11084e-05
9 *1057:A *905:B 2.78732e-05
10 *1057:A *912:B 0.000189426
11 *1057:A *1078:A 0.000125603
12 *1057:A *1080:A 5.75074e-05
13 *1057:A *358:10 0.00011741
14 *1057:A *359:10 0.00011852
15 *1057:A *371:32 0.000129047
16 *333:25 *371:32 3.09164e-05
17 acc[28] *1057:A 0.000141599
18 acc[29] *1057:A 6.24871e-05
19 acc[30] *1057:A 7.89689e-05
20 acc[31] *1057:A 2.10433e-05
21 *970:A *333:25 1.46411e-05
22 *980:RESET_B *970:B 9.84957e-05
23 *980:RESET_B *333:8 1.0063e-05
24 *980:RESET_B *333:25 7.23602e-05
25 *1010:RESET_B *1057:A 2.3958e-05
26 *1011:RESET_B *1057:A 0.000135415
27 *1024:A *1057:A 4.41811e-05
28 *1038:A *1057:A 0.00011686
29 *1038:A *333:25 8.01575e-05
30 *1040:A *1057:A 0
31 *143:8 *970:B 0.000118496
32 *143:8 *333:25 3.50033e-05
33 *319:16 *1057:A 3.47498e-05
*RES
1 *980:Q *333:8 4.74 
2 *333:8 *970:B 6.45 
3 *333:8 *333:25 2.445 
4 *333:25 *814:B 4.755 
5 *333:25 *1057:A 20.22 
*END

*D_NET *334 0.00162036
*CONN
*I *797:B I *D sky130_fd_sc_hd__or2_1
*I *796:B I *D sky130_fd_sc_hd__nand2_1
*I *1058:A I *D sky130_fd_sc_hd__buf_2
*I *990:Q O *D sky130_fd_sc_hd__dfrtp_1
*CAP
1 *797:B 0.000102368
2 *796:B 0
3 *1058:A 0.000219512
4 *990:Q 0.000370426
5 *334:23 0.000102368
6 *334:10 0.000589939
7 *1058:A *1060:A 0
8 *334:10 *1060:A 0
9 *334:10 *368:82 0
10 acc[10] *1058:A 7.00889e-06
11 *796:A *797:B 5.84828e-05
12 *952:A2 *334:10 0
13 *953:A *797:B 1.03423e-05
14 *986:CLK *334:10 0
15 *990:D *334:10 4.82919e-05
16 *990:RESET_B *334:10 0
17 *991:RESET_B *334:10 9.54399e-05
18 *125:6 *797:B 1.61831e-05
19 *126:12 *334:10 0
20 *317:10 *1058:A 0
21 *317:10 *334:10 0
*RES
1 *990:Q *334:10 9.51 
2 *334:10 *1058:A 6.795 
3 *334:10 *334:23 2 
4 *334:23 *796:B 1.6 
5 *334:23 *797:B 3.445 
*END

*D_NET *335 0.00160707
*CONN
*I *793:B I *D sky130_fd_sc_hd__nor2_1
*I *792:B I *D sky130_fd_sc_hd__nand2_1
*I *1059:A I *D sky130_fd_sc_hd__buf_2
*I *794:B I *D sky130_fd_sc_hd__or2_1
*I *991:Q O *D sky130_fd_sc_hd__dfrtp_1
*CAP
1 *793:B 0
2 *792:B 1.85966e-05
3 *1059:A 2.32323e-05
4 *794:B 0
5 *991:Q 0.000150973
6 *335:22 0.000215687
7 *335:12 0.00029251
8 *335:8 0.000232431
9 *793:A *792:B 7.08489e-05
10 *793:A *335:8 0
11 *793:A *335:12 8.05245e-05
12 *794:A *1059:A 4.82863e-05
13 *795:B *335:22 0
14 *804:A1 *335:12 4.82863e-05
15 *1012:A *335:22 0.000171562
16 *1046:A *335:22 8.53113e-06
17 *121:12 *335:8 2.75229e-05
18 *121:12 *335:12 1.12578e-05
19 *124:23 *335:22 0.000206824
20 *328:23 *335:22 0
*RES
1 *991:Q *335:8 3.79 
2 *335:8 *335:12 1.845 
3 *335:12 *335:22 8.485 
4 *335:22 *794:B 1.6 
5 *335:22 *1059:A 2.05 
6 *335:12 *792:B 2.53 
7 *335:8 *793:B 1.6 
*END

*D_NET *336 0.00563935
*CONN
*I *853:B I *D sky130_fd_sc_hd__or2_1
*I *857:A2 I *D sky130_fd_sc_hd__a31o_1
*I *852:B I *D sky130_fd_sc_hd__nand2_1
*I *1060:A I *D sky130_fd_sc_hd__buf_2
*I *992:Q O *D sky130_fd_sc_hd__dfrtp_1
*CAP
1 *853:B 0
2 *857:A2 0.000190347
3 *852:B 0.000234833
4 *1060:A 0.000440573
5 *992:Q 0.000268441
6 *336:38 0.00056891
7 *336:10 0.000746013
8 *336:8 0.00071761
9 *852:B *852:A 3.50152e-06
10 *857:A2 *852:A 3.25831e-05
11 *857:A2 *853:A 0.000374577
12 *1060:A *340:30 0
13 *1060:A *368:82 0.000318473
14 *336:38 *853:A 7.46591e-05
15 *854:B *852:B 4.89295e-05
16 *854:B *857:A2 0
17 *854:B *336:38 2.64607e-05
18 *855:A1 *336:8 1.0418e-05
19 *855:A2 *336:10 9.54469e-05
20 *855:A2 *336:38 7.26694e-05
21 *855:B1 *336:8 5.83121e-06
22 *855:C1 *336:10 6.10014e-05
23 *855:C1 *336:38 4.13249e-05
24 *940:A1 *852:B 8.51879e-05
25 *940:B1_N *857:A2 0
26 *953:B *1060:A 0.000314178
27 *990:RESET_B *1060:A 0.000139245
28 *992:D *336:8 0.000134938
29 *997:CLK *857:A2 0
30 *1058:A *1060:A 0
31 *168:14 *852:B 3.66286e-05
32 *168:14 *336:38 0
33 *181:6 *852:B 4.99619e-05
34 *183:8 *852:B 4.40028e-05
35 *186:10 *857:A2 0
36 *302:16 *1060:A 8.77073e-05
37 *332:43 *1060:A 0.000306728
38 *332:43 *336:10 2.86895e-05
39 *332:43 *336:38 7.9474e-05
40 *334:10 *1060:A 0
*RES
1 *992:Q *336:8 6.81 
2 *336:8 *336:10 1.89 
3 *336:10 *1060:A 15.69 
4 *336:10 *852:B 7.62 
5 *336:8 *336:38 8.555 
6 *336:38 *857:A2 9.92 
7 *336:38 *853:B 1.6 
*END

*D_NET *337 0.00370449
*CONN
*I *841:B I *D sky130_fd_sc_hd__or2_1
*I *840:B I *D sky130_fd_sc_hd__nand2_1
*I *1061:A I *D sky130_fd_sc_hd__buf_2
*I *993:Q O *D sky130_fd_sc_hd__dfrtp_1
*CAP
1 *841:B 0.000724154
2 *840:B 0.00024636
3 *1061:A 0.00046752
4 *993:Q 0
5 *337:8 0.00078681
6 *337:4 0.000797085
7 *840:B *752:A 4.82863e-05
8 *840:B *840:A 5.05297e-06
9 *840:B *350:6 0.000108357
10 *1061:A *752:A 0
11 *1061:A *1062:A 0
12 *1061:A *338:19 0
13 *1061:A *361:8 0
14 acc[13] *1061:A 1.92979e-05
15 acc[14] *1061:A 0.000106344
16 *942:A1 *840:B 0
17 *942:A2 *841:B 6.02123e-05
18 *993:D *841:B 4.58257e-05
19 *993:RESET_B *337:8 0
20 *1052:A *1061:A 0
21 *1052:A *337:8 0
22 *1053:A *840:B 5.30673e-05
23 *1053:A *1061:A 0
24 *302:32 *841:B 0.000236121
*RES
1 *993:Q *337:4 1.6 
2 *337:4 *337:8 3.125 
3 *337:8 *1061:A 11.475 
4 *337:8 *840:B 7.965 
5 *337:4 *841:B 14.675 
*END

*D_NET *338 0.00173364
*CONN
*I *1062:A I *D sky130_fd_sc_hd__buf_2
*I *843:B I *D sky130_fd_sc_hd__or2_1
*I *844:B I *D sky130_fd_sc_hd__nand2_1
*I *994:Q O *D sky130_fd_sc_hd__dfrtp_1
*CAP
1 *1062:A 0.000115585
2 *843:B 7.28344e-05
3 *844:B 0
4 *994:Q 0.000371514
5 *338:19 0.000273283
6 *338:10 0.000456378
7 *843:B *843:A 1.08758e-05
8 *1062:A *844:A 5.16348e-05
9 *1062:A *361:8 0.000131408
10 *338:10 *844:A 9.50342e-06
11 *338:19 *844:A 0.000189426
12 acc[13] *338:19 6.63219e-06
13 acc[14] *1062:A 4.05569e-05
14 *856:A1 *843:B 4.00541e-06
15 *994:RESET_B *338:10 0
16 *1050:A *338:10 0
17 *1061:A *1062:A 0
18 *1061:A *338:19 0
19 *332:14 *338:10 0
*RES
1 *994:Q *338:10 8.505 
2 *338:10 *844:B 3.6 
3 *338:10 *338:19 2.145 
4 *338:19 *843:B 4.755 
5 *338:19 *1062:A 6.195 
*END

*D_NET *339 0.00353221
*CONN
*I *857:A1 I *D sky130_fd_sc_hd__a31o_1
*I *853:A I *D sky130_fd_sc_hd__or2_1
*I *852:A I *D sky130_fd_sc_hd__nand2_1
*I *1051:X O *D sky130_fd_sc_hd__buf_1
*CAP
1 *857:A1 0
2 *853:A 0.000263415
3 *852:A 0.000240073
4 *1051:X 0.000823047
5 *339:10 0.000503488
6 *339:8 0.000823047
7 *852:B *852:A 3.50152e-06
8 *857:A2 *852:A 3.25831e-05
9 *857:A2 *853:A 0.000374577
10 *857:B1 *852:A 0.000161623
11 *857:B1 *853:A 2.30797e-05
12 *857:B1 *339:8 3.26889e-05
13 *940:B1_N *852:A 0
14 *941:A *852:A 7.43984e-05
15 *941:B *852:A 5.02217e-05
16 *942:A2 *339:8 1.83463e-05
17 *993:D *852:A 0
18 *997:CLK *853:A 0
19 *180:14 *339:8 3.34652e-05
20 *336:38 *853:A 7.46591e-05
*RES
1 *1051:X *339:8 10.945 
2 *339:8 *339:10 2 
3 *339:10 *852:A 8.28 
4 *339:10 *853:A 8.445 
5 *339:8 *857:A1 1.6 
*END

*D_NET *340 0.00221098
*CONN
*I *846:B I *D sky130_fd_sc_hd__nand2_1
*I *847:B I *D sky130_fd_sc_hd__nor2_1
*I *1063:A I *D sky130_fd_sc_hd__buf_2
*I *848:B I *D sky130_fd_sc_hd__or2_1
*I *995:Q O *D sky130_fd_sc_hd__dfrtp_1
*CAP
1 *846:B 0
2 *847:B 7.94366e-05
3 *1063:A 0
4 *848:B 7.81273e-05
5 *995:Q 7.14844e-05
6 *340:30 0.000291146
7 *340:12 0.000132239
8 *340:8 0.000337306
9 *847:B *847:A 3.01743e-05
10 *847:B *372:37 6.41983e-05
11 *848:B *848:A 0.00023603
12 *340:8 *372:37 1.08758e-05
13 *340:12 *372:37 6.99988e-05
14 *340:30 *372:37 0.000144622
15 acc[15] *848:B 6.15591e-05
16 acc[15] *340:12 0
17 *849:B *847:B 4.77719e-05
18 *849:B *848:B 4.30166e-05
19 *849:B *340:12 9.37731e-05
20 *849:B *340:30 3.46262e-05
21 *856:C1 *340:30 9.50342e-06
22 *953:B *340:30 0
23 *995:RESET_B *340:8 1.91939e-05
24 *1054:A *848:B 8.49205e-05
25 *1054:A *340:12 1.42807e-05
26 *1060:A *340:30 0
27 *175:8 *847:B 3.70488e-05
28 *178:8 *847:B 0.000191645
29 *332:43 *847:B 2.8001e-05
*RES
1 *995:Q *340:8 4.395 
2 *340:8 *340:12 3.635 
3 *340:12 *848:B 4.465 
4 *340:12 *1063:A 1.6 
5 *340:8 *340:30 5.105 
6 *340:30 *847:B 4.495 
7 *340:30 *846:B 1.6 
*END

*D_NET *341 0.00332866
*CONN
*I *866:B I *D sky130_fd_sc_hd__nand2_1
*I *872:A2 I *D sky130_fd_sc_hd__a31o_1
*I *1064:A I *D sky130_fd_sc_hd__buf_2
*I *867:B I *D sky130_fd_sc_hd__or2_1
*I *996:Q O *D sky130_fd_sc_hd__dfrtp_1
*CAP
1 *866:B 0
2 *872:A2 0
3 *1064:A 0.000170885
4 *867:B 0
5 *996:Q 0.000209083
6 *341:27 0.00031254
7 *341:23 0.000512588
8 *341:12 0.000580016
9 *1064:A *373:6 0.000241483
10 *341:23 *867:A 0.000367448
11 *341:23 *373:21 3.28565e-05
12 *341:27 *872:A1 9.53428e-06
13 *341:27 *373:6 2.05056e-05
14 *341:27 *373:21 0.000285842
15 acc[16] *1064:A 2.28346e-05
16 *872:A3 *1064:A 1.61831e-05
17 *872:A3 *341:27 0.000167502
18 *872:B1 *341:27 4.82863e-05
19 *873:C1 *1064:A 4.91189e-05
20 *930:A *341:12 0.000122202
21 *1055:A *1064:A 1.43521e-05
22 *193:8 *1064:A 0
23 *197:6 *341:12 2.86975e-05
24 *197:6 *341:23 2.58336e-05
25 *197:19 *341:12 2.68464e-05
26 *198:18 *341:12 5.79482e-05
27 *247:14 *341:12 6.07575e-06
*RES
1 *996:Q *341:12 9.665 
2 *341:12 *867:B 1.6 
3 *341:12 *341:23 5.565 
4 *341:23 *341:27 4.26 
5 *341:27 *1064:A 9.92 
6 *341:27 *872:A2 1.6 
7 *341:23 *866:B 1.6 
*END

*D_NET *342 0.00183904
*CONN
*I *859:B I *D sky130_fd_sc_hd__xnor2_1
*I *1065:A I *D sky130_fd_sc_hd__buf_2
*I *935:A2 I *D sky130_fd_sc_hd__a21o_1
*I *871:B I *D sky130_fd_sc_hd__and3_1
*I *997:Q O *D sky130_fd_sc_hd__dfrtp_1
*CAP
1 *859:B 0.00016754
2 *1065:A 0
3 *935:A2 0.000137035
4 *871:B 0
5 *997:Q 8.41205e-05
6 *342:16 0.000413748
7 *342:12 0.000355988
8 *342:8 0.000330936
9 *859:B *871:A 0
10 *935:A2 *871:A 1.01661e-05
11 acc[17] *935:A2 0
12 acc[17] *342:8 7.4027e-05
13 *871:C *935:A2 0.000118586
14 *871:C *342:16 1.54061e-06
15 *872:B1 *935:A2 0.000117832
16 *935:B1 *935:A2 0
17 *1056:A *859:B 2.75229e-05
*RES
1 *997:Q *342:8 5.235 
2 *342:8 *342:12 3.14 
3 *342:12 *342:16 3.39 
4 *342:16 *871:B 1.6 
5 *342:16 *935:A2 8.705 
6 *342:12 *1065:A 1.6 
7 *342:8 *859:B 6.195 
*END

*D_NET *343 0.00429165
*CONN
*I *1066:A I *D sky130_fd_sc_hd__buf_2
*I *870:C1 I *D sky130_fd_sc_hd__o211a_1
*I *861:B I *D sky130_fd_sc_hd__nand2_1
*I *860:B I *D sky130_fd_sc_hd__or2_1
*I *998:Q O *D sky130_fd_sc_hd__dfrtp_1
*CAP
1 *1066:A 0
2 *870:C1 0.000168506
3 *861:B 0.00022021
4 *860:B 4.42597e-05
5 *998:Q 0.0011368
6 *343:33 0.000436906
7 *343:22 0.000275543
8 *343:16 0.00131989
9 acc[18] *343:22 1.79536e-05
10 *861:A *861:B 6.52265e-05
11 *870:B1 *870:C1 6.18754e-05
12 *873:C1 *343:22 0
13 *873:C1 *343:33 0
14 *937:A1 *343:16 1.83847e-05
15 *937:A2 *343:16 9.2741e-05
16 *937:B1_N *343:16 8.51589e-06
17 *998:CLK *343:16 8.29385e-05
18 *998:D *343:16 0.000103775
19 *1025:A *870:C1 0
20 *1028:A *870:C1 0
21 *189:10 *861:B 1.34503e-05
22 *307:16 *860:B 7.00889e-06
23 *307:16 *861:B 8.65961e-05
24 *307:16 *870:C1 0.00011398
25 *307:16 *343:33 1.70935e-05
*RES
1 *998:Q *343:16 15.925 
2 *343:16 *343:22 4.775 
3 *343:22 *860:B 4.395 
4 *343:22 *343:33 0.87 
5 *343:33 *861:B 7.425 
6 *343:33 *870:C1 7.275 
7 *343:16 *1066:A 1.6 
*END

*D_NET *344 0.00370663
*CONN
*I *863:B I *D sky130_fd_sc_hd__xnor2_1
*I *873:A2 I *D sky130_fd_sc_hd__a211oi_1
*I *1067:A I *D sky130_fd_sc_hd__buf_2
*I *870:A2 I *D sky130_fd_sc_hd__o211a_1
*I *999:Q O *D sky130_fd_sc_hd__dfrtp_1
*CAP
1 *863:B 0
2 *873:A2 0
3 *1067:A 0.000586623
4 *870:A2 0.000162169
5 *999:Q 0.000232815
6 *344:33 0.000699066
7 *344:16 0.000507428
8 *1067:A *760:A 0.000562926
9 *1067:A *875:B 3.14324e-05
10 *1067:A *876:B 7.75325e-05
11 *1067:A *1069:A 0.000122337
12 *1067:A *1070:A 0
13 *1067:A *348:12 0
14 *344:33 *1069:A 4.82863e-05
15 *344:33 *346:22 0
16 *863:A *870:A2 8.65961e-05
17 *863:A *344:16 3.83041e-05
18 *870:A1 *870:A2 0.000198939
19 *873:C1 *344:16 0
20 *1001:RESET_B *1067:A 9.71067e-05
21 *1026:A *1067:A 0
22 *192:10 *344:16 0
23 *202:6 *1067:A 7.22354e-05
24 *202:6 *344:33 2.05056e-05
25 *308:10 *1067:A 3.31204e-05
26 *308:14 *1067:A 2.7881e-05
27 *308:14 *344:33 0.000101325
28 *310:14 *344:16 0
*RES
1 *999:Q *344:16 9.275 
2 *344:16 *870:A2 4.825 
3 *344:16 *344:33 6.595 
4 *344:33 *1067:A 19.085 
5 *344:33 *873:A2 1.6 
6 *344:16 *863:B 1.6 
*END

*D_NET *345 0.00408544
*CONN
*I *810:B I *D sky130_fd_sc_hd__nand2_1
*I *812:B I *D sky130_fd_sc_hd__nor2_1
*I *1068:A I *D sky130_fd_sc_hd__buf_2
*I *981:Q O *D sky130_fd_sc_hd__dfrtp_1
*CAP
1 *810:B 0.000211749
2 *812:B 0
3 *1068:A 0.00104481
4 *981:Q 7.56888e-05
5 *345:21 0.000420479
6 *345:8 0.00132923
7 *1068:A *972:A 0
8 *1068:A *1082:A 0.000240908
9 *1068:A *360:10 6.02447e-05
10 *345:21 *972:A 0
11 acc[3] *1068:A 2.05641e-05
12 acc[4] *1068:A 0.000113775
13 acc[5] *1068:A 2.28346e-05
14 acc[8] *345:21 3.12639e-05
15 *810:A *810:B 5.21545e-05
16 *810:A *345:21 2.97004e-06
17 *827:B *1068:A 0.000118527
18 *830:B *1068:A 7.28401e-05
19 *981:RESET_B *1068:A 0
20 *981:RESET_B *345:21 0
21 *1027:A *345:21 0
22 *1042:A *1068:A 4.4123e-05
23 *1043:A *1068:A 3.97211e-05
24 *1048:A *1068:A 0.000108934
25 *309:10 *345:21 4.71151e-05
26 *321:8 *810:B 2.75145e-05
*RES
1 *981:Q *345:8 4.395 
2 *345:8 *1068:A 24.315 
3 *345:8 *345:21 3.675 
4 *345:21 *812:B 3.6 
5 *345:21 *810:B 7.08 
*END

*D_NET *346 0.00403623
*CONN
*I *886:B I *D sky130_fd_sc_hd__nand2_1
*I *887:B I *D sky130_fd_sc_hd__or2_1
*I *1069:A I *D sky130_fd_sc_hd__buf_2
*I *1000:Q O *D sky130_fd_sc_hd__dfrtp_1
*CAP
1 *886:B 2.08101e-05
2 *887:B 0
3 *1069:A 0.000327307
4 *1000:Q 0.000936207
5 *346:22 0.000550886
6 *346:14 0.0011806
7 *874:A *346:14 8.12896e-06
8 *887:A *346:22 7.25122e-05
9 *923:A *346:14 0.00011378
10 *923:B *346:14 4.60061e-05
11 *924:A1 *346:14 6.12852e-05
12 *1000:CLK *346:14 9.80032e-06
13 *1000:D *346:14 9.28568e-05
14 *1000:RESET_B *346:14 4.20162e-05
15 *1067:A *1069:A 0.000122337
16 *198:18 *346:14 9.76407e-06
17 *202:6 *1069:A 0.000140511
18 *215:10 *346:14 0.000203178
19 *215:10 *346:22 4.99619e-05
20 *344:33 *1069:A 4.82863e-05
21 *344:33 *346:22 0
*RES
1 *1000:Q *346:14 14.71 
2 *346:14 *346:22 7.975 
3 *346:22 *1069:A 7.36 
4 *346:22 *887:B 1.6 
5 *346:14 *886:B 1.96 
*END

*D_NET *347 0.0018729
*CONN
*I *875:B I *D sky130_fd_sc_hd__nand2_1
*I *876:B I *D sky130_fd_sc_hd__or2_1
*I *1070:A I *D sky130_fd_sc_hd__buf_2
*I *1001:Q O *D sky130_fd_sc_hd__dfrtp_1
*CAP
1 *875:B 4.81114e-05
2 *876:B 8.52993e-05
3 *1070:A 0.000271614
4 *1001:Q 7.76484e-05
5 *347:21 0.000308859
6 *347:6 0.000524711
7 *875:B *760:A 4.43871e-06
8 acc[21] *1070:A 9.58678e-06
9 *876:A *875:B 0.000187766
10 *876:A *876:B 0.000186099
11 *1001:RESET_B *875:B 5.39718e-05
12 *1029:A *1070:A 0
13 *1067:A *875:B 3.14324e-05
14 *1067:A *876:B 7.75325e-05
15 *1067:A *1070:A 0
16 *308:10 *876:B 5.83121e-06
*RES
1 *1001:Q *347:6 2.74 
2 *347:6 *1070:A 10.04 
3 *347:6 *347:21 4.52 
4 *347:21 *876:B 6.195 
5 *347:21 *875:B 5.745 
*END

*D_NET *348 0.00181708
*CONN
*I *879:B I *D sky130_fd_sc_hd__nand2_1
*I *878:B I *D sky130_fd_sc_hd__or2_1
*I *1071:A I *D sky130_fd_sc_hd__buf_2
*I *1002:Q O *D sky130_fd_sc_hd__dfrtp_1
*CAP
1 *879:B 0
2 *878:B 0.000115497
3 *1071:A 2.08101e-05
4 *1002:Q 0.000134902
5 *348:23 0.000433141
6 *348:12 0.000473356
7 *348:23 *370:134 0.000345239
8 acc[19] *348:12 5.0751e-05
9 acc[19] *348:23 3.72916e-05
10 acc[22] *348:12 2.75229e-05
11 *878:A *878:B 3.76596e-05
12 *1067:A *348:12 0
13 *208:12 *878:B 0.000140912
*RES
1 *1002:Q *348:12 8.12 
2 *348:12 *1071:A 1.96 
3 *348:12 *348:23 6.33 
4 *348:23 *878:B 8 
5 *348:23 *879:B 1.6 
*END

*D_NET *349 0.00138133
*CONN
*I *1072:A I *D sky130_fd_sc_hd__buf_2
*I *881:B I *D sky130_fd_sc_hd__nand2_1
*I *882:B I *D sky130_fd_sc_hd__or2_1
*I *1003:Q O *D sky130_fd_sc_hd__dfrtp_1
*CAP
1 *1072:A 7.19489e-05
2 *881:B 0.000304105
3 *882:B 0.000210446
4 *1003:Q 0
5 *349:6 0.000514552
6 *349:4 7.19489e-05
7 acc[23] *881:B 0
8 *882:A *881:B 0
9 *882:A *882:B 0
10 *920:B *881:B 0
11 *920:B *882:B 0
12 *1006:CLK *1072:A 8.65961e-05
13 *1031:A *881:B 0.000100139
14 *313:8 *881:B 2.15986e-05
*RES
1 *1003:Q *349:4 1.6 
2 *349:4 *349:6 2 
3 *349:6 *882:B 6.555 
4 *349:6 *881:B 8.265 
5 *349:4 *1072:A 3.01 
*END

*D_NET *350 0.00145426
*CONN
*I *841:A I *D sky130_fd_sc_hd__or2_1
*I *840:A I *D sky130_fd_sc_hd__nand2_1
*I *1052:X O *D sky130_fd_sc_hd__clkbuf_1
*CAP
1 *841:A 0.000254988
2 *840:A 3.43515e-05
3 *1052:X 0.000219154
4 *350:6 0.000508494
5 *350:6 *752:A 3.00381e-05
6 *840:B *840:A 5.05297e-06
7 *840:B *350:6 0.000108357
8 *842:B *841:A 3.98488e-06
9 *942:A1 *840:A 0
10 *942:A1 *841:A 0.000126771
11 *942:A2 *841:A 4.99619e-05
12 *1053:A *350:6 4.99619e-05
13 *169:6 *841:A 1.7386e-05
14 *169:6 *350:6 4.05674e-06
15 *169:23 *841:A 4.17054e-05
*RES
1 *1052:X *350:6 5.5 
2 *350:6 *840:A 2.215 
3 *350:6 *841:A 6.22 
*END

*D_NET *351 0.00326096
*CONN
*I *1073:A I *D sky130_fd_sc_hd__buf_2
*I *789:B I *D sky130_fd_sc_hd__nand2_1
*I *790:B I *D sky130_fd_sc_hd__or2_1
*I *1004:Q O *D sky130_fd_sc_hd__dfrtp_1
*CAP
1 *1073:A 0.000577404
2 *789:B 0
3 *790:B 9.41773e-05
4 *1004:Q 5.13345e-05
5 *351:25 0.000828054
6 *351:6 0.000396162
7 *790:B *759:A 5.23362e-05
8 *790:B *370:80 5.22283e-05
9 *351:6 *763:A 2.49909e-05
10 *351:25 *763:A 2.75229e-05
11 *780:A *1073:A 0
12 *781:B *1073:A 7.36562e-05
13 *782:B *1073:A 0.000252289
14 *896:A3 *790:B 9.50342e-06
15 *896:A3 *1073:A 0
16 *896:A3 *351:25 0
17 *897:A3 *1073:A 0
18 *898:B *1073:A 5.16348e-05
19 *898:B *351:25 5.0249e-05
20 *920:A *1073:A 4.82863e-05
21 *921:A *1073:A 0
22 *921:C *1073:A 0
23 *1004:RESET_B *351:6 1.47256e-05
24 *1015:A *790:B 7.23533e-05
25 *1015:A *351:25 6.36494e-05
26 *1032:A *1073:A 4.99619e-05
27 *110:6 *1073:A 4.66108e-05
28 *110:23 *1073:A 0.000316806
29 *111:12 *1073:A 0
30 *224:12 *1073:A 0
31 *301:28 *351:25 9.84957e-05
32 *314:10 *790:B 8.53113e-06
33 *314:10 *1073:A 0
*RES
1 *1004:Q *351:6 2.395 
2 *351:6 *790:B 8 
3 *351:6 *351:25 7.025 
4 *351:25 *789:B 3.6 
5 *351:25 *1073:A 14.955 
*END

*D_NET *352 0.00194399
*CONN
*I *1074:A I *D sky130_fd_sc_hd__buf_2
*I *776:B I *D sky130_fd_sc_hd__or2_1
*I *775:B I *D sky130_fd_sc_hd__nand2_1
*I *1005:Q O *D sky130_fd_sc_hd__dfrtp_1
*CAP
1 *1074:A 0.000188175
2 *776:B 3.31776e-05
3 *775:B 0.000147462
4 *1005:Q 0
5 *352:23 0.000392369
6 *352:4 0.000318478
7 *1074:A *370:63 0.000183026
8 *1074:A *370:106 2.05661e-05
9 *352:23 *764:A 1.61831e-05
10 *352:23 *370:63 0.00013521
11 acc[23] *1074:A 0
12 *918:A1 *776:B 0.000160635
13 *918:A2 *776:B 8.23457e-05
14 *920:B *1074:A 0
15 *1005:D *775:B 5.30673e-05
16 *1005:D *352:23 9.21168e-05
17 *1006:D *1074:A 4.70256e-05
18 *1033:A *1074:A 9.50342e-06
19 *104:12 *776:B 1.46828e-05
20 *104:19 *776:B 4.99619e-05
*RES
1 *1005:Q *352:4 1.6 
2 *352:4 *775:B 8.03 
3 *352:4 *352:23 5.465 
4 *352:23 *776:B 5.085 
5 *352:23 *1074:A 7.785 
*END

*D_NET *353 0.00193772
*CONN
*I *780:B I *D sky130_fd_sc_hd__or2_1
*I *785:C1 I *D sky130_fd_sc_hd__o211a_1
*I *1075:A I *D sky130_fd_sc_hd__buf_2
*I *779:B I *D sky130_fd_sc_hd__nand2_1
*I *1006:Q O *D sky130_fd_sc_hd__dfrtp_1
*CAP
1 *780:B 0
2 *785:C1 7.15894e-05
3 *1075:A 2.7845e-05
4 *779:B 0
5 *1006:Q 8.04976e-05
6 *353:20 0.000134647
7 *353:16 0.000444792
8 *353:8 0.000346898
9 *785:C1 *778:B 6.69341e-05
10 *1075:A *766:A 9.66106e-05
11 *353:8 *778:B 0
12 *353:16 *778:B 3.1562e-06
13 *778:A *785:C1 0.000164874
14 *778:A *353:8 0
15 *778:A *353:16 1.08758e-05
16 *780:A *353:16 7.60965e-05
17 *780:A *353:20 1.26626e-05
18 *781:A *353:20 5.16348e-05
19 *787:A *353:20 0
20 *921:A *353:16 4.24632e-05
21 *921:A *353:20 0.000142941
22 *316:29 *1075:A 0.000163204
23 *316:29 *353:20 0
*RES
1 *1006:Q *353:8 2.755 
2 *353:8 *353:16 5.6225 
3 *353:16 *353:20 4.5275 
4 *353:20 *779:B 1.6 
5 *353:20 *1075:A 3.085 
6 *353:16 *785:C1 5.7675 
7 *353:8 *780:B 1.6 
*END

*D_NET *354 0.00316275
*CONN
*I *1076:A I *D sky130_fd_sc_hd__buf_2
*I *778:B I *D sky130_fd_sc_hd__xnor2_1
*I *786:A2 I *D sky130_fd_sc_hd__a211o_1
*I *785:A2 I *D sky130_fd_sc_hd__o211a_1
*I *1007:Q O *D sky130_fd_sc_hd__dfrtp_1
*CAP
1 *1076:A 6.23253e-05
2 *778:B 0.000319269
3 *786:A2 0.000109426
4 *785:A2 2.00704e-05
5 *1007:Q 2.20267e-05
6 *354:19 0.000449506
7 *354:8 0.000635229
8 *354:6 0.0006787
9 *1076:A *769:A 0.000103192
10 *354:6 *1077:A 2.16917e-05
11 *354:8 *1077:A 5.83121e-06
12 *778:A *778:B 4.1688e-05
13 *778:A *785:A2 2.24411e-05
14 *778:A *354:8 2.22783e-05
15 *785:B1 *786:A2 9.30717e-05
16 *785:C1 *778:B 6.69341e-05
17 *786:B1 *786:A2 1.26626e-05
18 *1007:CLK *354:8 0.000192209
19 *1041:A *1076:A 7.75412e-05
20 *316:29 *786:A2 6.89933e-05
21 *318:18 *786:A2 0.000134509
22 *353:8 *778:B 0
23 *353:16 *778:B 3.1562e-06
*RES
1 *1007:Q *354:6 2.05 
2 *354:6 *354:8 10.11 
3 *354:8 *785:A2 2.07625 
4 *354:8 *354:19 0.36 
5 *354:19 *786:A2 7.94 
6 *354:19 *778:B 5.785 
7 *354:6 *1076:A 7.745 
*END

*D_NET *355 0.00430359
*CONN
*I *1077:A I *D sky130_fd_sc_hd__buf_2
*I *772:B I *D sky130_fd_sc_hd__nand2_1
*I *773:B I *D sky130_fd_sc_hd__or2_1
*I *1008:Q O *D sky130_fd_sc_hd__dfrtp_1
*CAP
1 *1077:A 0.000795588
2 *772:B 3.10752e-05
3 *773:B 0
4 *1008:Q 0.000424388
5 *355:19 0.000878281
6 *355:12 0.000476006
7 *1077:A *769:A 0.00054335
8 *1077:A *904:B 5.56629e-05
9 *1077:A *1080:A 0.000120655
10 *772:A *772:B 0
11 *773:A *355:19 1.56428e-05
12 *903:B *355:12 0
13 *908:B *1077:A 0
14 *910:A1 *1077:A 0.000173163
15 *911:A2 *1077:A 0.000141592
16 *1007:RESET_B *1077:A 0
17 *1011:D *1077:A 4.82919e-05
18 *101:18 *355:19 8.40269e-05
19 *101:40 *355:19 7.66083e-05
20 *227:17 *1077:A 9.22953e-05
21 *228:25 *355:12 0.00015829
22 *305:73 *772:B 8.8266e-05
23 *305:73 *1077:A 1.34503e-05
24 *305:73 *355:19 2.0514e-05
25 *319:16 *1077:A 2.69297e-05
26 *319:16 *355:19 1.19928e-05
27 *354:6 *1077:A 2.16917e-05
28 *354:8 *1077:A 5.83121e-06
*RES
1 *1008:Q *355:12 11.045 
2 *355:12 *773:B 1.6 
3 *355:12 *355:19 1.83 
4 *355:19 *772:B 2.755 
5 *355:19 *1077:A 21.545 
*END

*D_NET *356 0.00273526
*CONN
*I *1078:A I *D sky130_fd_sc_hd__buf_2
*I *899:B I *D sky130_fd_sc_hd__nor2_1
*I *900:B I *D sky130_fd_sc_hd__nand2_1
*I *1009:Q O *D sky130_fd_sc_hd__dfrtp_1
*CAP
1 *1078:A 0.000325378
2 *899:B 0
3 *900:B 1.84334e-05
4 *1009:Q 9.73433e-05
5 *356:18 0.000211092
6 *356:10 0.00061538
7 *1078:A *769:A 9.87988e-05
8 *1078:A *904:B 4.66108e-05
9 *1078:A *905:B 3.09164e-05
10 *1078:A *912:B 0.000102184
11 *1078:A *371:32 2.7881e-05
12 *356:10 *371:24 3.31103e-05
13 *356:10 *371:32 3.67779e-05
14 *356:18 *769:A 6.0147e-06
15 *899:A *356:18 5.70727e-05
16 *900:A *900:B 4.99619e-05
17 *900:A *356:18 6.12198e-05
18 *912:A *1078:A 3.76674e-05
19 *1024:A *1078:A 0.000200966
20 *1038:A *356:18 1.08758e-05
21 *1057:A *1078:A 0.000125603
22 *306:8 *1078:A 0.000354434
23 *306:8 *356:10 7.06865e-05
24 *322:12 *1078:A 0.000116853
*RES
1 *1009:Q *356:10 5.265 
2 *356:10 *356:18 4.895 
3 *356:18 *900:B 2.05 
4 *356:18 *899:B 1.6 
5 *356:10 *1078:A 13.785 
*END

*D_NET *357 0.00173139
*CONN
*I *809:B I *D sky130_fd_sc_hd__nor2_1
*I *1079:A I *D sky130_fd_sc_hd__buf_2
*I *808:B I *D sky130_fd_sc_hd__and2_1
*I *982:Q O *D sky130_fd_sc_hd__dfrtp_1
*CAP
1 *809:B 0
2 *1079:A 0.000521934
3 *808:B 0
4 *982:Q 6.75409e-05
5 *357:15 0.000559655
6 *357:8 0.000105262
7 *808:A *357:15 4.82863e-05
8 *970:A *1079:A 1.17409e-05
9 *970:B *1079:A 2.11084e-05
10 *971:A *1079:A 8.65905e-05
11 *971:B *1079:A 4.60584e-05
12 *980:D *1079:A 7.07032e-05
13 *982:RESET_B *1079:A 0
14 *137:10 *1079:A 2.03578e-05
15 *137:10 *357:8 5.05437e-05
16 *137:10 *357:15 5.83121e-06
17 *138:12 *357:8 4.80285e-05
18 *138:12 *357:15 6.77501e-05
*RES
1 *982:Q *357:8 3.1 
2 *357:8 *808:B 1.6 
3 *357:8 *357:15 1.14 
4 *357:15 *1079:A 14.075 
5 *357:15 *809:B 1.6 
*END

*D_NET *358 0.00196733
*CONN
*I *1080:A I *D sky130_fd_sc_hd__buf_2
*I *904:B I *D sky130_fd_sc_hd__nor2_1
*I *905:B I *D sky130_fd_sc_hd__nand2_1
*I *1010:Q O *D sky130_fd_sc_hd__dfrtp_1
*CAP
1 *1080:A 9.94187e-05
2 *904:B 8.72102e-05
3 *905:B 1.97448e-05
4 *1010:Q 0.000241311
5 *358:10 0.000172886
6 *358:8 0.000406661
7 *904:B *769:A 5.39961e-05
8 acc[30] *1080:A 1.56428e-05
9 *904:A *904:B 2.49909e-05
10 *912:A *905:B 8.08153e-06
11 *912:A *358:10 6.74234e-05
12 *1010:RESET_B *1080:A 0.000104306
13 *1010:RESET_B *358:10 3.25831e-05
14 *1057:A *905:B 2.78732e-05
15 *1057:A *1080:A 5.75074e-05
16 *1057:A *358:10 0.00011741
17 *1077:A *904:B 5.56629e-05
18 *1077:A *1080:A 0.000120655
19 *1078:A *904:B 4.66108e-05
20 *1078:A *905:B 3.09164e-05
21 *231:6 *904:B 1.83756e-05
22 *232:6 *904:B 0.000158066
*RES
1 *1010:Q *358:8 6.12 
2 *358:8 *358:10 2.4 
3 *358:10 *905:B 4.215 
4 *358:10 *904:B 10.045 
5 *358:8 *1080:A 6.12 
*END

*D_NET *359 0.00109764
*CONN
*I *912:B I *D sky130_fd_sc_hd__xnor2_1
*I *1081:A I *D sky130_fd_sc_hd__buf_2
*I *1011:Q O *D sky130_fd_sc_hd__dfrtp_1
*CAP
1 *912:B 4.30027e-05
2 *1081:A 0
3 *1011:Q 0.000232292
4 *359:10 0.000275294
5 *1024:A *359:10 0.000120186
6 *1057:A *912:B 0.000189426
7 *1057:A *359:10 0.00011852
8 *1078:A *912:B 0.000102184
9 *319:16 *359:10 1.67382e-05
*RES
1 *1011:Q *359:10 7.155 
2 *359:10 *1081:A 3.6 
3 *359:10 *912:B 5.745 
*END

*D_NET *360 0.00584241
*CONN
*I *818:B I *D sky130_fd_sc_hd__xor2_1
*I *819:A2 I *D sky130_fd_sc_hd__o22ai_1
*I *817:A2 I *D sky130_fd_sc_hd__a21o_1
*I *832:A2 I *D sky130_fd_sc_hd__o221ai_4
*I *1082:A I *D sky130_fd_sc_hd__buf_2
*I *983:Q O *D sky130_fd_sc_hd__dfrtp_4
*CAP
1 *818:B 0.000291151
2 *819:A2 0
3 *817:A2 0.000235323
4 *832:A2 8.36005e-05
5 *1082:A 0.000458159
6 *983:Q 0.000235915
7 *360:40 0.000235323
8 *360:38 0.000335919
9 *360:25 0.000591432
10 *360:10 0.00115714
11 *1082:A *829:B 7.89611e-05
12 *1082:A *972:A 0
13 *1082:A *978:A 0
14 *1082:A *362:21 0.000122885
15 *1082:A *363:10 0.000187071
16 *1082:A *369:52 0
17 *360:10 *972:A 0
18 *360:25 *1083:A 2.75229e-05
19 acc[4] *1082:A 0.000235332
20 acc[5] *1082:A 4.4123e-05
21 *819:B2 *817:A2 0.000152328
22 *828:A *360:25 2.75229e-05
23 *829:A *1082:A 0
24 *831:C *832:A2 1.47256e-05
25 *831:C *360:25 2.96334e-05
26 *832:A1 *818:B 1.71013e-05
27 *832:A1 *360:38 6.36656e-05
28 *832:B1 *832:A2 0
29 *832:B1 *360:38 0
30 *832:B2 *817:A2 4.66108e-05
31 *955:A *832:A2 4.82919e-05
32 *955:A *360:25 0.000188957
33 *969:A *818:B 7.60965e-05
34 *981:CLK *818:B 0
35 *983:RESET_B *360:10 0
36 *1043:A *1082:A 1.1561e-05
37 *1043:A *360:25 6.76188e-05
38 *1048:A *360:10 0.000141599
39 *1068:A *1082:A 0.000240908
40 *1068:A *360:10 6.02447e-05
41 *145:21 *818:B 0
42 *148:8 *360:38 9.54469e-05
43 *303:60 *818:B 0.000159313
44 *324:16 *817:A2 6.75975e-05
45 *330:18 *817:A2 1.33293e-05
*RES
1 *983:Q *360:10 7.815 
2 *360:10 *1082:A 14.955 
3 *360:10 *360:25 9.35 
4 *360:25 *832:A2 3.01 
5 *360:25 *360:38 3.38 
6 *360:38 *360:40 2 
7 *360:40 *817:A2 5.77 
8 *360:40 *819:A2 1.6 
9 *360:38 *818:B 8.775 
*END

*D_NET *361 0.00112484
*CONN
*I *843:A I *D sky130_fd_sc_hd__or2_1
*I *844:A I *D sky130_fd_sc_hd__nand2_1
*I *1053:X O *D sky130_fd_sc_hd__clkbuf_1
*CAP
1 *843:A 3.74195e-05
2 *844:A 0.000101595
3 *1053:X 0.000133037
4 *361:8 0.000272052
5 *361:8 *368:10 0
6 *843:B *843:A 1.08758e-05
7 *845:B *844:A 2.4997e-05
8 *845:B *361:8 7.89767e-05
9 *945:B *844:A 0
10 *1061:A *361:8 0
11 *1062:A *844:A 5.16348e-05
12 *1062:A *361:8 0.000131408
13 *173:10 *844:A 8.39175e-05
14 *338:10 *844:A 9.50342e-06
15 *338:19 *844:A 0.000189426
*RES
1 *1053:X *361:8 6.765 
2 *361:8 *844:A 6.705 
3 *361:8 *843:A 4.05 
*END

*D_NET *362 0.0011491
*CONN
*I *1083:A I *D sky130_fd_sc_hd__buf_2
*I *828:B I *D sky130_fd_sc_hd__nand2_1
*I *829:B I *D sky130_fd_sc_hd__or2_1
*I *984:Q O *D sky130_fd_sc_hd__dfrtp_1
*CAP
1 *1083:A 1.17375e-05
2 *828:B 0
3 *829:B 4.84798e-05
4 *984:Q 0.000121432
5 *362:21 9.08187e-05
6 *362:8 0.000248993
7 *828:A *362:21 1.52945e-05
8 *829:A *829:B 5.42217e-05
9 *830:A *362:8 8.88799e-05
10 *1043:A *1083:A 4.82919e-05
11 *1082:A *829:B 7.89611e-05
12 *1082:A *362:21 0.000122885
13 *157:8 *362:21 0.000139245
14 *157:18 *829:B 8.53113e-06
15 *157:18 *362:21 4.38051e-05
16 *360:25 *1083:A 2.75229e-05
*RES
1 *984:Q *362:8 5.085 
2 *362:8 *829:B 5.235 
3 *362:8 *362:21 4.655 
4 *362:21 *828:B 1.6 
5 *362:21 *1083:A 2.05 
*END

*D_NET *363 0.000854427
*CONN
*I *826:B I *D sky130_fd_sc_hd__or2_1
*I *1084:A I *D sky130_fd_sc_hd__buf_2
*I *825:B I *D sky130_fd_sc_hd__nand2_1
*I *985:Q O *D sky130_fd_sc_hd__dfrtp_1
*CAP
1 *826:B 4.67089e-05
2 *1084:A 0
3 *825:B 0.000102124
4 *985:Q 0
5 *363:10 0.000208658
6 *363:4 0.000153243
7 *825:B *976:A 0
8 *825:A *363:10 0
9 *826:A *826:B 2.75145e-05
10 *827:A *825:B 3.95724e-05
11 *827:B *825:B 3.95724e-05
12 *1082:A *363:10 0.000187071
13 *156:10 *825:B 4.99619e-05
*RES
1 *985:Q *363:4 1.6 
2 *363:4 *363:10 6.145 
3 *363:10 *825:B 3.805 
4 *363:10 *1084:A 1.6 
5 *363:4 *826:B 2.41 
*END

*D_NET *364 0.00203779
*CONN
*I *963:A2 I *D sky130_fd_sc_hd__a21oi_1
*I *820:B I *D sky130_fd_sc_hd__xnor2_1
*I *1085:A I *D sky130_fd_sc_hd__buf_2
*I *833:A2 I *D sky130_fd_sc_hd__a21oi_1
*I *986:Q O *D sky130_fd_sc_hd__dfrtp_1
*CAP
1 *963:A2 0.000120094
2 *820:B 0
3 *1085:A 8.05365e-05
4 *833:A2 0
5 *986:Q 5.46182e-05
6 *364:28 0.000161811
7 *364:14 0.000183948
8 *364:6 0.000199747
9 acc[6] *1085:A 2.30292e-05
10 *820:A *1085:A 2.16917e-05
11 *820:A *364:14 0.000189569
12 *833:B1 *1085:A 4.82919e-05
13 *963:B1 *963:A2 0.000162311
14 *963:B1 *364:6 5.83121e-06
15 *963:B1 *364:28 3.96737e-05
16 *964:B *963:A2 9.21592e-05
17 *1021:A *364:14 0
18 *1045:A *1085:A 0.000347029
19 *1045:A *364:14 7.75271e-05
20 *149:12 *963:A2 0.000104286
21 *327:22 *1085:A 0.00012564
*RES
1 *986:Q *364:6 2.395 
2 *364:6 *364:14 6.595 
3 *364:14 *833:A2 1.6 
4 *364:14 *1085:A 4.81 
5 *364:6 *364:28 0.795 
6 *364:28 *820:B 1.6 
7 *364:28 *963:A2 5.305 
*END

*D_NET *365 0.00263264
*CONN
*I *1086:A I *D sky130_fd_sc_hd__buf_2
*I *822:B I *D sky130_fd_sc_hd__nor2_1
*I *821:B I *D sky130_fd_sc_hd__and2_1
*I *987:Q O *D sky130_fd_sc_hd__dfrtp_1
*CAP
1 *1086:A 8.82839e-05
2 *822:B 0
3 *821:B 0.000163912
4 *987:Q 0.000484997
5 *365:16 0.000366508
6 *365:12 0.000775876
7 *365:12 *978:A 3.72916e-05
8 acc[7] *1086:A 3.83041e-05
9 acc[7] *365:16 4.82919e-05
10 *821:A *821:B 0.000164294
11 *821:A *365:12 0
12 *821:A *365:16 1.17409e-05
13 *822:A *365:16 5.4155e-06
14 *824:B *821:B 2.97561e-05
15 *964:A *821:B 0.000139238
16 *987:RESET_B *365:12 1.13009e-05
17 *1047:A *821:B 4.43871e-06
18 *1047:A *365:12 0
19 *1047:A *365:16 8.8266e-05
20 *150:12 *821:B 7.26707e-05
21 *151:8 *821:B 4.82919e-05
22 *151:8 *365:16 2.59211e-05
23 *151:16 *821:B 0
24 *151:16 *365:16 1.85674e-05
25 *329:6 *365:16 9.27255e-06
*RES
1 *987:Q *365:12 11.735 
2 *365:12 *365:16 3.57 
3 *365:16 *821:B 10.235 
4 *365:16 *822:B 1.6 
5 *365:12 *1086:A 3.1 
*END

*D_NET *366 0.00270035
*CONN
*I *1087:A I *D sky130_fd_sc_hd__buf_2
*I *805:B I *D sky130_fd_sc_hd__nand2_1
*I *806:B I *D sky130_fd_sc_hd__or2_1
*I *988:Q O *D sky130_fd_sc_hd__dfrtp_1
*CAP
1 *1087:A 0.000945728
2 *805:B 0
3 *806:B 7.90431e-05
4 *988:Q 0
5 *366:10 0.000262176
6 *366:6 0.00112886
7 *366:10 *979:A 0
8 *806:A *806:B 4.82863e-05
9 *813:A *1087:A 0.000118294
10 *817:B1 *366:10 0
11 *965:A *1087:A 1.7386e-05
12 *134:10 *806:B 4.82863e-05
13 *137:24 *1087:A 0
14 *137:24 *366:10 0
15 *303:60 *806:B 2.11921e-05
16 *309:10 *1087:A 2.66586e-05
17 *330:18 *366:10 4.43871e-06
*RES
1 *988:Q *366:6 3.6 
2 *366:6 *366:10 4.91 
3 *366:10 *806:B 3.205 
4 *366:10 *805:B 1.6 
5 *366:6 *1087:A 17.265 
*END

*D_NET *367 0.00206872
*CONN
*I *799:B I *D sky130_fd_sc_hd__nand2_1
*I *800:B I *D sky130_fd_sc_hd__or2_1
*I *1088:A I *D sky130_fd_sc_hd__buf_2
*I *989:Q O *D sky130_fd_sc_hd__dfrtp_1
*CAP
1 *799:B 0
2 *800:B 6.35414e-05
3 *1088:A 0.000471438
4 *989:Q 0.000132158
5 *367:27 8.68854e-05
6 *367:10 0.00062694
7 *800:B *748:A 0
8 *800:B *368:142 0.000124007
9 *1088:A *369:12 0.000121597
10 *367:27 *368:142 2.05056e-05
11 acc[9] *1088:A 5.0751e-05
12 *800:A *800:B 4.24643e-05
13 *803:A *367:10 0
14 *989:D *367:10 8.65961e-05
15 *1021:A *1088:A 0
16 *1021:A *367:10 0
17 *128:10 *367:10 4.05358e-05
18 *328:23 *1088:A 0
19 *331:10 *1088:A 0.000201296
*RES
1 *989:Q *367:10 5.775 
2 *367:10 *1088:A 13.395 
3 *367:10 *367:27 2.45 
4 *367:27 *800:B 3.46 
5 *367:27 *799:B 1.6 
*END

*D_NET *368 0.0180459
*CONN
*I *972:A I *D sky130_fd_sc_hd__inv_2
*I *748:A I *D sky130_fd_sc_hd__inv_2
*I *751:A I *D sky130_fd_sc_hd__inv_2
*I *755:A I *D sky130_fd_sc_hd__inv_2
*I *750:A I *D sky130_fd_sc_hd__inv_2
*I *754:A I *D sky130_fd_sc_hd__inv_2
*I *749:A I *D sky130_fd_sc_hd__inv_2
*I *753:A I *D sky130_fd_sc_hd__inv_2
*I *756:A I *D sky130_fd_sc_hd__inv_2
*I *752:A I *D sky130_fd_sc_hd__inv_2
*I *1020:X O *D sky130_fd_sc_hd__buf_4
*CAP
1 *972:A 0.00157077
2 *748:A 1.77753e-05
3 *751:A 2.89741e-05
4 *755:A 0.000690176
5 *750:A 2.23805e-05
6 *754:A 0
7 *749:A 1.94509e-05
8 *753:A 0.000447369
9 *756:A 0.000431532
10 *752:A 0.000193024
11 *1020:X 0
12 *368:142 0.00211086
13 *368:108 0.000943255
14 *368:100 0.00100899
15 *368:82 0.000176965
16 *368:74 0.000478142
17 *368:65 0.000602941
18 *368:42 0.0010161
19 *368:10 0.00104209
20 *368:4 0.000463775
21 *972:A *974:A 0.000559585
22 *972:A *369:39 0.000186464
23 *972:A *369:52 3.32246e-05
24 *798:A *368:142 2.75229e-05
25 *798:B *368:100 2.76781e-05
26 *798:B *368:142 0.000110673
27 *800:A *368:142 3.23663e-05
28 *800:B *748:A 0
29 *800:B *368:142 0.000124007
30 *801:B *368:142 1.33293e-05
31 *802:A *368:142 8.88081e-05
32 *813:B *972:A 4.18603e-06
33 *825:A *972:A 7.15931e-05
34 *826:A *972:A 1.56428e-05
35 *828:A *972:A 2.42236e-05
36 *829:A *972:A 0.000106218
37 *834:A1 *972:A 8.65905e-05
38 *834:B2 *972:A 0.000227233
39 *839:B *755:A 0
40 *840:B *752:A 4.82863e-05
41 *845:A *368:10 0
42 *845:B *368:10 0
43 *849:B *753:A 0
44 *850:A *368:10 0
45 *850:A *368:65 0
46 *856:A2 *368:65 3.86607e-05
47 *856:C1 *368:65 0.00011588
48 *857:B1 *368:65 3.01898e-05
49 *942:A2 *756:A 0
50 *942:A2 *368:10 0
51 *945:A *368:10 6.99752e-05
52 *945:A *368:42 0.000302194
53 *945:B *368:10 0
54 *950:A1 *368:142 0.000272951
55 *952:A2 *368:100 8.65905e-05
56 *952:A2 *368:108 0.000163019
57 *952:B1_N *368:142 1.91597e-05
58 *953:A *750:A 2.11084e-05
59 *953:B *368:74 4.41506e-05
60 *953:B *368:100 0.000179035
61 *958:B *972:A 5.34747e-05
62 *959:B *972:A 0.000182334
63 *981:CLK *972:A 0
64 *981:D *972:A 0
65 *981:RESET_B *972:A 9.71067e-05
66 *983:RESET_B *972:A 6.74079e-05
67 *984:RESET_B *972:A 0.000163985
68 *986:CLK *368:108 0.000355871
69 *989:RESET_B *972:A 4.82919e-05
70 *990:RESET_B *368:74 0.000122337
71 *990:RESET_B *368:100 1.16578e-05
72 *991:RESET_B *368:82 3.89528e-05
73 *992:RESET_B *755:A 0.000140912
74 *993:RESET_B *756:A 0
75 *994:D *753:A 0
76 *994:D *368:10 0.000116165
77 *995:D *753:A 0
78 *996:CLK *755:A 0.000322585
79 *996:CLK *368:108 0.000116853
80 *996:RESET_B *755:A 1.83847e-05
81 *997:CLK *756:A 0.000133938
82 *997:D *756:A 7.47512e-05
83 *997:RESET_B *756:A 0.000198945
84 *1027:A *972:A 0
85 *1048:A *972:A 0
86 *1060:A *368:82 0.000318473
87 *1061:A *752:A 0
88 *1068:A *972:A 0
89 *1082:A *972:A 0
90 *127:10 *368:142 5.81648e-05
91 *167:6 *751:A 2.49909e-05
92 *168:14 *755:A 0
93 *173:10 *368:10 0
94 *174:10 *368:10 0
95 *179:10 *368:65 0.00013521
96 *253:12 *368:10 0
97 *302:16 *368:108 0
98 *302:32 *368:10 0
99 *302:78 *753:A 0.000166458
100 *326:10 *972:A 7.06865e-05
101 *332:14 *753:A 9.863e-05
102 *332:43 *368:10 8.40269e-05
103 *332:43 *368:42 0.000313852
104 *332:43 *368:65 4.66108e-05
105 *332:43 *368:74 1.91597e-05
106 *334:10 *368:82 0
107 *345:21 *972:A 0
108 *350:6 *752:A 3.00381e-05
109 *360:10 *972:A 0
110 *361:8 *368:10 0
111 *367:27 *368:142 2.05056e-05
*RES
1 *1020:X *368:4 1.6 
2 *368:4 *368:10 9.1475 
3 *368:10 *752:A 6.1125 
4 *368:10 *756:A 12.1725 
5 *368:4 *368:42 4.865 
6 *368:42 *753:A 11.64 
7 *368:42 *368:65 10.07 
8 *368:65 *749:A 1.96 
9 *368:65 *368:74 1.485 
10 *368:74 *368:82 8.035 
11 *368:82 *754:A 1.6 
12 *368:82 *750:A 2.05 
13 *368:74 *368:100 5.31 
14 *368:100 *368:108 8.27 
15 *368:108 *755:A 17.13 
16 *368:108 *751:A 4.05 
17 *368:100 *368:142 10.275 
18 *368:142 *748:A 1.96 
19 *368:142 *972:A 37.475 
*END

*D_NET *369 0.00957669
*CONN
*I *979:A I *D sky130_fd_sc_hd__inv_2
*I *978:A I *D sky130_fd_sc_hd__inv_2
*I *974:A I *D sky130_fd_sc_hd__inv_2
*I *975:A I *D sky130_fd_sc_hd__inv_2
*I *976:A I *D sky130_fd_sc_hd__inv_2
*I *977:A I *D sky130_fd_sc_hd__inv_2
*I *1021:X O *D sky130_fd_sc_hd__buf_2
*CAP
1 *979:A 0.00094873
2 *978:A 0.000200072
3 *974:A 0.000306688
4 *975:A 2.8043e-05
5 *976:A 2.08101e-05
6 *977:A 0
7 *1021:X 0.000124641
8 *369:52 0.000476115
9 *369:48 0.00035795
10 *369:39 0.000629073
11 *369:27 0.00179785
12 *369:12 0.000381988
13 *807:B *979:A 0.000117832
14 *824:A *369:39 4.82919e-05
15 *825:A *369:52 0.000250133
16 *825:B *976:A 0
17 *827:A *978:A 5.83121e-06
18 *831:B *979:A 0
19 *834:B1 *979:A 0
20 *834:B1 *369:27 0
21 *834:B1 *369:39 0
22 *834:B2 *369:39 0.000293652
23 *835:B1 *979:A 0.000141142
24 *956:B *974:A 0
25 *960:A1 *369:27 0
26 *960:A2 *369:39 6.26945e-05
27 *961:C *369:39 0.00016063
28 *962:B *369:27 3.06427e-05
29 *972:A *974:A 0.000559585
30 *972:A *369:39 0.000186464
31 *972:A *369:52 3.32246e-05
32 *984:D *974:A 0
33 *985:RESET_B *369:52 0.000160726
34 *986:D *369:27 3.67955e-05
35 *986:RESET_B *369:12 0.000118063
36 *987:RESET_B *978:A 0.00012657
37 *988:RESET_B *979:A 0.000114789
38 *989:RESET_B *979:A 0
39 *1021:A *979:A 0
40 *1021:A *369:12 0.000112971
41 *1021:A *369:27 0
42 *1044:A *369:52 7.46228e-05
43 *1082:A *978:A 0
44 *1082:A *369:52 0
45 *1088:A *369:12 0.000121597
46 *134:18 *979:A 7.04108e-05
47 *149:12 *369:39 5.53249e-06
48 *151:16 *369:39 1.0183e-05
49 *153:8 *369:39 9.54399e-05
50 *154:8 *978:A 2.8185e-05
51 *154:8 *369:39 0.000268924
52 *154:8 *369:48 3.45588e-05
53 *156:10 *978:A 7.49327e-05
54 *156:10 *369:39 0.000428764
55 *156:10 *369:48 7.66083e-05
56 *159:23 *974:A 0
57 *263:10 *369:27 8.53113e-06
58 *324:6 *974:A 0.000160635
59 *326:10 *975:A 2.49909e-05
60 *326:10 *369:52 6.28498e-05
61 *330:18 *974:A 0.000160635
62 *330:18 *979:A 0
63 *365:12 *978:A 3.72916e-05
64 *366:10 *979:A 0
*RES
1 *1021:X *369:12 9.47 
2 *369:12 *977:A 1.6 
3 *369:12 *369:27 6.275 
4 *369:27 *369:39 20.085 
5 *369:39 *976:A 1.96 
6 *369:39 *369:48 0.795 
7 *369:48 *369:52 6.44 
8 *369:52 *975:A 4.05 
9 *369:52 *974:A 11.565 
10 *369:48 *978:A 9.62 
11 *369:27 *979:A 20.46 
*END

*D_NET *370 0.0182807
*CONN
*I *761:A I *D sky130_fd_sc_hd__inv_2
*I *760:A I *D sky130_fd_sc_hd__inv_2
*I *766:A I *D sky130_fd_sc_hd__inv_2
*I *765:A I *D sky130_fd_sc_hd__inv_2
*I *763:A I *D sky130_fd_sc_hd__inv_2
*I *759:A I *D sky130_fd_sc_hd__inv_2
*I *764:A I *D sky130_fd_sc_hd__inv_2
*I *762:A I *D sky130_fd_sc_hd__inv_2
*I *758:A I *D sky130_fd_sc_hd__inv_2
*I *757:A I *D sky130_fd_sc_hd__inv_2
*I *1022:X O *D sky130_fd_sc_hd__buf_4
*CAP
1 *761:A 0
2 *760:A 0.000247645
3 *766:A 0.00100596
4 *765:A 0
5 *763:A 3.36182e-05
6 *759:A 0.000464971
7 *764:A 5.54366e-05
8 *762:A 1.48092e-05
9 *758:A 0.000359187
10 *757:A 0.000377058
11 *1022:X 2.61884e-05
12 *370:134 0.00123986
13 *370:106 0.00105235
14 *370:80 0.000946717
15 *370:63 0.000769808
16 *370:55 0.000825383
17 *370:36 0.000566532
18 *370:32 0.00176952
19 *370:21 0.00117615
20 *370:8 0.000481871
21 *781:A *766:A 8.40213e-05
22 *786:C1 *766:A 2.75145e-05
23 *787:A *766:A 4.82863e-05
24 *790:B *759:A 5.23362e-05
25 *790:B *370:80 5.22283e-05
26 *875:B *760:A 4.43871e-06
27 *876:A *760:A 7.21296e-06
28 *882:A *370:32 6.31804e-05
29 *882:A *370:55 5.95498e-05
30 *882:A *370:134 1.22762e-05
31 *883:A *370:134 0.000235335
32 *889:A1 *370:32 0
33 *893:A *370:32 0.000600197
34 *893:A *370:134 4.44927e-05
35 *894:A2 *370:32 1.01155e-05
36 *914:B *370:32 0.00014641
37 *915:A *370:80 0
38 *917:A *370:80 8.65905e-05
39 *918:A2 *370:63 0.000152814
40 *920:A *766:A 0.000410324
41 *920:A *370:55 0.00010127
42 *920:A *370:106 8.65961e-05
43 *920:B *370:55 0.000124895
44 *998:RESET_B *757:A 2.04923e-05
45 *1002:D *760:A 0
46 *1002:RESET_B *760:A 0.000166346
47 *1003:RESET_B *370:32 9.16315e-05
48 *1003:RESET_B *370:36 5.83121e-06
49 *1003:RESET_B *370:55 1.91597e-05
50 *1004:CLK *370:32 0.000155928
51 *1004:RESET_B *763:A 4.66108e-05
52 *1005:D *764:A 4.99619e-05
53 *1006:D *370:55 8.40213e-05
54 *1006:RESET_B *370:63 6.9451e-05
55 *1015:A *763:A 7.00889e-06
56 *1022:A *370:8 1.16578e-05
57 *1030:A *370:134 2.68526e-05
58 *1031:A *370:55 3.98475e-05
59 *1031:A *370:134 0
60 *1033:A *370:106 9.50342e-06
61 *1034:A *766:A 5.27201e-05
62 *1036:A *766:A 7.60965e-05
63 *1067:A *760:A 0.000562926
64 *1074:A *370:63 0.000183026
65 *1074:A *370:106 2.05661e-05
66 *1075:A *766:A 9.66106e-05
67 *110:6 *766:A 0.000147196
68 *118:25 *370:80 0
69 *198:18 *757:A 2.26364e-05
70 *198:18 *370:21 6.87329e-05
71 *198:18 *370:32 0.000176254
72 *210:6 *370:36 5.05521e-05
73 *210:6 *370:55 2.16833e-05
74 *210:6 *370:134 4.66108e-05
75 *218:10 *370:32 7.06865e-05
76 *222:12 *370:32 0.000222204
77 *240:10 *370:63 3.09233e-05
78 *240:10 *370:80 3.47837e-05
79 *301:28 *759:A 0
80 *311:8 *760:A 4.82919e-05
81 *312:8 *370:134 0.000142669
82 *313:8 *762:A 9.72742e-06
83 *313:8 *370:55 0.000234192
84 *314:10 *370:80 0.000186635
85 *315:10 *766:A 4.35348e-05
86 *315:10 *370:63 0
87 *315:10 *370:106 3.00381e-05
88 *316:8 *766:A 0.000192125
89 *316:29 *766:A 4.07091e-05
90 *318:8 *766:A 9.27255e-06
91 *318:18 *766:A 4.66108e-05
92 *332:43 *757:A 0.000187766
93 *332:52 *370:8 4.82863e-05
94 *348:23 *370:134 0.000345239
95 *351:6 *763:A 2.49909e-05
96 *351:25 *763:A 2.75229e-05
97 *352:23 *764:A 1.61831e-05
98 *352:23 *370:63 0.00013521
*RES
1 *1022:X *370:8 4.05 
2 *370:8 *757:A 9.81 
3 *370:8 *370:21 1.635 
4 *370:21 *758:A 8.535 
5 *370:21 *370:32 18.465 
6 *370:32 *370:36 2.795 
7 *370:36 *762:A 1.96 
8 *370:36 *370:55 11.225 
9 *370:55 *370:63 8.525 
10 *370:63 *764:A 2.74 
11 *370:63 *370:80 10.355 
12 *370:80 *759:A 10.935 
13 *370:80 *763:A 4.395 
14 *370:55 *370:106 3.41 
15 *370:106 *765:A 1.6 
16 *370:106 *766:A 19.945 
17 *370:32 *370:134 16.115 
18 *370:134 *760:A 12.53 
19 *370:134 *761:A 1.6 
*END

*D_NET *371 0.0069899
*CONN
*I *973:A I *D sky130_fd_sc_hd__inv_2
*I *767:A I *D sky130_fd_sc_hd__inv_2
*I *768:A I *D sky130_fd_sc_hd__inv_2
*I *771:A I *D sky130_fd_sc_hd__inv_2
*I *769:A I *D sky130_fd_sc_hd__inv_2
*I *770:A I *D sky130_fd_sc_hd__inv_2
*I *1023:X O *D sky130_fd_sc_hd__buf_2
*CAP
1 *973:A 0.000157378
2 *767:A 0.000460018
3 *768:A 0
4 *771:A 0
5 *769:A 0.000601168
6 *770:A 0
7 *1023:X 0
8 *371:32 0.000694582
9 *371:24 0.000683738
10 *371:14 0.000748557
11 *371:10 0.000750607
12 *371:4 0.000289734
13 acc[30] *769:A 0
14 *814:B *371:24 3.95724e-05
15 *899:A *769:A 9.72742e-06
16 *900:A *769:A 3.00381e-05
17 *903:A *767:A 0.000201503
18 *903:B *767:A 0.00011686
19 *904:B *769:A 5.39961e-05
20 *912:A *769:A 0.000661142
21 *970:A *371:32 4.18603e-06
22 *980:CLK *767:A 0
23 *980:CLK *371:14 0.000163199
24 *980:CLK *371:24 0
25 *1007:RESET_B *769:A 0
26 *1008:RESET_B *767:A 0
27 *1009:RESET_B *371:24 0
28 *1011:RESET_B *371:32 3.64998e-06
29 *1038:A *769:A 1.98766e-05
30 *1038:A *371:32 4.82863e-05
31 *1041:A *769:A 0
32 *1057:A *371:32 0.000129047
33 *1076:A *769:A 0.000103192
34 *1077:A *769:A 0.00054335
35 *1078:A *769:A 9.87988e-05
36 *1078:A *371:32 2.7881e-05
37 *227:17 *769:A 7.16094e-05
38 *306:8 *769:A 0.000138188
39 *306:8 *371:32 1.94636e-05
40 *320:6 *769:A 1.37328e-05
41 *333:25 *371:32 3.09164e-05
42 *356:10 *371:24 3.31103e-05
43 *356:10 *371:32 3.67779e-05
44 *356:18 *769:A 6.0147e-06
*RES
1 *1023:X *371:4 1.6 
2 *371:4 *371:10 3.83 
3 *371:10 *371:14 4.865 
4 *371:14 *371:24 13.165 
5 *371:24 *371:32 6.34 
6 *371:32 *770:A 1.6 
7 *371:32 *769:A 22.625 
8 *371:24 *771:A 1.6 
9 *371:14 *768:A 1.6 
10 *371:10 *767:A 10.335 
11 *371:4 *973:A 4.045 
*END

*D_NET *372 0.00252797
*CONN
*I *847:A I *D sky130_fd_sc_hd__nor2_1
*I *846:A I *D sky130_fd_sc_hd__nand2_1
*I *848:A I *D sky130_fd_sc_hd__or2_1
*I *1054:X O *D sky130_fd_sc_hd__buf_1
*CAP
1 *847:A 9.39385e-05
2 *846:A 0
3 *848:A 0.000162702
4 *1054:X 5.41258e-05
5 *372:37 0.000458514
6 *372:8 0.000581403
7 *847:B *847:A 3.01743e-05
8 *847:B *372:37 6.41983e-05
9 *848:B *848:A 0.00023603
10 *849:B *847:A 2.68464e-05
11 *849:B *372:37 0.000135524
12 *953:A *372:37 3.89569e-05
13 *995:RESET_B *372:37 3.24921e-05
14 *1054:A *848:A 2.23589e-05
15 *175:8 *847:A 0.000107021
16 *175:8 *372:37 1.35324e-05
17 *332:43 *847:A 0.000244653
18 *340:8 *372:37 1.08758e-05
19 *340:12 *372:37 6.99988e-05
20 *340:30 *372:37 0.000144622
*RES
1 *1054:X *372:8 2.41 
2 *372:8 *848:A 4.465 
3 *372:8 *372:37 14.795 
4 *372:37 *846:A 1.6 
5 *372:37 *847:A 5.005 
*END

*D_NET *373 0.00220562
*CONN
*I *867:A I *D sky130_fd_sc_hd__or2_1
*I *866:A I *D sky130_fd_sc_hd__nand2_1
*I *872:A1 I *D sky130_fd_sc_hd__a31o_1
*I *1055:X O *D sky130_fd_sc_hd__buf_1
*CAP
1 *867:A 7.49234e-05
2 *866:A 0
3 *872:A1 1.85694e-05
4 *1055:X 0.000153407
5 *373:21 0.000298957
6 *373:6 0.000396009
7 *868:A *867:A 3.23663e-05
8 *868:A *373:21 5.53774e-05
9 *868:B *867:A 0.000126054
10 *872:B1 *373:21 4.82863e-05
11 *1064:A *373:6 0.000241483
12 *197:6 *867:A 4.40028e-05
13 *341:23 *867:A 0.000367448
14 *341:23 *373:21 3.28565e-05
15 *341:27 *872:A1 9.53428e-06
16 *341:27 *373:6 2.05056e-05
17 *341:27 *373:21 0.000285842
*RES
1 *1055:X *373:6 4.465 
2 *373:6 *872:A1 1.96 
3 *373:6 *373:21 5.07 
4 *373:21 *866:A 1.6 
5 *373:21 *867:A 5.17 
*END

*D_NET *374 0.00105059
*CONN
*I *935:A1 I *D sky130_fd_sc_hd__a21o_1
*I *871:A I *D sky130_fd_sc_hd__and3_1
*I *859:A I *D sky130_fd_sc_hd__xnor2_1
*I *1056:X O *D sky130_fd_sc_hd__buf_1
*CAP
1 *935:A1 5.75562e-05
2 *871:A 9.90554e-05
3 *859:A 0.00016379
4 *1056:X 0
5 *374:15 0.000165305
6 *374:4 0.000172484
7 *859:B *871:A 0
8 *865:B *935:A1 8.49205e-05
9 *871:C *871:A 7.63204e-05
10 *935:A2 *871:A 1.01661e-05
11 *1056:A *859:A 0.000124843
12 *188:8 *859:A 9.80032e-06
13 *188:8 *871:A 2.75229e-05
14 *188:8 *935:A1 5.8825e-05
*RES
1 *1056:X *374:4 1.6 
2 *374:4 *859:A 4.735 
3 *374:4 *374:15 0.36 
4 *374:15 *871:A 7.94 
5 *374:15 *935:A1 3.1 
*END
