*SPEF "ieee 1481-1999"
*DESIGN "cla32"
*DATE "11:33:10 Saturday September 19, 2026"
*VENDOR "The OpenROAD Project"
*PROGRAM "OpenROAD"
*VERSION "edf00dff99f6c40d67a30c0e22a8191c5d2ed9d6"
*DESIGN_FLOW "NAME_SCOPE LOCAL" "PIN_CAP NONE"
*DIVIDER /
*DELIMITER :
*BUS_DELIMITER []
*T_UNIT 1 NS
*C_UNIT 1 PF
*R_UNIT 1 OHM
*L_UNIT 1 HENRY

*NAME_MAP
*3 a[0]
*4 a[10]
*5 a[11]
*6 a[12]
*7 a[13]
*8 a[14]
*9 a[15]
*10 a[16]
*11 a[17]
*12 a[18]
*13 a[19]
*14 a[1]
*15 a[20]
*16 a[21]
*17 a[22]
*18 a[23]
*19 a[24]
*20 a[25]
*21 a[26]
*22 a[27]
*23 a[28]
*24 a[29]
*25 a[2]
*26 a[30]
*27 a[31]
*28 a[3]
*29 a[4]
*30 a[5]
*31 a[6]
*32 a[7]
*33 a[8]
*34 a[9]
*35 b[0]
*36 b[10]
*37 b[11]
*38 b[12]
*39 b[13]
*40 b[14]
*41 b[15]
*42 b[16]
*43 b[17]
*44 b[18]
*45 b[19]
*46 b[1]
*47 b[20]
*48 b[21]
*49 b[22]
*50 b[23]
*51 b[24]
*52 b[25]
*53 b[26]
*54 b[27]
*55 b[28]
*56 b[29]
*57 b[2]
*58 b[30]
*59 b[31]
*60 b[3]
*61 b[4]
*62 b[5]
*63 b[6]
*64 b[7]
*65 b[8]
*66 b[9]
*67 cin
*68 cout
*69 sum[0]
*70 sum[10]
*71 sum[11]
*72 sum[12]
*73 sum[13]
*74 sum[14]
*75 sum[15]
*76 sum[16]
*77 sum[17]
*78 sum[18]
*79 sum[19]
*80 sum[1]
*81 sum[20]
*82 sum[21]
*83 sum[22]
*84 sum[23]
*85 sum[24]
*86 sum[25]
*87 sum[26]
*88 sum[27]
*89 sum[28]
*90 sum[29]
*91 sum[2]
*92 sum[30]
*93 sum[31]
*94 sum[3]
*95 sum[4]
*96 sum[5]
*97 sum[6]
*98 sum[7]
*99 sum[8]
*100 sum[9]
*101 _000_
*102 _001_
*103 _002_
*104 _003_
*105 _004_
*106 _005_
*107 _006_
*108 _007_
*109 _008_
*110 _009_
*111 _010_
*112 _011_
*113 _012_
*114 _013_
*115 _014_
*116 _015_
*117 _016_
*118 _017_
*119 _018_
*120 _019_
*121 _020_
*122 _021_
*123 _022_
*124 _023_
*125 _024_
*126 _025_
*127 _026_
*128 _027_
*129 _028_
*130 _029_
*131 _030_
*132 _031_
*133 _032_
*134 _033_
*135 _034_
*136 _035_
*137 _036_
*138 _037_
*139 _038_
*140 _039_
*141 _040_
*142 _041_
*143 _042_
*144 _043_
*145 _044_
*146 _045_
*147 _046_
*148 _047_
*149 _048_
*150 _049_
*151 _050_
*152 _051_
*153 _052_
*154 _053_
*155 _054_
*156 _055_
*157 _056_
*158 _057_
*159 _058_
*160 _059_
*161 _060_
*162 _061_
*163 _062_
*164 _063_
*165 _064_
*166 _065_
*167 _066_
*168 _067_
*169 _068_
*170 _069_
*171 _070_
*172 _071_
*173 _072_
*174 _073_
*175 _074_
*176 _075_
*177 _076_
*178 _077_
*179 _078_
*180 _079_
*181 _080_
*182 _081_
*183 _082_
*184 _083_
*185 _084_
*186 _085_
*187 _086_
*188 _087_
*189 _088_
*190 _089_
*191 _090_
*192 _091_
*193 _092_
*194 _093_
*195 _094_
*196 _095_
*197 _096_
*198 _097_
*199 _098_
*200 _099_
*201 _100_
*202 _101_
*203 _102_
*204 _103_
*205 _104_
*206 _105_
*207 _106_
*208 _107_
*209 _108_
*210 _109_
*211 _110_
*212 _111_
*213 _112_
*214 _113_
*215 _114_
*216 _115_
*217 _116_
*218 _117_
*219 _118_
*220 _119_
*221 _120_
*222 _121_
*223 _122_
*224 _123_
*225 _124_
*226 _125_
*227 _126_
*228 _127_
*229 _128_
*230 _129_
*231 _130_
*232 _131_
*233 _132_
*234 _133_
*235 _134_
*236 _135_
*237 _136_
*238 _137_
*239 _138_
*240 _139_
*241 _140_
*242 _141_
*243 _142_
*244 _143_
*245 _144_
*246 _145_
*247 _146_
*248 _147_
*249 _148_
*250 _149_
*251 _150_
*252 _151_
*253 _152_
*254 _153_
*255 _154_
*256 _155_
*257 _156_
*258 _157_
*259 _158_
*260 _159_
*261 _160_
*262 _161_
*263 _162_
*264 _163_
*265 _164_
*266 _165_
*267 _166_
*268 _167_
*269 _168_
*270 _169_
*271 _170_
*272 _171_
*273 _172_
*274 _173_
*275 _174_
*276 _175_
*277 net1
*278 net10
*279 net11
*280 net12
*281 net13
*282 net14
*283 net15
*284 net16
*285 net17
*286 net18
*287 net19
*288 net2
*289 net20
*290 net21
*291 net22
*292 net23
*293 net24
*294 net25
*295 net26
*296 net27
*297 net28
*298 net29
*299 net3
*300 net30
*301 net31
*302 net32
*303 net33
*304 net34
*305 net35
*306 net36
*307 net37
*308 net38
*309 net39
*310 net4
*311 net40
*312 net41
*313 net42
*314 net43
*315 net44
*316 net45
*317 net46
*318 net47
*319 net48
*320 net49
*321 net5
*322 net50
*323 net51
*324 net52
*325 net53
*326 net54
*327 net55
*328 net56
*329 net57
*330 net58
*331 net59
*332 net6
*333 net60
*334 net61
*335 net62
*336 net63
*337 net64
*338 net65
*339 net66
*340 net67
*341 net68
*342 net69
*343 net7
*344 net70
*345 net71
*346 net72
*347 net73
*348 net74
*349 net75
*350 net76
*351 net77
*352 net78
*353 net79
*354 net8
*355 net80
*356 net81
*357 net82
*358 net83
*359 net84
*360 net85
*361 net86
*362 net87
*363 net88
*364 net89
*365 net9
*366 net90
*367 net91
*368 net92
*369 net93
*370 net94
*371 net95
*372 net96
*373 net97
*374 net98
*375 FILLER_0_104
*376 FILLER_0_113
*377 FILLER_0_118
*378 FILLER_0_125
*379 FILLER_0_132
*380 FILLER_0_27
*381 FILLER_0_29
*382 FILLER_0_35
*383 FILLER_0_41
*384 FILLER_0_49
*385 FILLER_0_55
*386 FILLER_0_57
*387 FILLER_0_63
*388 FILLER_0_72
*389 FILLER_0_76
*390 FILLER_0_85
*391 FILLER_0_91
*392 FILLER_0_98
*393 FILLER_10_101
*394 FILLER_10_123
*395 FILLER_10_131
*396 FILLER_10_15
*397 FILLER_10_21
*398 FILLER_10_29
*399 FILLER_10_41
*400 FILLER_10_53
*401 FILLER_10_6
*402 FILLER_10_65
*403 FILLER_10_77
*404 FILLER_10_83
*405 FILLER_10_85
*406 FILLER_10_97
*407 FILLER_11_101
*408 FILLER_11_110
*409 FILLER_11_113
*410 FILLER_11_12
*411 FILLER_11_143
*412 FILLER_11_24
*413 FILLER_11_3
*414 FILLER_11_36
*415 FILLER_11_48
*416 FILLER_11_57
*417 FILLER_11_69
*418 FILLER_11_81
*419 FILLER_11_93
*420 FILLER_12_109
*421 FILLER_12_119
*422 FILLER_12_127
*423 FILLER_12_21
*424 FILLER_12_27
*425 FILLER_12_29
*426 FILLER_12_41
*427 FILLER_12_53
*428 FILLER_12_65
*429 FILLER_12_77
*430 FILLER_12_83
*431 FILLER_12_85
*432 FILLER_12_9
*433 FILLER_12_97
*434 FILLER_13_101
*435 FILLER_13_109
*436 FILLER_13_113
*437 FILLER_13_125
*438 FILLER_13_129
*439 FILLER_13_133
*440 FILLER_13_141
*441 FILLER_13_3
*442 FILLER_13_31
*443 FILLER_13_43
*444 FILLER_13_55
*445 FILLER_13_57
*446 FILLER_13_69
*447 FILLER_13_81
*448 FILLER_13_93
*449 FILLER_14_105
*450 FILLER_14_126
*451 FILLER_14_139
*452 FILLER_14_14
*453 FILLER_14_24
*454 FILLER_14_29
*455 FILLER_14_41
*456 FILLER_14_53
*457 FILLER_14_6
*458 FILLER_14_65
*459 FILLER_14_77
*460 FILLER_14_83
*461 FILLER_14_85
*462 FILLER_14_97
*463 FILLER_15_100
*464 FILLER_15_113
*465 FILLER_15_125
*466 FILLER_15_13
*467 FILLER_15_137
*468 FILLER_15_25
*469 FILLER_15_35
*470 FILLER_15_47
*471 FILLER_15_57
*472 FILLER_15_70
*473 FILLER_15_82
*474 FILLER_15_94
*475 FILLER_16_111
*476 FILLER_16_131
*477 FILLER_16_139
*478 FILLER_16_17
*479 FILLER_16_25
*480 FILLER_16_29
*481 FILLER_16_41
*482 FILLER_16_49
*483 FILLER_16_54
*484 FILLER_16_66
*485 FILLER_16_7
*486 FILLER_16_78
*487 FILLER_16_85
*488 FILLER_16_91
*489 FILLER_17_102
*490 FILLER_17_113
*491 FILLER_17_120
*492 FILLER_17_128
*493 FILLER_17_138
*494 FILLER_17_14
*495 FILLER_17_26
*496 FILLER_17_34
*497 FILLER_17_43
*498 FILLER_17_47
*499 FILLER_17_55
*500 FILLER_17_57
*501 FILLER_17_63
*502 FILLER_17_72
*503 FILLER_17_87
*504 FILLER_17_94
*505 FILLER_18_109
*506 FILLER_18_121
*507 FILLER_18_135
*508 FILLER_18_139
*509 FILLER_18_141
*510 FILLER_18_18
*511 FILLER_18_26
*512 FILLER_18_29
*513 FILLER_18_33
*514 FILLER_18_45
*515 FILLER_18_53
*516 FILLER_18_6
*517 FILLER_18_63
*518 FILLER_18_75
*519 FILLER_18_82
*520 FILLER_18_85
*521 FILLER_18_97
*522 FILLER_19_10
*523 FILLER_19_100
*524 FILLER_19_126
*525 FILLER_19_130
*526 FILLER_19_137
*527 FILLER_19_21
*528 FILLER_19_36
*529 FILLER_19_55
*530 FILLER_19_57
*531 FILLER_19_65
*532 FILLER_19_72
*533 FILLER_19_80
*534 FILLER_19_88
*535 FILLER_1_106
*536 FILLER_1_119
*537 FILLER_1_12
*538 FILLER_1_136
*539 FILLER_1_3
*540 FILLER_1_41
*541 FILLER_1_50
*542 FILLER_1_57
*543 FILLER_1_76
*544 FILLER_1_84
*545 FILLER_20_107
*546 FILLER_20_115
*547 FILLER_20_127
*548 FILLER_20_15
*549 FILLER_20_27
*550 FILLER_20_29
*551 FILLER_20_38
*552 FILLER_20_50
*553 FILLER_20_62
*554 FILLER_20_76
*555 FILLER_20_82
*556 FILLER_20_92
*557 FILLER_20_96
*558 FILLER_21_110
*559 FILLER_21_113
*560 FILLER_21_120
*561 FILLER_21_140
*562 FILLER_21_20
*563 FILLER_21_26
*564 FILLER_21_3
*565 FILLER_21_31
*566 FILLER_21_43
*567 FILLER_21_47
*568 FILLER_21_55
*569 FILLER_21_65
*570 FILLER_21_77
*571 FILLER_21_89
*572 FILLER_21_98
*573 FILLER_22_107
*574 FILLER_22_126
*575 FILLER_22_134
*576 FILLER_22_15
*577 FILLER_22_20
*578 FILLER_22_27
*579 FILLER_22_36
*580 FILLER_22_49
*581 FILLER_22_58
*582 FILLER_22_70
*583 FILLER_22_85
*584 FILLER_22_91
*585 FILLER_23_104
*586 FILLER_23_113
*587 FILLER_23_125
*588 FILLER_23_14
*589 FILLER_23_22
*590 FILLER_23_29
*591 FILLER_23_42
*592 FILLER_23_48
*593 FILLER_23_55
*594 FILLER_23_57
*595 FILLER_23_63
*596 FILLER_23_70
*597 FILLER_23_76
*598 FILLER_23_83
*599 FILLER_23_85
*600 FILLER_23_9
*601 FILLER_23_91
*602 FILLER_23_97
*603 FILLER_2_103
*604 FILLER_2_111
*605 FILLER_2_131
*606 FILLER_2_22
*607 FILLER_2_29
*608 FILLER_2_34
*609 FILLER_2_43
*610 FILLER_2_62
*611 FILLER_2_74
*612 FILLER_2_81
*613 FILLER_2_85
*614 FILLER_2_9
*615 FILLER_3_100
*616 FILLER_3_12
*617 FILLER_3_120
*618 FILLER_3_132
*619 FILLER_3_140
*620 FILLER_3_24
*621 FILLER_3_3
*622 FILLER_3_36
*623 FILLER_3_48
*624 FILLER_3_57
*625 FILLER_3_63
*626 FILLER_3_73
*627 FILLER_3_81
*628 FILLER_3_88
*629 FILLER_4_109
*630 FILLER_4_121
*631 FILLER_4_128
*632 FILLER_4_136
*633 FILLER_4_16
*634 FILLER_4_38
*635 FILLER_4_50
*636 FILLER_4_56
*637 FILLER_4_6
*638 FILLER_4_64
*639 FILLER_4_73
*640 FILLER_4_77
*641 FILLER_4_83
*642 FILLER_4_85
*643 FILLER_4_97
*644 FILLER_5_10
*645 FILLER_5_103
*646 FILLER_5_110
*647 FILLER_5_124
*648 FILLER_5_134
*649 FILLER_5_143
*650 FILLER_5_21
*651 FILLER_5_29
*652 FILLER_5_41
*653 FILLER_5_54
*654 FILLER_5_57
*655 FILLER_5_69
*656 FILLER_5_77
*657 FILLER_5_99
*658 FILLER_6_101
*659 FILLER_6_12
*660 FILLER_6_122
*661 FILLER_6_129
*662 FILLER_6_141
*663 FILLER_6_24
*664 FILLER_6_3
*665 FILLER_6_36
*666 FILLER_6_40
*667 FILLER_6_48
*668 FILLER_6_60
*669 FILLER_6_72
*670 FILLER_6_85
*671 FILLER_6_93
*672 FILLER_7_10
*673 FILLER_7_105
*674 FILLER_7_111
*675 FILLER_7_113
*676 FILLER_7_125
*677 FILLER_7_137
*678 FILLER_7_22
*679 FILLER_7_3
*680 FILLER_7_34
*681 FILLER_7_46
*682 FILLER_7_54
*683 FILLER_7_57
*684 FILLER_7_69
*685 FILLER_7_81
*686 FILLER_7_93
*687 FILLER_8_109
*688 FILLER_8_118
*689 FILLER_8_130
*690 FILLER_8_136
*691 FILLER_8_27
*692 FILLER_8_29
*693 FILLER_8_3
*694 FILLER_8_46
*695 FILLER_8_58
*696 FILLER_8_70
*697 FILLER_8_82
*698 FILLER_8_85
*699 FILLER_8_97
*700 FILLER_9_106
*701 FILLER_9_113
*702 FILLER_9_117
*703 FILLER_9_18
*704 FILLER_9_30
*705 FILLER_9_38
*706 FILLER_9_50
*707 FILLER_9_57
*708 FILLER_9_6
*709 FILLER_9_69
*710 FILLER_9_81
*711 FILLER_9_93
*712 PHY_EDGE_ROW_0_Left_24
*713 PHY_EDGE_ROW_0_Right_0
*714 PHY_EDGE_ROW_10_Left_34
*715 PHY_EDGE_ROW_10_Right_10
*716 PHY_EDGE_ROW_11_Left_35
*717 PHY_EDGE_ROW_11_Right_11
*718 PHY_EDGE_ROW_12_Left_36
*719 PHY_EDGE_ROW_12_Right_12
*720 PHY_EDGE_ROW_13_Left_37
*721 PHY_EDGE_ROW_13_Right_13
*722 PHY_EDGE_ROW_14_Left_38
*723 PHY_EDGE_ROW_14_Right_14
*724 PHY_EDGE_ROW_15_Left_39
*725 PHY_EDGE_ROW_15_Right_15
*726 PHY_EDGE_ROW_16_Left_40
*727 PHY_EDGE_ROW_16_Right_16
*728 PHY_EDGE_ROW_17_Left_41
*729 PHY_EDGE_ROW_17_Right_17
*730 PHY_EDGE_ROW_18_Left_42
*731 PHY_EDGE_ROW_18_Right_18
*732 PHY_EDGE_ROW_19_Left_43
*733 PHY_EDGE_ROW_19_Right_19
*734 PHY_EDGE_ROW_1_Left_25
*735 PHY_EDGE_ROW_1_Right_1
*736 PHY_EDGE_ROW_20_Left_44
*737 PHY_EDGE_ROW_20_Right_20
*738 PHY_EDGE_ROW_21_Left_45
*739 PHY_EDGE_ROW_21_Right_21
*740 PHY_EDGE_ROW_22_Left_46
*741 PHY_EDGE_ROW_22_Right_22
*742 PHY_EDGE_ROW_23_Left_47
*743 PHY_EDGE_ROW_23_Right_23
*744 PHY_EDGE_ROW_2_Left_26
*745 PHY_EDGE_ROW_2_Right_2
*746 PHY_EDGE_ROW_3_Left_27
*747 PHY_EDGE_ROW_3_Right_3
*748 PHY_EDGE_ROW_4_Left_28
*749 PHY_EDGE_ROW_4_Right_4
*750 PHY_EDGE_ROW_5_Left_29
*751 PHY_EDGE_ROW_5_Right_5
*752 PHY_EDGE_ROW_6_Left_30
*753 PHY_EDGE_ROW_6_Right_6
*754 PHY_EDGE_ROW_7_Left_31
*755 PHY_EDGE_ROW_7_Right_7
*756 PHY_EDGE_ROW_8_Left_32
*757 PHY_EDGE_ROW_8_Right_8
*758 PHY_EDGE_ROW_9_Left_33
*759 PHY_EDGE_ROW_9_Right_9
*760 TAP_TAPCELL_ROW_0_48
*761 TAP_TAPCELL_ROW_0_49
*762 TAP_TAPCELL_ROW_0_50
*763 TAP_TAPCELL_ROW_0_51
*764 TAP_TAPCELL_ROW_0_52
*765 TAP_TAPCELL_ROW_10_75
*766 TAP_TAPCELL_ROW_10_76
*767 TAP_TAPCELL_ROW_10_77
*768 TAP_TAPCELL_ROW_11_78
*769 TAP_TAPCELL_ROW_11_79
*770 TAP_TAPCELL_ROW_12_80
*771 TAP_TAPCELL_ROW_12_81
*772 TAP_TAPCELL_ROW_12_82
*773 TAP_TAPCELL_ROW_13_83
*774 TAP_TAPCELL_ROW_13_84
*775 TAP_TAPCELL_ROW_14_85
*776 TAP_TAPCELL_ROW_14_86
*777 TAP_TAPCELL_ROW_14_87
*778 TAP_TAPCELL_ROW_15_88
*779 TAP_TAPCELL_ROW_15_89
*780 TAP_TAPCELL_ROW_16_90
*781 TAP_TAPCELL_ROW_16_91
*782 TAP_TAPCELL_ROW_16_92
*783 TAP_TAPCELL_ROW_17_93
*784 TAP_TAPCELL_ROW_17_94
*785 TAP_TAPCELL_ROW_18_95
*786 TAP_TAPCELL_ROW_18_96
*787 TAP_TAPCELL_ROW_18_97
*788 TAP_TAPCELL_ROW_19_98
*789 TAP_TAPCELL_ROW_19_99
*790 TAP_TAPCELL_ROW_1_53
*791 TAP_TAPCELL_ROW_1_54
*792 TAP_TAPCELL_ROW_20_100
*793 TAP_TAPCELL_ROW_20_101
*794 TAP_TAPCELL_ROW_20_102
*795 TAP_TAPCELL_ROW_21_103
*796 TAP_TAPCELL_ROW_21_104
*797 TAP_TAPCELL_ROW_22_105
*798 TAP_TAPCELL_ROW_22_106
*799 TAP_TAPCELL_ROW_22_107
*800 TAP_TAPCELL_ROW_23_108
*801 TAP_TAPCELL_ROW_23_109
*802 TAP_TAPCELL_ROW_23_110
*803 TAP_TAPCELL_ROW_23_111
*804 TAP_TAPCELL_ROW_23_112
*805 TAP_TAPCELL_ROW_2_55
*806 TAP_TAPCELL_ROW_2_56
*807 TAP_TAPCELL_ROW_2_57
*808 TAP_TAPCELL_ROW_3_58
*809 TAP_TAPCELL_ROW_3_59
*810 TAP_TAPCELL_ROW_4_60
*811 TAP_TAPCELL_ROW_4_61
*812 TAP_TAPCELL_ROW_4_62
*813 TAP_TAPCELL_ROW_5_63
*814 TAP_TAPCELL_ROW_5_64
*815 TAP_TAPCELL_ROW_6_65
*816 TAP_TAPCELL_ROW_6_66
*817 TAP_TAPCELL_ROW_6_67
*818 TAP_TAPCELL_ROW_7_68
*819 TAP_TAPCELL_ROW_7_69
*820 TAP_TAPCELL_ROW_8_70
*821 TAP_TAPCELL_ROW_8_71
*822 TAP_TAPCELL_ROW_8_72
*823 TAP_TAPCELL_ROW_9_73
*824 TAP_TAPCELL_ROW_9_74
*825 _176_
*826 _177_
*827 _178_
*828 _179_
*829 _180_
*830 _181_
*831 _182_
*832 _183_
*833 _184_
*834 _185_
*835 _186_
*836 _187_
*837 _188_
*838 _189_
*839 _190_
*840 _191_
*841 _192_
*842 _193_
*843 _194_
*844 _195_
*845 _196_
*846 _197_
*847 _198_
*848 _199_
*849 _200_
*850 _201_
*851 _202_
*852 _203_
*853 _204_
*854 _205_
*855 _206_
*856 _207_
*857 _208_
*858 _209_
*859 _210_
*860 _211_
*861 _212_
*862 _213_
*863 _214_
*864 _215_
*865 _216_
*866 _217_
*867 _218_
*868 _219_
*869 _220_
*870 _221_
*871 _222_
*872 _223_
*873 _224_
*874 _225_
*875 _226_
*876 _227_
*877 _228_
*878 _229_
*879 _230_
*880 _231_
*881 _232_
*882 _233_
*883 _234_
*884 _235_
*885 _236_
*886 _237_
*887 _238_
*888 _239_
*889 _240_
*890 _241_
*891 _242_
*892 _243_
*893 _244_
*894 _245_
*895 _246_
*896 _247_
*897 _248_
*898 _249_
*899 _250_
*900 _251_
*901 _252_
*902 _253_
*903 _254_
*904 _255_
*905 _256_
*906 _257_
*907 _258_
*908 _259_
*909 _260_
*910 _261_
*911 _262_
*912 _263_
*913 _264_
*914 _265_
*915 _266_
*916 _267_
*917 _268_
*918 _269_
*919 _270_
*920 _271_
*921 _272_
*922 _273_
*923 _274_
*924 _275_
*925 _276_
*926 _277_
*927 _278_
*928 _279_
*929 _280_
*930 _281_
*931 _282_
*932 _283_
*933 _284_
*934 _285_
*935 _286_
*936 _287_
*937 _288_
*938 _289_
*939 _290_
*940 _291_
*941 _292_
*942 _293_
*943 _294_
*944 _295_
*945 _296_
*946 _297_
*947 _298_
*948 _299_
*949 _300_
*950 _301_
*951 _302_
*952 _303_
*953 _304_
*954 _305_
*955 _306_
*956 _307_
*957 _308_
*958 _309_
*959 _310_
*960 _311_
*961 _312_
*962 _313_
*963 _314_
*964 _315_
*965 _316_
*966 _317_
*967 _318_
*968 _319_
*969 _320_
*970 _321_
*971 _322_
*972 _323_
*973 _324_
*974 _325_
*975 _326_
*976 _327_
*977 _328_
*978 _329_
*979 _330_
*980 _331_
*981 _332_
*982 _333_
*983 _334_
*984 _335_
*985 _336_
*986 _337_
*987 _338_
*988 _339_
*989 _340_
*990 _341_
*991 _342_
*992 _343_
*993 _344_
*994 _345_
*995 _346_
*996 _347_
*997 _348_
*998 _349_
*999 _350_
*1000 _351_
*1001 _352_
*1002 _353_
*1003 _354_
*1004 _355_
*1005 _356_
*1006 _357_
*1007 _358_
*1008 _359_
*1009 _360_
*1010 _361_
*1011 _362_
*1012 _363_
*1013 _364_
*1014 _365_
*1015 _366_
*1016 _367_
*1017 _368_
*1018 _369_
*1019 _370_
*1020 _371_
*1021 _372_
*1022 _373_
*1023 _374_
*1024 _375_
*1025 _376_
*1026 _377_
*1027 _378_
*1028 _379_
*1029 _380_
*1030 _381_
*1031 _382_
*1032 _383_
*1033 _384_
*1034 input1
*1035 input10
*1036 input11
*1037 input12
*1038 input13
*1039 input14
*1040 input15
*1041 input16
*1042 input17
*1043 input18
*1044 input19
*1045 input2
*1046 input20
*1047 input21
*1048 input22
*1049 input23
*1050 input24
*1051 input25
*1052 input26
*1053 input27
*1054 input28
*1055 input29
*1056 input3
*1057 input30
*1058 input31
*1059 input32
*1060 input33
*1061 input34
*1062 input35
*1063 input36
*1064 input37
*1065 input38
*1066 input39
*1067 input4
*1068 input40
*1069 input41
*1070 input42
*1071 input43
*1072 input44
*1073 input45
*1074 input46
*1075 input47
*1076 input48
*1077 input49
*1078 input5
*1079 input50
*1080 input51
*1081 input52
*1082 input53
*1083 input54
*1084 input55
*1085 input56
*1086 input57
*1087 input58
*1088 input59
*1089 input6
*1090 input60
*1091 input61
*1092 input62
*1093 input63
*1094 input64
*1095 input65
*1096 input7
*1097 input8
*1098 input9
*1099 output66
*1100 output67
*1101 output68
*1102 output69
*1103 output70
*1104 output71
*1105 output72
*1106 output73
*1107 output74
*1108 output75
*1109 output76
*1110 output77
*1111 output78
*1112 output79
*1113 output80
*1114 output81
*1115 output82
*1116 output83
*1117 output84
*1118 output85
*1119 output86
*1120 output87
*1121 output88
*1122 output89
*1123 output90
*1124 output91
*1125 output92
*1126 output93
*1127 output94
*1128 output95
*1129 output96
*1130 output97
*1131 output98

*PORTS
a[0] I
a[10] I
a[11] I
a[12] I
a[13] I
a[14] I
a[15] I
a[16] I
a[17] I
a[18] I
a[19] I
a[1] I
a[20] I
a[21] I
a[22] I
a[23] I
a[24] I
a[25] I
a[26] I
a[27] I
a[28] I
a[29] I
a[2] I
a[30] I
a[31] I
a[3] I
a[4] I
a[5] I
a[6] I
a[7] I
a[8] I
a[9] I
b[0] I
b[10] I
b[11] I
b[12] I
b[13] I
b[14] I
b[15] I
b[16] I
b[17] I
b[18] I
b[19] I
b[1] I
b[20] I
b[21] I
b[22] I
b[23] I
b[24] I
b[25] I
b[26] I
b[27] I
b[28] I
b[29] I
b[2] I
b[30] I
b[31] I
b[3] I
b[4] I
b[5] I
b[6] I
b[7] I
b[8] I
b[9] I
cin I
cout O
sum[0] O
sum[10] O
sum[11] O
sum[12] O
sum[13] O
sum[14] O
sum[15] O
sum[16] O
sum[17] O
sum[18] O
sum[19] O
sum[1] O
sum[20] O
sum[21] O
sum[22] O
sum[23] O
sum[24] O
sum[25] O
sum[26] O
sum[27] O
sum[28] O
sum[29] O
sum[2] O
sum[30] O
sum[31] O
sum[3] O
sum[4] O
sum[5] O
sum[6] O
sum[7] O
sum[8] O
sum[9] O

*D_NET *3 0.00171555
*CONN
*P a[0] I
*I *1034:A I *D sky130_fd_sc_hd__clkbuf_1
*CAP
1 a[0] 0.000527568
2 *1034:A 0.000527568
3 *1034:A sum[0] 0
4 *1034:A sum[2] 0.00027049
5 *1034:A *1095:A 0.000312209
6 *1034:A *292:10 3.14048e-05
7 *1034:A *338:14 4.63078e-05
*RES
1 a[0] *1034:A 26.8536 
*END

*D_NET *4 0.000498631
*CONN
*P a[10] I
*I *1045:A I *D sky130_fd_sc_hd__clkbuf_1
*CAP
1 a[10] 0.000160057
2 *1045:A 0.000160057
3 *1045:A *890:A 0
4 *1045:A *1061:A 8.56414e-05
5 *1045:A *1094:A 9.28756e-05
*RES
1 a[10] *1045:A 18.1949 
*END

*D_NET *5 0.00116157
*CONN
*P a[11] I
*I *1056:A I *D sky130_fd_sc_hd__clkbuf_1
*CAP
1 a[11] 0.000388626
2 *1056:A 0.000388626
3 *1056:A sum[11] 0.000103779
4 *1056:A sum[12] 9.94666e-05
5 *1056:A sum[13] 0
6 *1056:A *907:A1 9.25014e-06
7 *1056:A *134:10 0.000151333
8 *1056:A *299:10 2.04913e-05
*RES
1 a[11] *1056:A 20.6082 
*END

*D_NET *6 0.00231984
*CONN
*P a[12] I
*I *1067:A I *D sky130_fd_sc_hd__clkbuf_1
*CAP
1 a[12] 0.000551919
2 *1067:A 0.000551919
3 *1067:A *898:B 0
4 *1067:A *1078:A 6.63071e-05
5 *1067:A *1089:A 0.000234568
6 *1067:A *1093:A 0.000861789
7 *1067:A *365:22 5.33334e-05
*RES
1 a[12] *1067:A 31.1216 
*END

*D_NET *7 0.00180604
*CONN
*P a[13] I
*I *1078:A I *D sky130_fd_sc_hd__buf_1
*CAP
1 a[13] 0.000680366
2 *1078:A 0.000680366
3 *1078:A sum[15] 0
4 *1078:A *1058:A 0.000141261
5 *1078:A *1065:A 0.000187365
6 *1078:A *1089:A 5.03772e-05
7 *1078:A *1093:A 0
8 *1067:A *1078:A 6.63071e-05
*RES
1 a[13] *1078:A 24.4532 
*END

*D_NET *8 0.00284365
*CONN
*P a[14] I
*I *1089:A I *D sky130_fd_sc_hd__clkbuf_1
*CAP
1 a[14] 0.00090165
2 *1089:A 0.00090165
3 *1089:A sum[15] 1.56e-05
4 *1089:A *1058:A 5.33334e-05
5 *1089:A *1066:A 0.000142856
6 *1089:A *1098:A 5.52302e-05
7 *1089:A *308:12 3.18676e-05
8 *1089:A *309:12 4.88637e-05
9 *1089:A *332:12 0.00040765
10 *1067:A *1089:A 0.000234568
11 *1078:A *1089:A 5.03772e-05
*RES
1 a[14] *1089:A 34.4786 
*END

*D_NET *9 0.000845225
*CONN
*P a[15] I
*I *1096:A I *D sky130_fd_sc_hd__clkbuf_1
*CAP
1 a[15] 0.000422612
2 *1096:A 0.000422612
3 *1096:A sum[17] 0
4 *1096:A *1066:A 0
5 *1096:A *1108:A 0
*RES
1 a[15] *1096:A 21.8357 
*END

*D_NET *10 0.00320342
*CONN
*P a[16] I
*I *1097:A I *D sky130_fd_sc_hd__buf_1
*CAP
1 a[16] 0.000991424
2 *1097:A 0.000991424
3 *1097:A sum[19] 0
4 *1097:A sum[25] 8.19973e-05
5 *1097:A *964:A1 0
6 *1097:A *1039:A 0.000395419
7 *1097:A *1041:A 0.000355298
8 *1097:A *1073:A 5.52302e-05
9 *1097:A *1114:A 0.00015346
10 *1097:A *219:8 2.44318e-05
11 *1097:A *284:16 2.90068e-05
12 *1097:A *359:16 0.000125731
*RES
1 a[16] *1097:A 45.4429 
*END

*D_NET *11 0.000936842
*CONN
*P a[17] I
*I *1098:A I *D sky130_fd_sc_hd__buf_1
*CAP
1 a[17] 0.000326966
2 *1098:A 0.000326966
3 *1098:A sum[15] 0
4 *1098:A *1058:A 0
5 *1098:A *1093:A 0.000227679
6 *1098:A *1106:A 0
7 *1089:A *1098:A 5.52302e-05
*RES
1 a[17] *1098:A 21.8357 
*END

*D_NET *12 0.00191032
*CONN
*P a[18] I
*I *1035:A I *D sky130_fd_sc_hd__clkbuf_1
*CAP
1 a[18] 0.000620491
2 *1035:A 0.000620491
3 *1035:A sum[24] 0.000308938
4 *1035:A sum[25] 8.89407e-05
5 *1035:A *1036:A 0.00013478
6 *1035:A *1116:A 0
7 *1035:A *279:16 9.28838e-05
8 *1035:A *359:16 4.37931e-05
*RES
1 a[18] *1035:A 27.4607 
*END

*D_NET *13 0.00105892
*CONN
*P a[19] I
*I *1036:A I *D sky130_fd_sc_hd__buf_1
*CAP
1 a[19] 0.000433869
2 *1036:A 0.000433869
3 *1036:A sum[19] 0
4 *1036:A *1116:A 2.86908e-05
5 *1036:A *359:16 2.77126e-05
6 *1035:A *1036:A 0.00013478
*RES
1 a[19] *1036:A 22.3714 
*END

*D_NET *14 0.00113013
*CONN
*P a[1] I
*I *1037:A I *D sky130_fd_sc_hd__clkbuf_1
*CAP
1 a[1] 0.000565067
2 *1037:A 0.000565067
3 *1037:A sum[8] 0
4 *1037:A *1072:A 0
5 *1037:A *1130:A 0
*RES
1 a[1] *1037:A 25.0857 
*END

*D_NET *15 0.00067187
*CONN
*P a[20] I
*I *1038:A I *D sky130_fd_sc_hd__clkbuf_1
*CAP
1 a[20] 0.000212331
2 *1038:A 0.000212331
3 *1038:A sum[23] 8.3155e-05
4 *1038:A *966:B 0
5 *1038:A *1075:A 0.000110415
6 *1038:A *281:10 5.36379e-05
*RES
1 a[20] *1038:A 19.9443 
*END

*D_NET *16 0.00109134
*CONN
*P a[21] I
*I *1039:A I *D sky130_fd_sc_hd__buf_1
*CAP
1 a[21] 0.000345729
2 *1039:A 0.000345729
3 *1039:A sum[19] 0
4 *1039:A sum[22] 0
5 *1039:A *1114:A 4.46186e-06
6 *1097:A *1039:A 0.000395419
*RES
1 a[21] *1039:A 21.8357 
*END

*D_NET *17 0.000998704
*CONN
*P a[22] I
*I *1040:A I *D sky130_fd_sc_hd__clkbuf_1
*CAP
1 a[22] 0.000443149
2 *1040:A 0.000443149
3 *1040:A *1073:A 3.45861e-05
4 *1040:A *1075:A 2.25951e-05
5 *1040:A *318:12 5.52238e-05
*RES
1 a[22] *1040:A 24.3339 
*END

*D_NET *18 0.0027068
*CONN
*P a[23] I
*I *1041:A I *D sky130_fd_sc_hd__clkbuf_1
*CAP
1 a[23] 0.000919899
2 *1041:A 0.000919899
3 *1041:A sum[19] 0
4 *1041:A sum[24] 0
5 *1041:A sum[25] 3.71658e-05
6 *1041:A *1073:A 0.000230304
7 *1041:A *1110:A 9.41642e-05
8 *1041:A *279:16 9.41642e-05
9 *1041:A *284:16 5.59013e-05
10 *1097:A *1041:A 0.000355298
*RES
1 a[23] *1041:A 24.6165 
*END

*D_NET *19 0.000950863
*CONN
*P a[24] I
*I *1042:A I *D sky130_fd_sc_hd__clkbuf_1
*CAP
1 a[24] 0.00028825
2 *1042:A 0.00028825
3 *1042:A *979:A 5.71472e-05
4 *1042:A *1076:A 4.68796e-05
5 *1042:A *1077:A 4.68796e-05
6 *1042:A *230:10 0.000188586
7 *1042:A *285:8 3.48705e-05
*RES
1 a[24] *1042:A 22.4953 
*END

*D_NET *20 0.000648784
*CONN
*P a[25] I
*I *1043:A I *D sky130_fd_sc_hd__clkbuf_1
*CAP
1 a[25] 0.000251934
2 *1043:A 0.000251934
3 *1043:A sum[27] 2.25951e-05
4 *1043:A *1079:A 8.3155e-05
5 *1043:A *226:12 0
6 *1043:A *286:10 3.91668e-05
*RES
1 a[25] *1043:A 19.9443 
*END

*D_NET *21 0.000976004
*CONN
*P a[26] I
*I *1044:A I *D sky130_fd_sc_hd__buf_1
*CAP
1 a[26] 0.000361034
2 *1044:A 0.000361034
3 *1044:A *1000:B 4.33002e-05
4 *1044:A *1030:A2 1.02504e-05
5 *1044:A *1046:A 3.19385e-05
6 *1044:A *1050:A 2.25951e-05
7 *1044:A *1051:A 0
8 *1044:A *1055:A 8.99513e-05
9 *1044:A *1081:A 0
10 *1044:A *294:21 5.59013e-05
*RES
1 a[26] *1044:A 19.3939 
*END

*D_NET *22 0.000876255
*CONN
*P a[27] I
*I *1046:A I *D sky130_fd_sc_hd__buf_1
*CAP
1 a[27] 0.000367315
2 *1046:A 0.000367315
3 *1046:A *1081:A 2.25951e-05
4 *1046:A *1086:A 3.18676e-05
5 *1046:A *324:12 5.52238e-05
6 *1044:A *1046:A 3.19385e-05
*RES
1 a[27] *1046:A 22.4446 
*END

*D_NET *23 0.00108355
*CONN
*P a[28] I
*I *1047:A I *D sky130_fd_sc_hd__buf_1
*CAP
1 a[28] 0.000525843
2 *1047:A 0.000525843
3 *1047:A sum[29] 0
4 *1047:A *1082:A 0
5 *1047:A *291:43 3.18676e-05
*RES
1 a[28] *1047:A 24.2643 
*END

*D_NET *24 0.00138877
*CONN
*P a[29] I
*I *1048:A I *D sky130_fd_sc_hd__buf_1
*CAP
1 a[29] 0.000518283
2 *1048:A 0.000518283
3 *1048:A cout 0
4 *1048:A *1050:A 5.71472e-05
5 *1048:A *1086:A 0.000275253
6 *1048:A *291:20 5.7661e-06
7 *1048:A *293:6 1.40415e-05
*RES
1 a[29] *1048:A 25.6214 
*END

*D_NET *25 0.00205282
*CONN
*P a[2] I
*I *1049:A I *D sky130_fd_sc_hd__clkbuf_1
*CAP
1 a[2] 0.000733718
2 *1049:A 0.000733718
3 *1049:A sum[2] 0.000128615
4 *1049:A sum[9] 0.000256658
5 *1049:A *1052:A 0.000187257
6 *1049:A *1060:A 0
7 *1049:A *1084:A 1.28585e-05
*RES
1 a[2] *1049:A 25.4915 
*END

*D_NET *26 0.00085227
*CONN
*P a[30] I
*I *1050:A I *D sky130_fd_sc_hd__buf_1
*CAP
1 a[30] 0.000371879
2 *1050:A 0.000371879
3 *1050:A *1051:A 2.87684e-05
4 *1044:A *1050:A 2.25951e-05
5 *1048:A *1050:A 5.71472e-05
*RES
1 a[30] *1050:A 22.6053 
*END

*D_NET *27 0.0018396
*CONN
*P a[31] I
*I *1051:A I *D sky130_fd_sc_hd__buf_1
*CAP
1 a[31] 0.000687786
2 *1051:A 0.000687786
3 *1051:A *1031:B1 3.79467e-05
4 *1051:A *1033:A2 5.30637e-06
5 *1051:A *1033:B1 1.31933e-05
6 *1051:A *1080:A 6.06115e-05
7 *1051:A *1086:A 0
8 *1051:A *294:8 0.00018077
9 *1051:A *329:25 0.000137427
10 *1044:A *1051:A 0
11 *1050:A *1051:A 2.87684e-05
*RES
1 a[31] *1051:A 28.6216 
*END

*D_NET *28 0.00230029
*CONN
*P a[3] I
*I *1052:A I *D sky130_fd_sc_hd__clkbuf_1
*CAP
1 a[3] 0.000650049
2 *1052:A 0.000650049
3 *1052:A sum[0] 0
4 *1052:A sum[9] 0
5 *1052:A *1084:A 0.000187606
6 *1052:A *1095:A 7.93077e-05
7 *1052:A *1100:A 0
8 *1052:A *1122:A 4.97121e-06
9 *1052:A *103:12 6.09572e-05
10 *1052:A *105:10 2.89114e-05
11 *1052:A *277:12 0.00017309
12 *1052:A *302:10 5.41794e-05
13 *1052:A *327:8 5.33005e-05
14 *1052:A *374:14 0.000170615
15 *1049:A *1052:A 0.000187257
*RES
1 a[3] *1052:A 27.4162 
*END

*D_NET *29 0.00055369
*CONN
*P a[4] I
*I *1053:A I *D sky130_fd_sc_hd__clkbuf_1
*CAP
1 a[4] 0.000185956
2 *1053:A 0.000185956
3 *1053:A sum[10] 9.54485e-05
4 *1053:A sum[4] 8.63301e-05
*RES
1 a[4] *1053:A 18.8021 
*END

*D_NET *30 0.00107695
*CONN
*P a[5] I
*I *1054:A I *D sky130_fd_sc_hd__clkbuf_1
*CAP
1 a[5] 0.000536628
2 *1054:A 0.000536628
3 *1054:A sum[5] 0
4 *1054:A *1090:A 0
5 *1054:A *333:12 3.69047e-06
*RES
1 a[5] *1054:A 24.2643 
*END

*D_NET *31 0.0037811
*CONN
*P a[6] I
*I *1055:A I *D sky130_fd_sc_hd__buf_1
*CAP
1 a[6] 0.0013021
2 *1055:A 0.0013021
3 *1055:A cout 0.000412526
4 *1055:A *1000:B 6.65563e-05
5 *1055:A *1030:A2 8.5662e-05
6 *1055:A *1033:B1 6.07232e-05
7 *1055:A *1080:A 0
8 *1055:A *1083:A 0
9 *1055:A *1085:A 0
10 *1055:A *1086:A 9.94666e-05
11 *1055:A *1099:A 2.91887e-05
12 *1055:A *287:8 0.00015234
13 *1055:A *293:12 0.000148911
14 *1055:A *329:25 3.15739e-05
15 *1044:A *1055:A 8.99513e-05
*RES
1 a[6] *1055:A 40.1107 
*END

*D_NET *32 0.000637724
*CONN
*P a[7] I
*I *1057:A I *D sky130_fd_sc_hd__buf_1
*CAP
1 a[7] 0.000256347
2 *1057:A 0.000256347
3 *1057:A *1014:A_N 0
4 *1057:A *1077:A 2.25951e-05
5 *1057:A *1092:A 0.000102435
*RES
1 a[7] *1057:A 18.9305 
*END

*D_NET *33 0.00132757
*CONN
*P a[8] I
*I *1058:A I *D sky130_fd_sc_hd__buf_1
*CAP
1 a[8] 0.000455198
2 *1058:A 0.000455198
3 *1058:A sum[14] 9.32347e-05
4 *1058:A sum[15] 0.000129344
5 *1078:A *1058:A 0.000141261
6 *1089:A *1058:A 5.33334e-05
7 *1098:A *1058:A 0
*RES
1 a[8] *1058:A 20.913 
*END

*D_NET *34 0.00141181
*CONN
*P a[9] I
*I *1059:A I *D sky130_fd_sc_hd__clkbuf_1
*CAP
1 a[9] 0.000425647
2 *1059:A 0.000425647
3 *1059:A sum[3] 0
4 *1059:A *830:B 0.000148707
5 *1059:A *1084:A 0.00015325
6 *1059:A *1087:A 8.56414e-05
7 *1059:A *1122:A 0.000161858
8 *1059:A *292:10 1.10632e-05
*RES
1 a[9] *1059:A 20.5208 
*END

*D_NET *35 0.00106132
*CONN
*P b[0] I
*I *1060:A I *D sky130_fd_sc_hd__clkbuf_1
*CAP
1 b[0] 0.000527756
2 *1060:A 0.000527756
3 *1060:A sum[1] 0
4 *1060:A sum[9] 0
5 *1060:A *835:A 5.80706e-06
6 *1049:A *1060:A 0
*RES
1 b[0] *1060:A 24.2643 
*END

*D_NET *36 0.000735772
*CONN
*P b[10] I
*I *1061:A I *D sky130_fd_sc_hd__clkbuf_1
*CAP
1 b[10] 0.000206184
2 *1061:A 0.000206184
3 *1061:A sum[11] 9.54485e-05
4 *1061:A *871:B 0.000142315
5 *1045:A *1061:A 8.56414e-05
*RES
1 b[10] *1061:A 19.7128 
*END

*D_NET *37 0.000518399
*CONN
*P b[11] I
*I *1062:A I *D sky130_fd_sc_hd__clkbuf_1
*CAP
1 b[11] 0.000161033
2 *1062:A 0.000161033
3 *1062:A sum[14] 8.4658e-05
4 *1062:A *1064:A 9.23325e-05
5 *1062:A *1093:A 1.01912e-05
6 *1062:A *1105:A 9.15186e-06
*RES
1 b[11] *1062:A 18.1949 
*END

*D_NET *38 0.000636461
*CONN
*P b[12] I
*I *1063:A I *D sky130_fd_sc_hd__clkbuf_1
*CAP
1 b[12] 0.000177187
2 *1063:A 0.000177187
3 *1063:A sum[13] 9.28756e-05
4 *1063:A *1064:A 9.23325e-05
5 *1063:A *305:16 9.68786e-05
*RES
1 b[12] *1063:A 19.1056 
*END

*D_NET *39 0.000992489
*CONN
*P b[13] I
*I *1064:A I *D sky130_fd_sc_hd__buf_1
*CAP
1 b[13] 0.00031472
2 *1064:A 0.00031472
3 *1064:A sum[13] 0
4 *1064:A *310:10 9.09514e-05
5 *1064:A *336:18 8.74324e-05
6 *1062:A *1064:A 9.23325e-05
7 *1063:A *1064:A 9.23325e-05
*RES
1 b[13] *1064:A 20.3046 
*END

*D_NET *40 0.000952881
*CONN
*P b[14] I
*I *1065:A I *D sky130_fd_sc_hd__clkbuf_1
*CAP
1 b[14] 0.000382758
2 *1065:A 0.000382758
3 *1065:A sum[15] 0
4 *1065:A *1066:A 0
5 *1065:A *1106:A 0
6 *1078:A *1065:A 0.000187365
*RES
1 b[14] *1065:A 21.8357 
*END

*D_NET *41 0.00102984
*CONN
*P b[15] I
*I *1066:A I *D sky130_fd_sc_hd__clkbuf_1
*CAP
1 b[15] 0.000443492
2 *1066:A 0.000443492
3 *1065:A *1066:A 0
4 *1089:A *1066:A 0.000142856
5 *1096:A *1066:A 0
*RES
1 b[15] *1066:A 22.6571 
*END

*D_NET *42 0.000952922
*CONN
*P b[16] I
*I *1068:A I *D sky130_fd_sc_hd__clkbuf_1
*CAP
1 b[16] 0.000444255
2 *1068:A 0.000444255
3 *1068:A sum[7] 0
4 *1068:A *941:A 1.02504e-05
5 *1068:A *1070:A 0
6 *1068:A *199:14 5.41609e-05
*RES
1 b[16] *1068:A 22.6571 
*END

*D_NET *43 0.000845225
*CONN
*P b[17] I
*I *1069:A I *D sky130_fd_sc_hd__clkbuf_1
*CAP
1 b[17] 0.000422612
2 *1069:A 0.000422612
3 *1069:A sum[17] 0
4 *1069:A sum[18] 0
5 *1069:A *1109:A 0
*RES
1 b[17] *1069:A 21.8357 
*END

*D_NET *44 0.000848523
*CONN
*P b[18] I
*I *1070:A I *D sky130_fd_sc_hd__clkbuf_1
*CAP
1 b[18] 0.000413203
2 *1070:A 0.000413203
3 *1070:A sum[20] 0
4 *1070:A *924:A 1.92905e-05
5 *1070:A *941:B 2.8266e-06
6 *1070:A *1112:A 0
7 *1068:A *1070:A 0
*RES
1 b[18] *1070:A 21.8357 
*END

*D_NET *45 0.000885124
*CONN
*P b[19] I
*I *1071:A I *D sky130_fd_sc_hd__clkbuf_1
*CAP
1 b[19] 0.000411388
2 *1071:A 0.000411388
3 *1071:A sum[20] 0
4 *1071:A sum[21] 0
5 *1071:A *278:12 2.89114e-05
6 *1071:A *279:16 3.34366e-05
*RES
1 b[19] *1071:A 21.8357 
*END

*D_NET *46 0.00104975
*CONN
*P b[1] I
*I *1072:A I *D sky130_fd_sc_hd__clkbuf_1
*CAP
1 b[1] 0.000524875
2 *1072:A 0.000524875
3 *1072:A sum[5] 0
4 *1072:A *1127:A 0
5 *1037:A *1072:A 0
*RES
1 b[1] *1072:A 24.2643 
*END

*D_NET *47 0.00281032
*CONN
*P b[20] I
*I *1073:A I *D sky130_fd_sc_hd__clkbuf_1
*CAP
1 b[20] 0.000979375
2 *1073:A 0.000979375
3 *1073:A sum[19] 6.35864e-05
4 *1073:A *968:B 8.50152e-05
5 *1073:A *1114:A 3.97677e-05
6 *1073:A *205:10 0
7 *1073:A *219:8 0.000221634
8 *1073:A *284:16 0.000121446
9 *1040:A *1073:A 3.45861e-05
10 *1041:A *1073:A 0.000230304
11 *1097:A *1073:A 5.52302e-05
*RES
1 b[20] *1073:A 25.3289 
*END

*D_NET *48 0.000935903
*CONN
*P b[21] I
*I *1074:A I *D sky130_fd_sc_hd__buf_1
*CAP
1 b[21] 0.000412721
2 *1074:A 0.000412721
3 *1074:A sum[21] 0
4 *1074:A sum[22] 0
5 *1074:A *1110:A 5.52302e-05
6 *1074:A *279:16 5.52302e-05
*RES
1 b[21] *1074:A 21.8357 
*END

*D_NET *49 0.000625624
*CONN
*P b[22] I
*I *1075:A I *D sky130_fd_sc_hd__clkbuf_1
*CAP
1 b[22] 0.000246307
2 *1075:A 0.000246307
3 *1075:A *316:12 0
4 *1038:A *1075:A 0.000110415
5 *1040:A *1075:A 2.25951e-05
*RES
1 b[22] *1075:A 18.627 
*END

*D_NET *50 0.00107547
*CONN
*P b[23] I
*I *1076:A I *D sky130_fd_sc_hd__clkbuf_1
*CAP
1 b[23] 0.000463057
2 *1076:A 0.000463057
3 *1076:A sum[23] 9.28688e-05
4 *1076:A *946:B 0
5 *1076:A *947:A 9.60337e-06
6 *1076:A *986:A 0
7 *1076:A *1077:A 0
8 *1076:A *359:16 0
9 *1042:A *1076:A 4.68796e-05
*RES
1 b[23] *1076:A 19.3065 
*END

*D_NET *51 0.000693994
*CONN
*P b[24] I
*I *1077:A I *D sky130_fd_sc_hd__clkbuf_1
*CAP
1 b[24] 0.000282647
2 *1077:A 0.000282647
3 *1077:A *1014:A_N 0
4 *1077:A *320:8 5.92267e-05
5 *1042:A *1077:A 4.68796e-05
6 *1057:A *1077:A 2.25951e-05
7 *1076:A *1077:A 0
*RES
1 b[24] *1077:A 20.2479 
*END

*D_NET *52 0.000449129
*CONN
*P b[25] I
*I *1079:A I *D sky130_fd_sc_hd__clkbuf_1
*CAP
1 b[25] 0.00014061
2 *1079:A 0.00014061
3 *1079:A *977:B 8.04237e-06
4 *1079:A *1092:A 7.67105e-05
5 *1043:A *1079:A 8.3155e-05
*RES
1 b[25] *1079:A 18.1229 
*END

*D_NET *53 0.00259597
*CONN
*P b[26] I
*I *1080:A I *D sky130_fd_sc_hd__buf_1
*CAP
1 b[26] 0.000781769
2 *1080:A 0.000781769
3 *1080:A sum[31] 0
4 *1080:A *1002:A 5.41794e-05
5 *1080:A *1032:B 4.57352e-05
6 *1080:A *1033:A2 0
7 *1080:A *1083:A 9.15248e-05
8 *1080:A *1085:A 0.000222996
9 *1080:A *1124:A 0.000384288
10 *1080:A *328:14 0.000173097
11 *1051:A *1080:A 6.06115e-05
12 *1055:A *1080:A 0
*RES
1 b[26] *1080:A 27.1688 
*END

*D_NET *54 0.000936193
*CONN
*P b[27] I
*I *1081:A I *D sky130_fd_sc_hd__buf_1
*CAP
1 b[27] 0.000345026
2 *1081:A 0.000345026
3 *1081:A *1000:B 0
4 *1081:A *1091:A 0.000110415
5 *1081:A *324:12 0.000113131
6 *1044:A *1081:A 0
7 *1046:A *1081:A 2.25951e-05
*RES
1 b[27] *1081:A 22.3729 
*END

*D_NET *55 0.00107487
*CONN
*P b[28] I
*I *1082:A I *D sky130_fd_sc_hd__buf_1
*CAP
1 b[28] 0.000537435
2 *1082:A 0.000537435
3 *1082:A sum[30] 0
4 *1082:A *1123:A 0
5 *1047:A *1082:A 0
*RES
1 b[28] *1082:A 24.3893 
*END

*D_NET *56 0.00135508
*CONN
*P b[29] I
*I *1083:A I *D sky130_fd_sc_hd__buf_1
*CAP
1 b[29] 0.000557242
2 *1083:A 0.000557242
3 *1083:A sum[31] 0
4 *1083:A *1030:B1 0
5 *1083:A *248:10 1.55885e-05
6 *1083:A *291:20 9.71197e-05
7 *1083:A *328:10 3.63587e-05
8 *1055:A *1083:A 0
9 *1080:A *1083:A 9.15248e-05
*RES
1 b[29] *1083:A 25.4607 
*END

*D_NET *57 0.00212152
*CONN
*P b[2] I
*I *1084:A I *D sky130_fd_sc_hd__clkbuf_1
*CAP
1 b[2] 0.000782256
2 *1084:A 0.000782256
3 *1084:A *833:A 0
4 *1084:A *835:A 0
5 *1084:A *835:B 0
6 *1084:A *303:10 0
7 *1084:A *374:14 0.000203291
8 *1049:A *1084:A 1.28585e-05
9 *1052:A *1084:A 0.000187606
10 *1059:A *1084:A 0.00015325
*RES
1 b[2] *1084:A 24.1331 
*END

*D_NET *58 0.00296274
*CONN
*P b[30] I
*I *1085:A I *D sky130_fd_sc_hd__buf_1
*CAP
1 b[30] 0.00107111
2 *1085:A 0.00107111
3 *1085:A sum[28] 0.000177443
4 *1085:A sum[30] 0
5 *1085:A *1086:A 9.94666e-05
6 *1085:A *1120:A 5.80706e-06
7 *1085:A *291:20 0.000185124
8 *1085:A *326:16 2.96992e-05
9 *1085:A *328:10 9.99853e-05
10 *1055:A *1085:A 0
11 *1080:A *1085:A 0.000222996
*RES
1 b[30] *1085:A 28.1241 
*END

*D_NET *59 0.00323166
*CONN
*P b[31] I
*I *1086:A I *D sky130_fd_sc_hd__buf_1
*CAP
1 b[31] 0.0011103
2 *1086:A 0.0011103
3 *1086:A cout 0
4 *1086:A *1000:B 7.62687e-05
5 *1086:A *1030:A1 0.000152333
6 *1086:A *1030:A2 8.2958e-06
7 *1086:A *1031:B1 0.000103253
8 *1086:A *294:21 2.49484e-05
9 *1086:A *298:14 0.000139907
10 *1046:A *1086:A 3.18676e-05
11 *1048:A *1086:A 0.000275253
12 *1051:A *1086:A 0
13 *1055:A *1086:A 9.94666e-05
14 *1085:A *1086:A 9.94666e-05
*RES
1 b[31] *1086:A 38.9098 
*END

*D_NET *60 0.000588092
*CONN
*P b[3] I
*I *1087:A I *D sky130_fd_sc_hd__clkbuf_1
*CAP
1 b[3] 0.000197403
2 *1087:A 0.000197403
3 *1087:A sum[3] 9.54485e-05
4 *1087:A *830:B 0
5 *1087:A *1122:A 0
6 *1087:A *330:10 1.21955e-05
7 *1059:A *1087:A 8.56414e-05
*RES
1 b[3] *1087:A 19.1056 
*END

*D_NET *61 0.000713215
*CONN
*P b[4] I
*I *1088:A I *D sky130_fd_sc_hd__clkbuf_1
*CAP
1 b[4] 0.000261159
2 *1088:A 0.000261159
3 *1088:A sum[3] 9.54485e-05
4 *1088:A sum[4] 9.54485e-05
5 *1088:A *1125:A 0
6 *1088:A *101:14 0
*RES
1 b[4] *1088:A 20.3199 
*END

*D_NET *62 0.00104975
*CONN
*P b[5] I
*I *1090:A I *D sky130_fd_sc_hd__clkbuf_1
*CAP
1 b[5] 0.000524875
2 *1090:A 0.000524875
3 *1090:A sum[6] 0
4 *1090:A *1128:A 0
5 *1054:A *1090:A 0
*RES
1 b[5] *1090:A 24.2643 
*END

*D_NET *63 0.000780093
*CONN
*P b[6] I
*I *1091:A I *D sky130_fd_sc_hd__buf_1
*CAP
1 b[6] 0.000280119
2 *1091:A 0.000280119
3 *1091:A sum[26] 2.25951e-05
4 *1091:A *323:16 7.72412e-05
5 *1091:A *323:22 9.60337e-06
6 *1081:A *1091:A 0.000110415
*RES
1 b[6] *1091:A 20.1448 
*END

*D_NET *64 0.000887342
*CONN
*P b[7] I
*I *1092:A I *D sky130_fd_sc_hd__buf_1
*CAP
1 b[7] 0.000342745
2 *1092:A 0.000342745
3 *1092:A *1012:D 0
4 *1092:A *1014:B 2.27062e-05
5 *1092:A *227:29 0
6 *1057:A *1092:A 0.000102435
7 *1079:A *1092:A 7.67105e-05
*RES
1 b[7] *1092:A 19.466 
*END

*D_NET *65 0.00294421
*CONN
*P b[8] I
*I *1093:A I *D sky130_fd_sc_hd__buf_1
*CAP
1 b[8] 0.000892604
2 *1093:A 0.000892604
3 *1093:A sum[14] 5.7903e-06
4 *1093:A *1105:A 0
5 *1093:A *1106:A 0
6 *1093:A *305:16 5.3553e-05
7 *1093:A *310:10 0
8 *1093:A *365:22 0
9 *1062:A *1093:A 1.01912e-05
10 *1067:A *1093:A 0.000861789
11 *1078:A *1093:A 0
12 *1098:A *1093:A 0.000227679
*RES
1 b[8] *1093:A 36.9079 
*END

*D_NET *66 0.000699135
*CONN
*P b[9] I
*I *1094:A I *D sky130_fd_sc_hd__clkbuf_1
*CAP
1 b[9] 0.000256692
2 *1094:A 0.000256692
3 *1094:A sum[10] 9.28756e-05
4 *1094:A *890:A 0
5 *1045:A *1094:A 9.28756e-05
*RES
1 b[9] *1094:A 20.0163 
*END

*D_NET *67 0.00190643
*CONN
*P cin I
*I *1095:A I *D sky130_fd_sc_hd__buf_1
*CAP
1 cin 0.000613945
2 *1095:A 0.000613945
3 *1095:A sum[0] 0.000287022
4 *1095:A sum[9] 0
5 *1034:A *1095:A 0.000312209
6 *1052:A *1095:A 7.93077e-05
*RES
1 cin *1095:A 27.2643 
*END

*D_NET *68 0.00134203
*CONN
*P cout O
*I *1099:X O *D sky130_fd_sc_hd__buf_2
*CAP
1 cout 0.000416192
2 *1099:X 0.000416192
3 cout *291:20 9.71197e-05
4 *1048:A cout 0
5 *1055:A cout 0.000412526
6 *1086:A cout 0
*RES
1 *1099:X cout 24.0679 
*END

*D_NET *69 0.00253886
*CONN
*P sum[0] O
*I *1100:X O *D sky130_fd_sc_hd__buf_2
*CAP
1 sum[0] 0.000644644
2 *1100:X 0.000644644
3 sum[0] sum[2] 0.000928105
4 sum[0] *1100:A 2.51895e-05
5 sum[0] *292:10 9.25014e-06
6 *1034:A sum[0] 0
7 *1052:A sum[0] 0
8 *1095:A sum[0] 0.000287022
*RES
1 *1100:X sum[0] 31.3053 
*END

*D_NET *70 0.000603037
*CONN
*P sum[10] O
*I *1101:X O *D sky130_fd_sc_hd__buf_2
*CAP
1 sum[10] 0.000207357
2 *1101:X 0.000207357
3 sum[10] sum[4] 0
4 sum[10] *1101:A 0
5 *1053:A sum[10] 9.54485e-05
6 *1094:A sum[10] 9.28756e-05
*RES
1 *1101:X sum[10] 18.8741 
*END

*D_NET *71 0.000522739
*CONN
*P sum[11] O
*I *1102:X O *D sky130_fd_sc_hd__buf_2
*CAP
1 sum[11] 0.000161756
2 *1102:X 0.000161756
3 sum[11] *907:A1 0
4 *1056:A sum[11] 0.000103779
5 *1061:A sum[11] 9.54485e-05
*RES
1 *1102:X sum[11] 18.267 
*END

*D_NET *72 0.000588036
*CONN
*P sum[12] O
*I *1103:X O *D sky130_fd_sc_hd__buf_2
*CAP
1 sum[12] 0.000176249
2 *1103:X 0.000176249
3 sum[12] sum[13] 9.22324e-05
4 sum[12] *305:16 2.11419e-05
5 sum[12] *336:18 2.26973e-05
6 *1056:A sum[12] 9.94666e-05
*RES
1 *1103:X sum[12] 18.267 
*END

*D_NET *73 0.000868979
*CONN
*P sum[13] O
*I *1104:X O *D sky130_fd_sc_hd__buf_2
*CAP
1 sum[13] 0.00033904
2 *1104:X 0.00033904
3 sum[13] *301:20 0
4 sum[13] *336:18 5.7903e-06
5 sum[12] sum[13] 9.22324e-05
6 *1056:A sum[13] 0
7 *1063:A sum[13] 9.28756e-05
8 *1064:A sum[13] 0
*RES
1 *1104:X sum[13] 18.5553 
*END

*D_NET *74 0.000651423
*CONN
*P sum[14] O
*I *1105:X O *D sky130_fd_sc_hd__buf_2
*CAP
1 sum[14] 0.000222768
2 *1105:X 0.000222768
3 sum[14] *365:22 2.22043e-05
4 *1058:A sum[14] 9.32347e-05
5 *1062:A sum[14] 8.4658e-05
6 *1093:A sum[14] 5.7903e-06
*RES
1 *1105:X sum[14] 18.267 
*END

*D_NET *75 0.00104262
*CONN
*P sum[15] O
*I *1106:X O *D sky130_fd_sc_hd__buf_2
*CAP
1 sum[15] 0.000448839
2 *1106:X 0.000448839
3 *1058:A sum[15] 0.000129344
4 *1065:A sum[15] 0
5 *1078:A sum[15] 0
6 *1089:A sum[15] 1.56e-05
7 *1098:A sum[15] 0
*RES
1 *1106:X sum[15] 22.05 
*END

*D_NET *76 0.000950737
*CONN
*P sum[16] O
*I *1107:X O *D sky130_fd_sc_hd__buf_2
*CAP
1 sum[16] 0.000475368
2 *1107:X 0.000475368
3 sum[16] sum[18] 0
4 sum[16] sum[7] 0
*RES
1 *1107:X sum[16] 22.05 
*END

*D_NET *77 0.000946169
*CONN
*P sum[17] O
*I *1108:X O *D sky130_fd_sc_hd__buf_2
*CAP
1 sum[17] 0.000473085
2 *1108:X 0.000473085
3 *1069:A sum[17] 0
4 *1096:A sum[17] 0
*RES
1 *1108:X sum[17] 22.05 
*END

*D_NET *78 0.000950737
*CONN
*P sum[18] O
*I *1109:X O *D sky130_fd_sc_hd__buf_2
*CAP
1 sum[18] 0.000475368
2 *1109:X 0.000475368
3 sum[16] sum[18] 0
4 *1069:A sum[18] 0
*RES
1 *1109:X sum[18] 22.05 
*END

*D_NET *79 0.0010049
*CONN
*P sum[19] O
*I *1110:X O *D sky130_fd_sc_hd__buf_2
*CAP
1 sum[19] 0.000444005
2 *1110:X 0.000444005
3 sum[19] *279:16 5.33005e-05
4 *1036:A sum[19] 0
5 *1039:A sum[19] 0
6 *1041:A sum[19] 0
7 *1073:A sum[19] 6.35864e-05
8 *1097:A sum[19] 0
*RES
1 *1110:X sum[19] 21.8893 
*END

*D_NET *80 0.00107527
*CONN
*P sum[1] O
*I *1111:X O *D sky130_fd_sc_hd__buf_2
*CAP
1 sum[1] 0.000537634
2 *1111:X 0.000537634
3 sum[1] sum[8] 0
4 *1060:A sum[1] 0
*RES
1 *1111:X sum[1] 24.4786 
*END

*D_NET *81 0.000949119
*CONN
*P sum[20] O
*I *1112:X O *D sky130_fd_sc_hd__buf_2
*CAP
1 sum[20] 0.000460911
2 *1112:X 0.000460911
3 sum[20] *278:12 2.72967e-05
4 *1070:A sum[20] 0
5 *1071:A sum[20] 0
*RES
1 *1112:X sum[20] 22.05 
*END

*D_NET *82 0.00105292
*CONN
*P sum[21] O
*I *1113:X O *D sky130_fd_sc_hd__buf_2
*CAP
1 sum[21] 0.000440566
2 *1113:X 0.000440566
3 sum[21] *279:16 9.60939e-05
4 sum[21] *358:16 7.56935e-05
5 *1071:A sum[21] 0
6 *1074:A sum[21] 0
*RES
1 *1113:X sum[21] 22.3 
*END

*D_NET *83 0.00104737
*CONN
*P sum[22] O
*I *1114:X O *D sky130_fd_sc_hd__buf_2
*CAP
1 sum[22] 0.000452608
2 *1114:X 0.000452608
3 sum[22] *279:16 0.000142157
4 *1039:A sum[22] 0
5 *1074:A sum[22] 0
*RES
1 *1114:X sum[22] 22.05 
*END

*D_NET *84 0.000589792
*CONN
*P sum[23] O
*I *1115:X O *D sky130_fd_sc_hd__buf_2
*CAP
1 sum[23] 0.00019112
2 *1115:X 0.00019112
3 sum[23] *1115:A 3.15282e-05
4 *1038:A sum[23] 8.3155e-05
5 *1076:A sum[23] 9.28688e-05
*RES
1 *1115:X sum[23] 18.8021 
*END

*D_NET *85 0.00217176
*CONN
*P sum[24] O
*I *1116:X O *D sky130_fd_sc_hd__buf_2
*CAP
1 sum[24] 0.000611713
2 *1116:X 0.000611713
3 sum[24] sum[25] 0.0006394
4 *1035:A sum[24] 0.000308938
5 *1041:A sum[24] 0
*RES
1 *1116:X sum[24] 30.1285 
*END

*D_NET *86 0.00193374
*CONN
*P sum[25] O
*I *1117:X O *D sky130_fd_sc_hd__buf_2
*CAP
1 sum[25] 0.00054312
2 *1117:X 0.00054312
3 sum[25] *1116:A 0
4 sum[24] sum[25] 0.0006394
5 *1035:A sum[25] 8.89407e-05
6 *1041:A sum[25] 3.71658e-05
7 *1097:A sum[25] 8.19973e-05
*RES
1 *1117:X sum[25] 29.8875 
*END

*D_NET *87 0.000521757
*CONN
*P sum[26] O
*I *1118:X O *D sky130_fd_sc_hd__buf_2
*CAP
1 sum[26] 0.000181998
2 *1118:X 0.000181998
3 sum[26] sum[27] 0.000114549
4 sum[26] *323:22 2.06178e-05
5 *1091:A sum[26] 2.25951e-05
*RES
1 *1118:X sum[26] 18.1949 
*END

*D_NET *88 0.00060281
*CONN
*P sum[27] O
*I *1119:X O *D sky130_fd_sc_hd__buf_2
*CAP
1 sum[27] 0.000228031
2 *1119:X 0.000228031
3 sum[27] *1119:A 9.60337e-06
4 sum[26] sum[27] 0.000114549
5 *1043:A sum[27] 2.25951e-05
*RES
1 *1119:X sum[27] 18.3955 
*END

*D_NET *89 0.00131136
*CONN
*P sum[28] O
*I *1120:X O *D sky130_fd_sc_hd__buf_2
*CAP
1 sum[28] 0.000495747
2 *1120:X 0.000495747
3 sum[28] sum[30] 0
4 sum[28] sum[31] 0
5 sum[28] *291:20 0.000142427
6 *1085:A sum[28] 0.000177443
*RES
1 *1120:X sum[28] 24.4786 
*END

*D_NET *90 0.00103053
*CONN
*P sum[29] O
*I *1121:X O *D sky130_fd_sc_hd__buf_2
*CAP
1 sum[29] 0.000515264
2 *1121:X 0.000515264
3 sum[29] sum[6] 0
4 *1047:A sum[29] 0
*RES
1 *1121:X sum[29] 24.0679 
*END

*D_NET *91 0.00246399
*CONN
*P sum[2] O
*I *1122:X O *D sky130_fd_sc_hd__buf_2
*CAP
1 sum[2] 0.000536922
2 *1122:X 0.000536922
3 sum[2] *828:B 1.72894e-05
4 sum[2] *292:10 4.56498e-05
5 sum[0] sum[2] 0.000928105
6 *1034:A sum[2] 0.00027049
7 *1049:A sum[2] 0.000128615
*RES
1 *1122:X sum[2] 29.9475 
*END

*D_NET *92 0.00128354
*CONN
*P sum[30] O
*I *1123:X O *D sky130_fd_sc_hd__buf_2
*CAP
1 sum[30] 0.00056966
2 *1123:X 0.00056966
3 sum[30] *291:20 0.000144222
4 sum[28] sum[30] 0
5 *1082:A sum[30] 0
6 *1085:A sum[30] 0
*RES
1 *1123:X sum[30] 24.4786 
*END

*D_NET *93 0.00110407
*CONN
*P sum[31] O
*I *1124:X O *D sky130_fd_sc_hd__buf_2
*CAP
1 sum[31] 0.000552034
2 *1124:X 0.000552034
3 sum[28] sum[31] 0
4 *1080:A sum[31] 0
5 *1083:A sum[31] 0
*RES
1 *1124:X sum[31] 24.4786 
*END

*D_NET *94 0.000940541
*CONN
*P sum[3] O
*I *1125:X O *D sky130_fd_sc_hd__buf_2
*CAP
1 sum[3] 0.000341005
2 *1125:X 0.000341005
3 sum[3] sum[4] 0
4 sum[3] *101:14 6.76337e-05
5 *1059:A sum[3] 0
6 *1087:A sum[3] 9.54485e-05
7 *1088:A sum[3] 9.54485e-05
*RES
1 *1125:X sum[3] 19.1624 
*END

*D_NET *95 0.000535149
*CONN
*P sum[4] O
*I *1126:X O *D sky130_fd_sc_hd__buf_2
*CAP
1 sum[4] 0.000176685
2 *1126:X 0.000176685
3 sum[10] sum[4] 0
4 sum[3] sum[4] 0
5 *1053:A sum[4] 8.63301e-05
6 *1088:A sum[4] 9.54485e-05
*RES
1 *1126:X sum[4] 18.267 
*END

*D_NET *96 0.00107072
*CONN
*P sum[5] O
*I *1127:X O *D sky130_fd_sc_hd__buf_2
*CAP
1 sum[5] 0.00053536
2 *1127:X 0.00053536
3 *1054:A sum[5] 0
4 *1072:A sum[5] 0
*RES
1 *1127:X sum[5] 24.4786 
*END

*D_NET *97 0.00103053
*CONN
*P sum[6] O
*I *1128:X O *D sky130_fd_sc_hd__buf_2
*CAP
1 sum[6] 0.000515264
2 *1128:X 0.000515264
3 sum[29] sum[6] 0
4 *1090:A sum[6] 0
*RES
1 *1128:X sum[6] 24.0679 
*END

*D_NET *98 0.000946169
*CONN
*P sum[7] O
*I *1129:X O *D sky130_fd_sc_hd__buf_2
*CAP
1 sum[7] 0.000473085
2 *1129:X 0.000473085
3 sum[16] sum[7] 0
4 *1068:A sum[7] 0
*RES
1 *1129:X sum[7] 22.05 
*END

*D_NET *99 0.0011872
*CONN
*P sum[8] O
*I *1130:X O *D sky130_fd_sc_hd__buf_2
*CAP
1 sum[8] 0.000593599
2 *1130:X 0.000593599
3 sum[1] sum[8] 0
4 *1037:A sum[8] 0
*RES
1 *1130:X sum[8] 24.4786 
*END

*D_NET *100 0.00129544
*CONN
*P sum[9] O
*I *1131:X O *D sky130_fd_sc_hd__buf_2
*CAP
1 sum[9] 0.000494171
2 *1131:X 0.000494171
3 sum[9] *292:10 2.15354e-05
4 sum[9] *374:14 2.89016e-05
5 *1049:A sum[9] 0.000256658
6 *1052:A sum[9] 0
7 *1060:A sum[9] 0
8 *1095:A sum[9] 0
*RES
1 *1131:X sum[9] 24.4786 
*END

*D_NET *101 0.00310845
*CONN
*I *827:B I *D sky130_fd_sc_hd__and2b_1
*I *854:B1 I *D sky130_fd_sc_hd__o21ai_1
*I *856:A1 I *D sky130_fd_sc_hd__a21o_1
*I *826:Y O *D sky130_fd_sc_hd__nand2_1
*CAP
1 *827:B 2.23854e-05
2 *854:B1 0
3 *856:A1 5.08083e-05
4 *826:Y 0.00049682
5 *101:26 0.0005664
6 *101:14 0.0010348
7 *856:A1 *856:A2 5.71472e-05
8 *856:A1 *856:B1 3.01979e-05
9 *856:A1 *276:25 0
10 *101:14 *826:B 0.000227539
11 *101:14 *841:A 4.00276e-06
12 *101:14 *1122:A 4.46186e-06
13 *101:14 *1125:A 0.000315172
14 *101:14 *103:12 1.18358e-05
15 *101:14 *330:10 0
16 *101:26 *854:A2 9.90367e-05
17 *101:26 *856:A2 4.88637e-05
18 *101:26 *856:B1 1.21289e-05
19 *101:26 *127:12 0
20 *101:26 *276:25 5.922e-05
21 sum[3] *101:14 6.76337e-05
22 *1088:A *101:14 0
*RES
1 *826:Y *101:14 27.3357 
2 *101:14 *101:26 16.3571 
3 *101:26 *856:A1 10.675 
4 *101:26 *854:B1 9.3 
5 *101:14 *827:B 9.72857 
*END

*D_NET *102 0.000388618
*CONN
*I *841:A I *D sky130_fd_sc_hd__xnor2_1
*I *827:X O *D sky130_fd_sc_hd__and2b_1
*CAP
1 *841:A 9.33361e-05
2 *827:X 9.33361e-05
3 *841:A *841:B 0.000128146
4 *841:A *302:10 6.97972e-05
5 *101:14 *841:A 4.00276e-06
*RES
1 *827:X *841:A 29.7786 
*END

*D_NET *103 0.00363601
*CONN
*I *854:A2 I *D sky130_fd_sc_hd__o21ai_1
*I *829:A I *D sky130_fd_sc_hd__inv_2
*I *840:B1 I *D sky130_fd_sc_hd__o21a_1
*I *828:Y O *D sky130_fd_sc_hd__nand2_1
*CAP
1 *854:A2 0.000246797
2 *829:A 0.000113355
3 *840:B1 0
4 *828:Y 0.000460464
5 *103:21 0.000552128
6 *103:12 0.000652438
7 *829:A *840:A1 5.33005e-05
8 *829:A *856:B1 3.36025e-05
9 *829:A *276:25 8.34127e-05
10 *854:A2 *827:A_N 1.17968e-05
11 *854:A2 *840:A1 2.04825e-05
12 *854:A2 *105:12 2.04825e-05
13 *854:A2 *276:10 2.16719e-05
14 *854:A2 *276:25 9.31893e-05
15 *854:A2 *331:12 3.34366e-05
16 *103:12 *828:B 0.000184745
17 *103:12 *840:A2 7.50601e-05
18 *103:12 *1100:A 2.13481e-06
19 *103:12 *1122:A 0.000314499
20 *103:12 *1125:A 9.14786e-05
21 *103:12 *295:10 0.000149911
22 *103:12 *302:10 2.68632e-05
23 *103:12 *338:14 6.05161e-06
24 *103:21 *840:A1 0.00016641
25 *103:21 *331:12 5.04705e-05
26 *1052:A *103:12 6.09572e-05
27 *101:14 *103:12 1.18358e-05
28 *101:26 *854:A2 9.90367e-05
*RES
1 *828:Y *103:12 27.8 
2 *103:12 *840:B1 9.3 
3 *103:12 *103:21 3.42857 
4 *103:21 *829:A 11.4964 
5 *103:21 *854:A2 22.2286 
*END

*D_NET *104 0.000221226
*CONN
*I *831:A I *D sky130_fd_sc_hd__nor2_1
*I *829:Y O *D sky130_fd_sc_hd__inv_2
*CAP
1 *831:A 7.73431e-05
2 *829:Y 7.73431e-05
3 *831:A *105:12 6.65398e-05
*RES
1 *829:Y *831:A 29.2429 
*END

*D_NET *105 0.0024652
*CONN
*I *831:B I *D sky130_fd_sc_hd__nor2_1
*I *840:A1 I *D sky130_fd_sc_hd__o21a_1
*I *856:A2 I *D sky130_fd_sc_hd__a21o_1
*I *830:Y O *D sky130_fd_sc_hd__nor2_1
*CAP
1 *831:B 0
2 *840:A1 7.27477e-05
3 *856:A2 0.000195655
4 *830:Y 0.000429162
5 *105:12 0.000350315
6 *105:10 0.000511074
7 *840:A1 *276:25 0.000139907
8 *840:A1 *331:12 3.97677e-05
9 *856:A2 *856:B1 0.00014285
10 *105:10 *327:8 8.86947e-05
11 *105:10 *374:14 0
12 *105:12 *276:10 3.28897e-05
13 *105:12 *374:14 0
14 *829:A *840:A1 5.33005e-05
15 *831:A *105:12 6.65398e-05
16 *854:A2 *840:A1 2.04825e-05
17 *854:A2 *105:12 2.04825e-05
18 *856:A1 *856:A2 5.71472e-05
19 *1052:A *105:10 2.89114e-05
20 *101:26 *856:A2 4.88637e-05
21 *103:21 *840:A1 0.00016641
*RES
1 *830:Y *105:10 20.6929 
2 *105:10 *105:12 2.09821 
3 *105:12 *856:A2 17.6125 
4 *105:12 *840:A1 16.2554 
5 *105:10 *831:B 13.8 
*END

*D_NET *106 0.000528569
*CONN
*I *842:A I *D sky130_fd_sc_hd__xnor2_1
*I *831:Y O *D sky130_fd_sc_hd__nor2_1
*CAP
1 *842:A 0.000102194
2 *831:Y 0.000102194
3 *842:A *840:A2 0.000223221
4 *842:A *1122:A 0.00010096
5 *842:A *114:8 0
*RES
1 *831:Y *842:A 21.7429 
*END

*D_NET *107 0.0021685
*CONN
*I *838:A I *D sky130_fd_sc_hd__nor2_1
*I *839:B1 I *D sky130_fd_sc_hd__a21oi_1
*I *855:C1 I *D sky130_fd_sc_hd__a211oi_1
*I *832:X O *D sky130_fd_sc_hd__and2_1
*CAP
1 *838:A 9.93862e-05
2 *839:B1 0.00015031
3 *855:C1 2.27195e-05
4 *832:X 0.000131357
5 *107:10 0.000328464
6 *107:6 0.000386178
7 *838:A *843:B 8.46829e-05
8 *838:A *1111:A 0.000144773
9 *838:A *111:16 2.14314e-05
10 *838:A *113:6 9.90431e-05
11 *839:B1 *839:A1 1.66568e-05
12 *839:B1 *855:A2 0.000132856
13 *839:B1 *114:8 7.43578e-06
14 *855:C1 *855:B1 1.02504e-05
15 *855:C1 *111:29 2.49484e-05
16 *855:C1 *113:19 2.84398e-05
17 *107:6 *832:B 2.89016e-05
18 *107:6 *843:A 1.5129e-06
19 *107:6 *843:B 5.52238e-05
20 *107:6 *111:16 2.19463e-05
21 *107:10 *111:29 0.000178819
22 *107:10 *113:19 0.000193165
23 *107:10 *280:10 0
*RES
1 *832:X *107:6 11.4786 
2 *107:6 *107:10 9.48214 
3 *107:10 *855:C1 14.5321 
4 *107:10 *839:B1 16.8357 
5 *107:6 *838:A 12.2107 
*END

*D_NET *108 0.000748408
*CONN
*I *835:A I *D sky130_fd_sc_hd__nand2_1
*I *836:B1_N I *D sky130_fd_sc_hd__a21bo_1
*I *833:Y O *D sky130_fd_sc_hd__nand2_1
*CAP
1 *835:A 0.000162988
2 *836:B1_N 3.92213e-05
3 *833:Y 5.64576e-05
4 *108:8 0.000258667
5 *835:A *833:A 0
6 *835:A *833:B 2.8266e-06
7 *835:A *835:B 1.41029e-05
8 *835:A *844:B 0.000127446
9 *835:A *1111:A 0
10 *835:A *303:10 0
11 *836:B1_N *836:A1 5.52302e-05
12 *108:8 *833:B 2.56601e-05
13 *1060:A *835:A 5.80706e-06
14 *1084:A *835:A 0
*RES
1 *833:Y *108:8 14.8357 
2 *108:8 *836:B1_N 14.3357 
3 *108:8 *835:A 17.2643 
*END

*D_NET *109 0.000817375
*CONN
*I *835:B I *D sky130_fd_sc_hd__nand2_1
*I *836:A2 I *D sky130_fd_sc_hd__a21bo_1
*I *834:X O *D sky130_fd_sc_hd__or2_1
*CAP
1 *835:B 9.09411e-05
2 *836:A2 0.000183355
3 *834:X 0
4 *109:4 0.000274296
5 *835:B *844:B 8.00806e-05
6 *835:B *303:10 4.15914e-05
7 *836:A2 *836:A1 6.4443e-05
8 *836:A2 *844:B 5.52302e-05
9 *836:A2 *1111:A 1.33343e-05
10 *835:A *835:B 1.41029e-05
11 *1084:A *835:B 0
*RES
1 *834:X *109:4 9.3 
2 *109:4 *836:A2 12.7464 
3 *109:4 *835:B 20.3714 
*END

*D_NET *110 0.000918182
*CONN
*I *844:B I *D sky130_fd_sc_hd__xnor2_1
*I *835:Y O *D sky130_fd_sc_hd__nand2_1
*CAP
1 *844:B 0.000180451
2 *835:Y 0.000180451
3 *844:B *836:A1 0.000279852
4 *844:B *303:10 1.46717e-05
5 *835:A *844:B 0.000127446
6 *835:B *844:B 8.00806e-05
7 *836:A2 *844:B 5.52302e-05
*RES
1 *835:Y *844:B 32.6536 
*END

*D_NET *111 0.00218925
*CONN
*I *855:A1 I *D sky130_fd_sc_hd__a211oi_1
*I *839:A1 I *D sky130_fd_sc_hd__a21oi_1
*I *843:A I *D sky130_fd_sc_hd__xor2_1
*I *836:X O *D sky130_fd_sc_hd__a21bo_1
*CAP
1 *855:A1 0
2 *839:A1 0.000206075
3 *843:A 7.09629e-06
4 *836:X 0.000332178
5 *111:29 0.000398643
6 *111:16 0.000531842
7 *839:A1 *855:A2 7.02176e-05
8 *111:16 *843:B 0.000140194
9 *111:16 *1111:A 8.78006e-05
10 *111:16 *113:6 4.27437e-05
11 *111:29 *837:B 9.24299e-05
12 *111:29 *855:B1 1.02504e-05
13 *111:29 *865:B 0
14 *111:29 *280:10 4.46186e-06
15 *838:A *111:16 2.14314e-05
16 *839:B1 *839:A1 1.66568e-05
17 *855:C1 *111:29 2.49484e-05
18 *107:6 *843:A 1.5129e-06
19 *107:6 *111:16 2.19463e-05
20 *107:10 *111:29 0.000178819
*RES
1 *836:X *111:16 16.1214 
2 *111:16 *843:A 9.45625 
3 *111:16 *111:29 13.9821 
4 *111:29 *839:A1 12.2107 
5 *111:29 *855:A1 9.3 
*END

*D_NET *112 0.000910496
*CONN
*I *838:B I *D sky130_fd_sc_hd__nor2_1
*I *837:Y O *D sky130_fd_sc_hd__nor2_1
*CAP
1 *838:B 0.000393243
2 *837:Y 0.000393243
3 *838:B *1130:A 0
4 *838:B *113:19 0.00012401
*RES
1 *837:Y *838:B 32.6536 
*END

*D_NET *113 0.00188127
*CONN
*I *855:A2 I *D sky130_fd_sc_hd__a211oi_1
*I *839:A2 I *D sky130_fd_sc_hd__a21oi_1
*I *843:B I *D sky130_fd_sc_hd__xor2_1
*I *838:Y O *D sky130_fd_sc_hd__nor2_1
*CAP
1 *855:A2 0.000148661
2 *839:A2 0
3 *843:B 2.94161e-05
4 *838:Y 2.28304e-05
5 *113:19 0.000403099
6 *113:6 0.000306685
7 *113:19 *1130:A 0
8 *838:A *843:B 8.46829e-05
9 *838:A *113:6 9.90431e-05
10 *838:B *113:19 0.00012401
11 *839:A1 *855:A2 7.02176e-05
12 *839:B1 *855:A2 0.000132856
13 *855:C1 *113:19 2.84398e-05
14 *107:6 *843:B 5.52238e-05
15 *107:10 *113:19 0.000193165
16 *111:16 *843:B 0.000140194
17 *111:16 *113:6 4.27437e-05
*RES
1 *838:Y *113:6 10.2464 
2 *113:6 *843:B 10.6571 
3 *113:6 *113:19 14.2857 
4 *113:19 *839:A2 9.3 
5 *113:19 *855:A2 12.7464 
*END

*D_NET *114 0.00217355
*CONN
*I *842:B I *D sky130_fd_sc_hd__xnor2_1
*I *840:A2 I *D sky130_fd_sc_hd__o21a_1
*I *839:Y O *D sky130_fd_sc_hd__a21oi_1
*CAP
1 *842:B 0
2 *840:A2 0.000389445
3 *839:Y 0.000352387
4 *114:8 0.000741832
5 *840:A2 *1122:A 0.000102667
6 *840:A2 *276:10 0.000135028
7 *840:A2 *302:10 0.000146474
8 *839:B1 *114:8 7.43578e-06
9 *842:A *840:A2 0.000223221
10 *842:A *114:8 0
11 *103:12 *840:A2 7.50601e-05
*RES
1 *839:Y *114:8 14.7821 
2 *114:8 *840:A2 26.8536 
3 *114:8 *842:B 9.3 
*END

*D_NET *115 0.000858941
*CONN
*I *841:B I *D sky130_fd_sc_hd__xnor2_1
*I *840:X O *D sky130_fd_sc_hd__o21a_1
*CAP
1 *841:B 0.000206903
2 *840:X 0.000206903
3 *841:B *1125:A 0.000139041
4 *841:B *302:10 8.08283e-05
5 *841:B *331:12 9.71197e-05
6 *841:A *841:B 0.000128146
*RES
1 *840:X *841:B 32.9214 
*END

*D_NET *116 0.00133447
*CONN
*I *877:A I *D sky130_fd_sc_hd__nand2_1
*I *862:A I *D sky130_fd_sc_hd__xnor2_1
*I *845:X O *D sky130_fd_sc_hd__xor2_1
*CAP
1 *877:A 0.000382522
2 *862:A 0
3 *845:X 0.00027809
4 *116:8 0.000660612
5 *877:A *862:B 0
6 *877:A *877:B 5.80706e-06
7 *877:A *146:12 0
8 *877:A *372:8 7.43578e-06
*RES
1 *845:X *116:8 13.9607 
2 *116:8 *862:A 9.3 
3 *116:8 *877:A 25.05 
*END

*D_NET *117 0.00170659
*CONN
*I *877:B I *D sky130_fd_sc_hd__nand2_1
*I *863:A I *D sky130_fd_sc_hd__or3_1
*I *860:B1 I *D sky130_fd_sc_hd__o21a_1
*I *846:X O *D sky130_fd_sc_hd__xor2_1
*CAP
1 *877:B 0.000224944
2 *863:A 0.000206281
3 *860:B1 0
4 *846:X 0.000164882
5 *117:12 0.000312084
6 *117:6 0.00049563
7 *863:A *860:A1 0.00010096
8 *863:A *860:A2 2.44318e-05
9 *863:A *861:B1 0
10 *863:A *863:C 9.57064e-05
11 *863:A *864:A_N 0
12 *877:B *848:A 0
13 *877:B *861:B1 0
14 *877:B *880:A1 0
15 *877:B *146:12 0
16 *117:12 *861:B1 7.58664e-05
17 *117:12 *863:C 0
18 *877:A *877:B 5.80706e-06
*RES
1 *846:X *117:6 11.8893 
2 *117:6 *117:12 11.5536 
3 *117:12 *860:B1 9.3 
4 *117:12 *863:A 22.7286 
5 *117:6 *877:B 22.2107 
*END

*D_NET *118 0.00232499
*CONN
*I *850:A I *D sky130_fd_sc_hd__nor2_1
*I *860:A1 I *D sky130_fd_sc_hd__o21a_1
*I *848:A I *D sky130_fd_sc_hd__inv_2
*I *863:B I *D sky130_fd_sc_hd__or3_1
*I *847:X O *D sky130_fd_sc_hd__and2_1
*CAP
1 *850:A 0
2 *860:A1 0.000110585
3 *848:A 0.000103352
4 *863:B 5.05855e-05
5 *847:X 0.000196949
6 *118:25 0.000304328
7 *118:23 0.000244156
8 *118:10 0.0004013
9 *848:A *880:A1 0.000200406
10 *860:A1 *860:A2 0.000186662
11 *860:A1 *130:6 0.000184745
12 *118:10 *1128:A 0
13 *118:10 *120:12 0
14 *118:23 *880:A1 1.02504e-05
15 *118:23 *120:12 2.78729e-05
16 *118:25 *863:C 0
17 *118:25 *880:A1 0.000202842
18 *863:A *860:A1 0.00010096
19 *877:B *848:A 0
*RES
1 *847:X *118:10 21.7643 
2 *118:10 *863:B 9.83571 
3 *118:10 *118:23 6.89286 
4 *118:23 *118:25 2.55357 
5 *118:25 *848:A 16.3536 
6 *118:25 *860:A1 17.2107 
7 *118:23 *850:A 13.8 
*END

*D_NET *119 0.000439477
*CONN
*I *881:A1 I *D sky130_fd_sc_hd__o21a_1
*I *848:Y O *D sky130_fd_sc_hd__inv_2
*CAP
1 *881:A1 0.000146501
2 *848:Y 0.000146501
3 *881:A1 *880:A1 0.000146474
4 *881:A1 *885:A1 0
5 *881:A1 *885:A2 0
6 *881:A1 *129:10 0
*RES
1 *848:Y *881:A1 30.0821 
*END

*D_NET *120 0.00225284
*CONN
*I *850:B I *D sky130_fd_sc_hd__nor2_1
*I *880:A1 I *D sky130_fd_sc_hd__o21a_1
*I *849:Y O *D sky130_fd_sc_hd__nor2_1
*CAP
1 *850:B 0
2 *880:A1 0.000393486
3 *849:Y 0.000244889
4 *120:12 0.000638375
5 *880:A1 *859:B 0
6 *880:A1 *881:A2 0.000185643
7 *880:A1 *881:B1 9.71197e-05
8 *880:A1 *121:6 7.43578e-06
9 *880:A1 *144:6 2.44318e-05
10 *880:A1 *146:12 1.52978e-05
11 *120:12 *859:B 2.94103e-05
12 *120:12 *1127:A 0
13 *120:12 *121:6 2.89016e-05
14 *848:A *880:A1 0.000200406
15 *877:B *880:A1 0
16 *881:A1 *880:A1 0.000146474
17 *118:10 *120:12 0
18 *118:23 *880:A1 1.02504e-05
19 *118:23 *120:12 2.78729e-05
20 *118:25 *880:A1 0.000202842
*RES
1 *849:Y *120:12 23.2107 
2 *120:12 *880:A1 28.425 
3 *120:12 *850:B 9.3 
*END

*D_NET *121 0.000995001
*CONN
*I *865:A I *D sky130_fd_sc_hd__xnor2_1
*I *859:B I *D sky130_fd_sc_hd__and2b_1
*I *850:Y O *D sky130_fd_sc_hd__nor2_1
*CAP
1 *865:A 0.000162634
2 *859:B 0.00018168
3 *850:Y 9.17397e-05
4 *121:6 0.000436053
5 *859:B *865:B 0
6 *859:B *129:32 0
7 *865:A *1127:A 5.71472e-05
8 *880:A1 *859:B 0
9 *880:A1 *121:6 7.43578e-06
10 *120:12 *859:B 2.94103e-05
11 *120:12 *121:6 2.89016e-05
*RES
1 *850:Y *121:6 10.6571 
2 *121:6 *859:B 21.7643 
3 *121:6 *865:A 12.2107 
*END

*D_NET *122 0.0026412
*CONN
*I *853:A I *D sky130_fd_sc_hd__nand2_1
*I *858:B1 I *D sky130_fd_sc_hd__o31a_2
*I *851:Y O *D sky130_fd_sc_hd__nand2_1
*CAP
1 *853:A 0
2 *858:B1 0.000420656
3 *851:Y 0.000208687
4 *122:14 0.000629343
5 *858:B1 *853:B 0
6 *858:B1 *857:A 6.78317e-05
7 *858:B1 *858:A3 2.77173e-05
8 *858:B1 *866:B 5.52302e-05
9 *858:B1 *1130:A 0
10 *858:B1 *127:12 0.000230482
11 *122:14 *853:B 0.000186662
12 *122:14 *1126:A 0.000531273
13 *122:14 *124:6 3.18676e-05
14 *122:14 *331:12 0.000125724
15 *122:14 *374:14 0.000125724
*RES
1 *851:Y *122:14 25.425 
2 *122:14 *858:B1 26.1393 
3 *122:14 *853:A 9.3 
*END

*D_NET *123 0.000577689
*CONN
*I *853:B I *D sky130_fd_sc_hd__nand2_1
*I *852:X O *D sky130_fd_sc_hd__or2_1
*CAP
1 *853:B 0.000195513
2 *852:X 0.000195513
3 *853:B *331:12 0
4 *858:B1 *853:B 0
5 *122:14 *853:B 0.000186662
*RES
1 *852:X *853:B 31.3143 
*END

*D_NET *124 0.00137427
*CONN
*I *866:A I *D sky130_fd_sc_hd__xnor2_1
*I *858:A1 I *D sky130_fd_sc_hd__o31a_2
*I *853:Y O *D sky130_fd_sc_hd__nand2_1
*CAP
1 *866:A 2.23854e-05
2 *858:A1 0.000282712
3 *853:Y 0.000259156
4 *124:6 0.000564254
5 *858:A1 *866:B 0
6 *858:A1 *885:C1 9.90367e-05
7 *858:A1 *1130:A 0
8 *858:A1 *126:10 1.02504e-05
9 *858:A1 *129:10 0
10 *124:6 *1126:A 0.000104611
11 *122:14 *124:6 3.18676e-05
*RES
1 *853:Y *124:6 13.9429 
2 *124:6 *858:A1 22.8357 
3 *124:6 *866:A 9.72857 
*END

*D_NET *125 0.00177752
*CONN
*I *855:B1 I *D sky130_fd_sc_hd__a211oi_1
*I *854:Y O *D sky130_fd_sc_hd__o21ai_1
*CAP
1 *855:B1 0.000759157
2 *854:Y 0.000759157
3 *855:B1 *856:B1 0.000188586
4 *855:B1 *865:B 0
5 *855:B1 *1130:A 0
6 *855:B1 *126:10 5.01213e-05
7 *855:C1 *855:B1 1.02504e-05
8 *111:29 *855:B1 1.02504e-05
*RES
1 *854:Y *855:B1 37.1714 
*END

*D_NET *126 0.000996288
*CONN
*I *857:A I *D sky130_fd_sc_hd__nor2_1
*I *858:A2 I *D sky130_fd_sc_hd__o31a_2
*I *855:Y O *D sky130_fd_sc_hd__a211oi_1
*CAP
1 *857:A 8.01791e-05
2 *858:A2 0
3 *855:Y 0.000271592
4 *126:10 0.000351771
5 *857:A *858:A3 0.000164542
6 *126:10 *1130:A 0
7 *855:B1 *126:10 5.01213e-05
8 *858:A1 *126:10 1.02504e-05
9 *858:B1 *857:A 6.78317e-05
*RES
1 *855:Y *126:10 22.9786 
2 *126:10 *858:A2 9.3 
3 *126:10 *857:A 11.925 
*END

*D_NET *127 0.00108288
*CONN
*I *858:A3 I *D sky130_fd_sc_hd__o31a_2
*I *857:B I *D sky130_fd_sc_hd__nor2_1
*I *856:X O *D sky130_fd_sc_hd__a21o_1
*CAP
1 *858:A3 0.000135483
2 *857:B 0
3 *856:X 0.000194588
4 *127:12 0.00033007
5 *127:12 *1130:A 0
6 *857:A *858:A3 0.000164542
7 *858:B1 *858:A3 2.77173e-05
8 *858:B1 *127:12 0.000230482
9 *101:26 *127:12 0
*RES
1 *856:X *127:12 22.425 
2 *127:12 *857:B 9.3 
3 *127:12 *858:A3 12.2107 
*END

*D_NET *128 0.000394346
*CONN
*I *866:B I *D sky130_fd_sc_hd__xnor2_1
*I *857:Y O *D sky130_fd_sc_hd__nor2_1
*CAP
1 *866:B 0.000124429
2 *857:Y 0.000124429
3 *866:B *885:C1 1.19309e-05
4 *866:B *1130:A 7.8327e-05
5 *858:A1 *866:B 0
6 *858:B1 *866:B 5.52302e-05
*RES
1 *857:Y *866:B 30.0821 
*END

*D_NET *129 0.00248675
*CONN
*I *865:B I *D sky130_fd_sc_hd__xnor2_1
*I *859:A_N I *D sky130_fd_sc_hd__and2b_1
*I *882:A1 I *D sky130_fd_sc_hd__a21o_1
*I *885:A1 I *D sky130_fd_sc_hd__a211oi_4
*I *858:X O *D sky130_fd_sc_hd__o31a_2
*CAP
1 *865:B 0.000191436
2 *859:A_N 0.000110609
3 *882:A1 6.59684e-05
4 *885:A1 0.000294417
5 *858:X 0.000183911
6 *129:32 0.000446662
7 *129:10 0.000459687
8 *129:8 0.00042783
9 *882:A1 *147:8 9.90367e-05
10 *885:A1 *885:A2 0.000128857
11 *885:A1 *892:A 7.83366e-05
12 *855:B1 *865:B 0
13 *858:A1 *129:10 0
14 *859:B *865:B 0
15 *859:B *129:32 0
16 *881:A1 *885:A1 0
17 *881:A1 *129:10 0
18 *111:29 *865:B 0
*RES
1 *858:X *129:8 16.8 
2 *129:8 *129:10 1.64286 
3 *129:10 *885:A1 19.4429 
4 *129:10 *882:A1 14.7464 
5 *129:8 *129:32 2.55357 
6 *129:32 *859:A_N 15.5679 
7 *129:32 *865:B 17.1929 
*END

*D_NET *130 0.00128817
*CONN
*I *863:C I *D sky130_fd_sc_hd__or3_1
*I *860:A2 I *D sky130_fd_sc_hd__o21a_1
*I *859:X O *D sky130_fd_sc_hd__and2b_1
*CAP
1 *863:C 0.000127079
2 *860:A2 9.97127e-05
3 *859:X 0.000171523
4 *130:6 0.000398314
5 *860:A1 *860:A2 0.000186662
6 *860:A1 *130:6 0.000184745
7 *863:A *860:A2 2.44318e-05
8 *863:A *863:C 9.57064e-05
9 *117:12 *863:C 0
10 *118:25 *863:C 0
*RES
1 *859:X *130:6 12.3 
2 *130:6 *860:A2 11.4786 
3 *130:6 *863:C 21.1571 
*END

*D_NET *131 0.00105834
*CONN
*I *864:A_N I *D sky130_fd_sc_hd__and2b_1
*I *861:B1 I *D sky130_fd_sc_hd__a21oi_1
*I *860:X O *D sky130_fd_sc_hd__o21a_1
*CAP
1 *864:A_N 7.85631e-05
2 *861:B1 0.000348449
3 *860:X 5.05799e-05
4 *131:8 0.000477592
5 *861:B1 *862:B 2.72859e-05
6 *864:A_N *257:10 0
7 *863:A *861:B1 0
8 *863:A *864:A_N 0
9 *877:B *861:B1 0
10 *117:12 *861:B1 7.58664e-05
*RES
1 *860:X *131:8 14.3357 
2 *131:8 *861:B1 20.4429 
3 *131:8 *864:A_N 15.1393 
*END

*D_NET *132 0.000688711
*CONN
*I *862:B I *D sky130_fd_sc_hd__xnor2_1
*I *861:Y O *D sky130_fd_sc_hd__a21oi_1
*CAP
1 *862:B 0.000330713
2 *861:Y 0.000330713
3 *861:B1 *862:B 2.72859e-05
4 *877:A *862:B 0
*RES
1 *861:Y *862:B 32.9214 
*END

*D_NET *133 0.000198394
*CONN
*I *864:B I *D sky130_fd_sc_hd__and2b_1
*I *863:X O *D sky130_fd_sc_hd__or3_1
*CAP
1 *864:B 7.06232e-05
2 *863:X 7.06232e-05
3 *864:B *1128:A 5.71472e-05
*RES
1 *863:X *864:B 19.9571 
*END

*D_NET *134 0.001559
*CONN
*I *907:A1 I *D sky130_fd_sc_hd__o221ai_4
*I *869:A_N I *D sky130_fd_sc_hd__nand2b_1
*I *867:Y O *D sky130_fd_sc_hd__nor2_1
*CAP
1 *907:A1 0.000197665
2 *869:A_N 4.20197e-05
3 *867:Y 0.000160503
4 *134:10 0.000400187
5 *869:A_N *1102:A 9.90367e-05
6 *907:A1 *870:A 7.48356e-05
7 *907:A1 *871:A 4.58192e-05
8 *907:A1 *871:B 0
9 *907:A1 *906:B 0.000225314
10 *907:A1 *907:C1 0
11 *134:10 *867:B 9.22103e-06
12 *134:10 *868:A 5.62995e-05
13 *134:10 *135:10 7.43578e-06
14 *134:10 *299:10 8.00806e-05
15 sum[11] *907:A1 0
16 *1056:A *907:A1 9.25014e-06
17 *1056:A *134:10 0.000151333
*RES
1 *867:Y *134:10 17.1036 
2 *134:10 *869:A_N 14.7464 
3 *134:10 *907:A1 18.7821 
*END

*D_NET *135 0.00196956
*CONN
*I *907:C1 I *D sky130_fd_sc_hd__o221ai_4
*I *869:B I *D sky130_fd_sc_hd__nand2b_1
*I *868:Y O *D sky130_fd_sc_hd__nand2_1
*CAP
1 *907:C1 0.000576128
2 *869:B 2.82063e-05
3 *868:Y 0.000242095
4 *135:10 0.000846429
5 *869:B *1102:A 6.9517e-05
6 *907:C1 *889:B 0
7 *907:C1 *906:A 0
8 *907:C1 *906:B 0
9 *907:C1 *138:10 6.74911e-05
10 *907:C1 *169:10 0
11 *135:10 *867:B 3.18676e-05
12 *135:10 *889:B 0
13 *135:10 *299:10 0
14 *135:10 *301:20 5.52238e-05
15 *135:10 *336:18 4.51641e-05
16 *907:A1 *907:C1 0
17 *134:10 *135:10 7.43578e-06
*RES
1 *868:Y *135:10 18.5321 
2 *135:10 *869:B 14.4696 
3 *135:10 *907:C1 23.55 
*END

*D_NET *136 0.000551679
*CONN
*I *906:A I *D sky130_fd_sc_hd__or2_1
*I *889:A I *D sky130_fd_sc_hd__xnor2_1
*I *869:Y O *D sky130_fd_sc_hd__nand2b_1
*CAP
1 *906:A 8.0431e-05
2 *889:A 3.44045e-05
3 *869:Y 9.04805e-05
4 *136:6 0.000205316
5 *906:A *889:B 8.39e-05
6 *136:6 *1102:A 5.71472e-05
7 *907:C1 *906:A 0
*RES
1 *869:Y *136:6 11.0679 
2 *136:6 *889:A 9.83571 
3 *136:6 *906:A 20.2464 
*END

*D_NET *137 0.000962116
*CONN
*I *872:A I *D sky130_fd_sc_hd__nand2_1
*I *888:B1_N I *D sky130_fd_sc_hd__a21bo_1
*I *907:A2 I *D sky130_fd_sc_hd__o221ai_4
*I *870:Y O *D sky130_fd_sc_hd__nand2_1
*CAP
1 *872:A 5.94902e-05
2 *888:B1_N 0
3 *907:A2 0
4 *870:Y 0.000192529
5 *137:21 0.000122521
6 *137:8 0.00025556
7 *872:A *872:B 6.96431e-05
8 *872:A *139:8 6.05161e-06
9 *137:21 *906:B 0.000128161
10 *137:21 *138:10 0.000128161
*RES
1 *870:Y *137:8 12.3179 
2 *137:8 *907:A2 9.3 
3 *137:8 *137:21 11.1786 
4 *137:21 *888:B1_N 9.3 
5 *137:21 *872:A 10.5679 
*END

*D_NET *138 0.00118672
*CONN
*I *872:B I *D sky130_fd_sc_hd__nand2_1
*I *888:A1 I *D sky130_fd_sc_hd__a21bo_1
*I *871:X O *D sky130_fd_sc_hd__or2_1
*CAP
1 *872:B 0.000128106
2 *888:A1 7.04671e-05
3 *871:X 0.000175886
4 *138:10 0.000374459
5 *872:B *139:8 1.56e-05
6 *888:A1 *888:A2 5.71472e-05
7 *138:10 *890:A 2.58997e-05
8 *138:10 *906:B 7.38652e-05
9 *138:10 *908:A2 0
10 *138:10 *169:10 0
11 *872:A *872:B 6.96431e-05
12 *907:C1 *138:10 6.74911e-05
13 *137:21 *138:10 0.000128161
*RES
1 *871:X *138:10 22.3714 
2 *138:10 *888:A1 10.6571 
3 *138:10 *872:B 11.925 
*END

*D_NET *139 0.00215729
*CONN
*I *890:A I *D sky130_fd_sc_hd__xnor2_1
*I *906:B I *D sky130_fd_sc_hd__or2_1
*I *872:Y O *D sky130_fd_sc_hd__nand2_1
*CAP
1 *890:A 0.000390467
2 *906:B 0.000336613
3 *872:Y 4.26941e-05
4 *139:8 0.000769774
5 *890:A *888:A2 0
6 *890:A *908:A2 0
7 *890:A *337:8 0.00014285
8 *906:B *288:10 0
9 *872:A *139:8 6.05161e-06
10 *872:B *139:8 1.56e-05
11 *907:A1 *906:B 0.000225314
12 *907:C1 *906:B 0
13 *1045:A *890:A 0
14 *1094:A *890:A 0
15 *137:21 *906:B 0.000128161
16 *138:10 *890:A 2.58997e-05
17 *138:10 *906:B 7.38652e-05
*RES
1 *872:Y *139:8 14.3357 
2 *139:8 *906:B 21.3 
3 *139:8 *890:A 20.7464 
*END

*D_NET *140 0.00180654
*CONN
*I *875:A I *D sky130_fd_sc_hd__nand2_1
*I *887:B1_N I *D sky130_fd_sc_hd__a21bo_1
*I *907:B1 I *D sky130_fd_sc_hd__o221ai_4
*I *873:Y O *D sky130_fd_sc_hd__nand2_1
*CAP
1 *875:A 4.23301e-05
2 *887:B1_N 3.7533e-05
3 *907:B1 0.000170229
4 *873:Y 0.000118694
5 *140:23 0.000349569
6 *140:8 0.000558628
7 *875:A *873:B 0
8 *875:A *908:A1 0
9 *887:B1_N *142:6 5.52238e-05
10 *907:B1 *888:A2 0
11 *907:B1 *889:B 6.74815e-05
12 *907:B1 *908:A2 0.000190155
13 *907:B1 *169:10 1.02504e-05
14 *140:8 *873:B 5.30637e-06
15 *140:23 *873:A 6.74815e-05
16 *140:23 *887:A1 1.21289e-05
17 *140:23 *888:A2 0
18 *140:23 *141:6 5.62995e-05
19 *140:23 *142:6 5.52302e-05
20 *140:23 *154:8 9.99644e-06
*RES
1 *873:Y *140:8 15.1571 
2 *140:8 *907:B1 17.8714 
3 *140:8 *140:23 9.23214 
4 *140:23 *887:B1_N 9.83571 
5 *140:23 *875:A 19.0321 
*END

*D_NET *141 0.000759149
*CONN
*I *887:A1 I *D sky130_fd_sc_hd__a21bo_1
*I *875:B I *D sky130_fd_sc_hd__nand2_1
*I *874:X O *D sky130_fd_sc_hd__or2_1
*CAP
1 *887:A1 7.05095e-05
2 *875:B 0
3 *874:X 1.56623e-05
4 *141:6 8.61718e-05
5 *887:A1 *142:6 0.000149489
6 *887:A1 *154:8 0.000320024
7 *141:6 *154:8 4.88637e-05
8 *140:23 *887:A1 1.21289e-05
9 *140:23 *141:6 5.62995e-05
*RES
1 *874:X *141:6 10.2464 
2 *141:6 *875:B 9.3 
3 *141:6 *887:A1 12.7286 
*END

*D_NET *142 0.00156041
*CONN
*I *908:A1 I *D sky130_fd_sc_hd__o21bai_2
*I *891:A I *D sky130_fd_sc_hd__xnor2_1
*I *875:Y O *D sky130_fd_sc_hd__nand2_1
*CAP
1 *908:A1 0.000254126
2 *891:A 0.000168239
3 *875:Y 0.000121995
4 *142:6 0.00054436
5 *891:A *887:A2 0.000143625
6 *891:A *153:12 3.18676e-05
7 *908:A1 *153:12 0
8 *908:A1 *171:8 1.99099e-05
9 *142:6 *887:A2 6.05161e-06
10 *142:6 *154:8 1.02936e-05
11 *875:A *908:A1 0
12 *887:A1 *142:6 0.000149489
13 *887:B1_N *142:6 5.52238e-05
14 *140:23 *142:6 5.52302e-05
*RES
1 *875:Y *142:6 12.3 
2 *142:6 *891:A 12.7286 
3 *142:6 *908:A1 22.9786 
*END

*D_NET *143 0.00195873
*CONN
*I *886:A I *D sky130_fd_sc_hd__or2_1
*I *909:A1 I *D sky130_fd_sc_hd__o31a_1
*I *910:A1 I *D sky130_fd_sc_hd__o311ai_4
*I *884:A I *D sky130_fd_sc_hd__or2_1
*I *876:X O *D sky130_fd_sc_hd__and2_1
*CAP
1 *886:A 0.000195223
2 *909:A1 2.774e-05
3 *910:A1 0
4 *884:A 4.10855e-05
5 *876:X 0.000150602
6 *143:32 0.000358974
7 *143:21 0.000263252
8 *143:10 0.000318929
9 *884:A *151:10 5.33334e-05
10 *886:A *908:B1_N 0
11 *886:A *152:10 5.80706e-06
12 *886:A *152:16 0.000212597
13 *886:A *171:8 0
14 *909:A1 *919:B 5.52302e-05
15 *143:10 *883:A 3.18676e-05
16 *143:10 *884:B 0
17 *143:10 *919:B 0
18 *143:21 *910:A2 1.02504e-05
19 *143:21 *919:B 0
20 *143:21 *151:10 0
21 *143:32 *910:A2 0.000177941
22 *143:32 *151:10 0
23 *143:32 *152:16 5.59013e-05
*RES
1 *876:X *143:10 16.2821 
2 *143:10 *884:A 14.7464 
3 *143:10 *143:21 2.25 
4 *143:21 *910:A1 13.8 
5 *143:21 *143:32 3.39286 
6 *143:32 *909:A1 14.3357 
7 *143:32 *886:A 18.7821 
*END

*D_NET *144 0.000963871
*CONN
*I *881:A2 I *D sky130_fd_sc_hd__o21a_1
*I *880:A2 I *D sky130_fd_sc_hd__o21a_1
*I *877:Y O *D sky130_fd_sc_hd__nand2_1
*CAP
1 *881:A2 0.000141313
2 *880:A2 0
3 *877:Y 0.000211153
4 *144:6 0.000352466
5 *881:A2 *881:B1 4.88637e-05
6 *880:A1 *881:A2 0.000185643
7 *880:A1 *144:6 2.44318e-05
*RES
1 *877:Y *144:6 11.8893 
2 *144:6 *880:A2 9.3 
3 *144:6 *881:A2 12.3179 
*END

*D_NET *145 0.000382002
*CONN
*I *879:B1 I *D sky130_fd_sc_hd__o21ai_1
*I *878:X O *D sky130_fd_sc_hd__a22o_1
*CAP
1 *879:B1 0.000112826
2 *878:X 0.000112826
3 *879:B1 *861:A2 2.89114e-05
4 *879:B1 *878:A2 0.000127439
*RES
1 *878:X *879:B1 29.7786 
*END

*D_NET *146 0.00266273
*CONN
*I *881:B1 I *D sky130_fd_sc_hd__o21a_1
*I *880:B1 I *D sky130_fd_sc_hd__o21a_1
*I *879:Y O *D sky130_fd_sc_hd__o21ai_1
*CAP
1 *881:B1 8.76898e-05
2 *880:B1 0
3 *879:Y 0.00106933
4 *146:12 0.00115702
5 *881:B1 *147:8 0.00018372
6 *146:12 *878:A2 3.69047e-06
7 *146:12 *885:A2 0
8 *877:A *146:12 0
9 *877:B *146:12 0
10 *880:A1 *881:B1 9.71197e-05
11 *880:A1 *146:12 1.52978e-05
12 *881:A2 *881:B1 4.88637e-05
*RES
1 *879:Y *146:12 31.05 
2 *146:12 *880:B1 9.3 
3 *146:12 *881:B1 11.8893 
*END

*D_NET *147 0.00188649
*CONN
*I *885:C1 I *D sky130_fd_sc_hd__a211oi_4
*I *882:B1 I *D sky130_fd_sc_hd__a21o_1
*I *880:X O *D sky130_fd_sc_hd__o21a_1
*CAP
1 *885:C1 0.000441815
2 *882:B1 0
3 *880:X 0.000255049
4 *147:8 0.000696864
5 *885:C1 *885:B1 0
6 *885:C1 *892:A 0
7 *885:C1 *893:B 0
8 *885:C1 *1130:A 0
9 *147:8 *148:6 9.90367e-05
10 *858:A1 *885:C1 9.90367e-05
11 *866:B *885:C1 1.19309e-05
12 *881:B1 *147:8 0.00018372
13 *882:A1 *147:8 9.90367e-05
*RES
1 *880:X *147:8 14.3714 
2 *147:8 *882:B1 9.3 
3 *147:8 *885:C1 26.2107 
*END

*D_NET *148 0.000748775
*CONN
*I *882:A2 I *D sky130_fd_sc_hd__a21o_1
*I *885:A2 I *D sky130_fd_sc_hd__a211oi_4
*I *881:X O *D sky130_fd_sc_hd__o21a_1
*CAP
1 *882:A2 0
2 *885:A2 0.000222843
3 *881:X 3.75977e-05
4 *148:6 0.000260441
5 *881:A1 *885:A2 0
6 *885:A1 *885:A2 0.000128857
7 *146:12 *885:A2 0
8 *147:8 *148:6 9.90367e-05
*RES
1 *881:X *148:6 10.2464 
2 *148:6 *885:A2 22.6214 
3 *148:6 *882:A2 9.3 
*END

*D_NET *149 0.00061719
*CONN
*I *892:A I *D sky130_fd_sc_hd__and2_1
*I *882:X O *D sky130_fd_sc_hd__a21o_1
*CAP
1 *892:A 0.000269427
2 *882:X 0.000269427
3 *892:A *885:B1 0
4 *885:A1 *892:A 7.83366e-05
5 *885:C1 *892:A 0
*RES
1 *882:X *892:A 32.6179 
*END

*D_NET *150 0.000216212
*CONN
*I *884:B I *D sky130_fd_sc_hd__or2_1
*I *883:Y O *D sky130_fd_sc_hd__nor2_1
*CAP
1 *884:B 0.000108106
2 *883:Y 0.000108106
3 *143:10 *884:B 0
*RES
1 *883:Y *884:B 29.5464 
*END

*D_NET *151 0.00261808
*CONN
*I *885:B1 I *D sky130_fd_sc_hd__a211oi_4
*I *892:B I *D sky130_fd_sc_hd__and2_1
*I *884:X O *D sky130_fd_sc_hd__or2_1
*CAP
1 *885:B1 0.000223611
2 *892:B 0
3 *884:X 0.00105876
4 *151:10 0.00128237
5 *885:B1 *152:10 0
6 *151:10 *152:10 0
7 *151:10 *152:16 0
8 *884:A *151:10 5.33334e-05
9 *885:C1 *885:B1 0
10 *892:A *885:B1 0
11 *143:21 *151:10 0
12 *143:32 *151:10 0
*RES
1 *884:X *151:10 31.3 
2 *151:10 *892:B 13.8 
3 *151:10 *885:B1 8.34821 
*END

*D_NET *152 0.00250173
*CONN
*I *893:A I *D sky130_fd_sc_hd__nor2_1
*I *886:B I *D sky130_fd_sc_hd__or2_1
*I *909:A2 I *D sky130_fd_sc_hd__o31a_1
*I *910:A2 I *D sky130_fd_sc_hd__o311ai_4
*I *885:Y O *D sky130_fd_sc_hd__a211oi_4
*CAP
1 *893:A 0.000236376
2 *886:B 0
3 *909:A2 0
4 *910:A2 8.62947e-05
5 *885:Y 0
6 *152:16 0.000358469
7 *152:10 0.000649866
8 *152:4 0.000614068
9 *910:A2 *919:B 0
10 *152:10 *153:12 0
11 *152:16 *919:B 9.41642e-05
12 *885:B1 *152:10 0
13 *886:A *152:10 5.80706e-06
14 *886:A *152:16 0.000212597
15 *143:21 *910:A2 1.02504e-05
16 *143:32 *910:A2 0.000177941
17 *143:32 *152:16 5.59013e-05
18 *151:10 *152:10 0
19 *151:10 *152:16 0
*RES
1 *885:Y *152:4 9.3 
2 *152:4 *152:10 11.1696 
3 *152:10 *152:16 11.0357 
4 *152:16 *910:A2 20.55 
5 *152:16 *909:A2 9.3 
6 *152:10 *886:B 13.8 
7 *152:4 *893:A 12.8268 
*END

*D_NET *153 0.000834907
*CONN
*I *887:A2 I *D sky130_fd_sc_hd__a21bo_1
*I *891:B I *D sky130_fd_sc_hd__xnor2_1
*I *886:X O *D sky130_fd_sc_hd__or2_1
*CAP
1 *887:A2 6.57086e-05
2 *891:B 0
3 *886:X 0.000186061
4 *153:12 0.00025177
5 *887:A2 *154:8 0.00010096
6 *887:A2 *374:14 4.88637e-05
7 *891:A *887:A2 0.000143625
8 *891:A *153:12 3.18676e-05
9 *908:A1 *153:12 0
10 *142:6 *887:A2 6.05161e-06
11 *152:10 *153:12 0
*RES
1 *886:X *153:12 21.6036 
2 *153:12 *891:B 9.3 
3 *153:12 *887:A2 11.8893 
*END

*D_NET *154 0.00241065
*CONN
*I *890:B I *D sky130_fd_sc_hd__xnor2_1
*I *888:A2 I *D sky130_fd_sc_hd__a21bo_1
*I *887:X O *D sky130_fd_sc_hd__a21bo_1
*CAP
1 *890:B 0
2 *888:A2 0.000305401
3 *887:X 0.000202504
4 *154:8 0.000507905
5 *888:A2 *873:B 9.24491e-05
6 *888:A2 *302:10 1.99099e-05
7 *154:8 *874:A 1.92789e-05
8 *154:8 *337:8 4.53889e-05
9 *154:8 *374:14 0.000670527
10 *887:A1 *154:8 0.000320024
11 *887:A2 *154:8 0.00010096
12 *888:A1 *888:A2 5.71472e-05
13 *890:A *888:A2 0
14 *907:B1 *888:A2 0
15 *140:23 *888:A2 0
16 *140:23 *154:8 9.99644e-06
17 *141:6 *154:8 4.88637e-05
18 *142:6 *154:8 1.02936e-05
*RES
1 *887:X *154:8 17.2464 
2 *154:8 *888:A2 24.2286 
3 *154:8 *890:B 9.3 
*END

*D_NET *155 0.00110144
*CONN
*I *889:B I *D sky130_fd_sc_hd__xnor2_1
*I *888:X O *D sky130_fd_sc_hd__a21bo_1
*CAP
1 *889:B 0.000428094
2 *888:X 0.000428094
3 *889:B *908:A2 4.53889e-05
4 *889:B *910:C1 0
5 *889:B *169:10 4.84853e-05
6 *889:B *173:12 0
7 *906:A *889:B 8.39e-05
8 *907:B1 *889:B 6.74815e-05
9 *907:C1 *889:B 0
10 *135:10 *889:B 0
*RES
1 *888:X *889:B 35.7607 
*END

*D_NET *156 0.000913798
*CONN
*I *893:B I *D sky130_fd_sc_hd__nor2_1
*I *892:X O *D sky130_fd_sc_hd__and2_1
*CAP
1 *893:B 0.000456899
2 *892:X 0.000456899
3 *885:C1 *893:B 0
*RES
1 *892:X *893:B 33.0643 
*END

*D_NET *157 0.000897395
*CONN
*I *932:A1 I *D sky130_fd_sc_hd__o221ai_1
*I *896:A_N I *D sky130_fd_sc_hd__nand2b_1
*I *894:Y O *D sky130_fd_sc_hd__nor2_1
*CAP
1 *932:A1 0.000177357
2 *896:A_N 0
3 *894:Y 9.5723e-05
4 *157:8 0.00027308
5 *932:A1 *896:B 1.02504e-05
6 *932:A1 *932:A2 2.27416e-05
7 *932:A1 *932:B1 9.90431e-05
8 *932:A1 *932:C1 0
9 *932:A1 *933:A2 1.02504e-05
10 *932:A1 *190:10 0.000153047
11 *932:A1 *321:10 0
12 *157:8 *896:B 5.59013e-05
13 *157:8 *914:A 0
14 *157:8 *932:C1 0
15 *157:8 *158:8 0
*RES
1 *894:Y *157:8 15.4429 
2 *157:8 *896:A_N 13.8 
3 *157:8 *932:A1 17.6036 
*END

*D_NET *158 0.00120277
*CONN
*I *932:C1 I *D sky130_fd_sc_hd__o221ai_1
*I *896:B I *D sky130_fd_sc_hd__nand2b_1
*I *895:Y O *D sky130_fd_sc_hd__nand2_1
*CAP
1 *932:C1 0.000165369
2 *896:B 0.000198383
3 *895:Y 6.58296e-05
4 *158:8 0.000429581
5 *896:B *914:A 9.69119e-06
6 *896:B *931:A 0.000196594
7 *896:B *931:B 1.15781e-05
8 *896:B *190:10 3.81416e-06
9 *932:C1 *1108:A 0
10 *932:C1 *190:10 5.5782e-05
11 *158:8 *1108:A 0
12 *932:A1 *896:B 1.02504e-05
13 *932:A1 *932:C1 0
14 *157:8 *896:B 5.59013e-05
15 *157:8 *932:C1 0
16 *157:8 *158:8 0
*RES
1 *895:Y *158:8 14.8357 
2 *158:8 *896:B 25.8402 
3 *158:8 *932:C1 17.2643 
*END

*D_NET *159 0.00110613
*CONN
*I *914:A I *D sky130_fd_sc_hd__xnor2_1
*I *931:A I *D sky130_fd_sc_hd__or2_1
*I *896:Y O *D sky130_fd_sc_hd__nand2b_1
*CAP
1 *914:A 0.000180893
2 *931:A 0.00011127
3 *896:Y 0
4 *159:4 0.000292163
5 *914:A *914:B 0.000122731
6 *914:A *309:12 4.1331e-06
7 *914:A *321:10 0
8 *914:A *365:22 6.14673e-05
9 *931:A *931:B 0.000103411
10 *931:A *190:10 2.3773e-05
11 *896:B *914:A 9.69119e-06
12 *896:B *931:A 0.000196594
13 *157:8 *914:A 0
*RES
1 *896:Y *159:4 9.3 
2 *159:4 *931:A 12.3 
3 *159:4 *914:A 22.0143 
*END

*D_NET *160 0.000840982
*CONN
*I *915:A_N I *D sky130_fd_sc_hd__nand2b_1
*I *913:A1 I *D sky130_fd_sc_hd__o21ai_1
*I *897:Y O *D sky130_fd_sc_hd__nor2_1
*CAP
1 *915:A_N 9.66933e-06
2 *913:A1 0.000142736
3 *897:Y 0.000125202
4 *160:10 0.000277608
5 *913:A1 *916:B 9.90367e-05
6 *913:A1 *931:B 2.14757e-05
7 *913:A1 *161:22 7.77751e-05
8 *913:A1 *321:10 6.91215e-06
9 *915:A_N *301:20 0
10 *160:10 *161:12 2.34204e-05
11 *160:10 *301:20 0
12 *160:10 *321:10 0
13 *160:10 *365:22 5.71472e-05
*RES
1 *897:Y *160:10 15.8268 
2 *160:10 *913:A1 16.3804 
3 *160:10 *915:A_N 14.0768 
*END

*D_NET *161 0.00178263
*CONN
*I *915:B I *D sky130_fd_sc_hd__nand2b_1
*I *913:B1 I *D sky130_fd_sc_hd__o21ai_1
*I *932:A2 I *D sky130_fd_sc_hd__o221ai_1
*I *898:Y O *D sky130_fd_sc_hd__nand2_1
*CAP
1 *915:B 2.28402e-05
2 *913:B1 0
3 *932:A2 0.000228907
4 *898:Y 0.000170398
5 *161:22 0.000470875
6 *161:12 0.000435207
7 *915:B *916:B 1.38106e-05
8 *932:A2 *932:B1 1.32552e-05
9 *932:A2 *321:10 4.03318e-05
10 *161:12 *916:B 6.09804e-05
11 *161:12 *301:20 7.83587e-05
12 *161:22 *914:B 4.2035e-05
13 *161:22 *916:B 1.19393e-05
14 *161:22 *931:B 6.97548e-05
15 *913:A1 *161:22 7.77751e-05
16 *932:A1 *932:A2 2.27416e-05
17 *160:10 *161:12 2.34204e-05
*RES
1 *898:Y *161:12 21.1036 
2 *161:12 *161:22 4.41071 
3 *161:22 *932:A2 21.7107 
4 *161:22 *913:B1 9.3 
5 *161:12 *915:B 10.1616 
*END

*D_NET *162 0.00151751
*CONN
*I *901:A I *D sky130_fd_sc_hd__nand2_1
*I *932:B1 I *D sky130_fd_sc_hd__o221ai_1
*I *899:Y O *D sky130_fd_sc_hd__nand2_1
*CAP
1 *901:A 0.000228902
2 *932:B1 0.000233753
3 *899:Y 0.000233282
4 *162:8 0.000695937
5 *901:A *933:A2 0
6 *901:A *321:10 0
7 *901:A *321:27 0
8 *932:B1 *933:A2 0
9 *932:B1 *191:12 1.33343e-05
10 *932:B1 *321:10 0
11 *932:A1 *932:B1 9.90431e-05
12 *932:A2 *932:B1 1.32552e-05
*RES
1 *899:Y *162:8 16.3893 
2 *162:8 *932:B1 17.7464 
3 *162:8 *901:A 17.8 
*END

*D_NET *163 0.000123457
*CONN
*I *901:B I *D sky130_fd_sc_hd__nand2_1
*I *900:X O *D sky130_fd_sc_hd__or2_1
*CAP
1 *901:B 6.17285e-05
2 *900:X 6.17285e-05
*RES
1 *900:X *901:B 19.5464 
*END

*D_NET *164 0.00133102
*CONN
*I *911:B1 I *D sky130_fd_sc_hd__a21oi_1
*I *933:A1 I *D sky130_fd_sc_hd__o21ba_1
*I *917:A I *D sky130_fd_sc_hd__and3_1
*I *901:Y O *D sky130_fd_sc_hd__nand2_1
*CAP
1 *911:B1 9.02714e-05
2 *933:A1 2.50547e-05
3 *917:A 0.000294013
4 *901:Y 0
5 *164:8 0.000371215
6 *164:4 0.000142418
7 *911:B1 *912:B1 0
8 *911:B1 *917:B 0
9 *911:B1 *934:B 0
10 *917:A *917:B 1.62539e-05
11 *917:A *933:A2 9.90431e-05
12 *917:A *934:A_N 0.0001399
13 *917:A *934:B 4.23876e-05
14 *917:A *173:18 5.52302e-05
15 *917:A *192:8 5.52302e-05
*RES
1 *901:Y *164:4 9.3 
2 *164:4 *164:8 0.964286 
3 *164:8 *917:A 23.8893 
4 *164:8 *933:A1 9.72857 
5 *164:4 *911:B1 19.6393 
*END

*D_NET *165 0.00340443
*CONN
*I *904:A I *D sky130_fd_sc_hd__nand2_1
*I *911:A1 I *D sky130_fd_sc_hd__a21oi_1
*I *917:B I *D sky130_fd_sc_hd__and3_1
*I *934:B I *D sky130_fd_sc_hd__and2b_1
*I *902:Y O *D sky130_fd_sc_hd__nand2_1
*CAP
1 *904:A 2.46011e-05
2 *911:A1 0
3 *917:B 0.000170064
4 *934:B 0.000271847
5 *902:Y 0.00012877
6 *165:22 0.000652288
7 *165:14 0.000617166
8 *165:10 0.00056016
9 *904:A *912:B1 1.37292e-05
10 *904:A *301:20 5.59013e-05
11 *917:B *167:10 4.46186e-06
12 *917:B *173:12 0
13 *917:B *173:16 1.92905e-05
14 *934:B *934:A_N 0.000126629
15 *934:B *191:12 5.66157e-05
16 *934:B *192:8 3.97657e-05
17 *165:10 *902:A 5.30637e-06
18 *165:10 *912:A2 1.33343e-05
19 *165:10 *912:B1 2.34204e-05
20 *165:10 *175:10 5.94433e-06
21 *165:10 *301:20 7.6644e-05
22 *165:14 *918:B 6.97409e-05
23 *165:14 *1104:A 0.000271345
24 *165:14 *173:12 7.61932e-05
25 *165:14 *174:8 9.22103e-06
26 *165:22 *173:12 2.44318e-05
27 *165:22 *173:16 2.89114e-05
28 *911:B1 *917:B 0
29 *911:B1 *934:B 0
30 *917:A *917:B 1.62539e-05
31 *917:A *934:B 4.23876e-05
*RES
1 *902:Y *165:10 15.7821 
2 *165:10 *165:14 10.375 
3 *165:14 *165:22 7.08036 
4 *165:22 *934:B 19.3089 
5 *165:22 *917:B 16.1304 
6 *165:14 *911:A1 9.3 
7 *165:10 *904:A 14.5321 
*END

*D_NET *166 0.000840604
*CONN
*I *904:B I *D sky130_fd_sc_hd__nand2_1
*I *903:X O *D sky130_fd_sc_hd__or2_1
*CAP
1 *904:B 0.000249395
2 *903:X 0.000249395
3 *904:B *1104:A 4.22908e-05
4 *904:B *174:8 0
5 *904:B *305:16 0.000149762
6 *904:B *336:18 0.000149762
*RES
1 *903:X *904:B 32.975 
*END

*D_NET *167 0.00293273
*CONN
*I *905:A I *D sky130_fd_sc_hd__inv_2
*I *919:A I *D sky130_fd_sc_hd__xnor2_1
*I *904:Y O *D sky130_fd_sc_hd__nand2_1
*CAP
1 *905:A 0.000211634
2 *919:A 2.12761e-05
3 *904:Y 0.000736679
4 *167:10 0.000969589
5 *905:A *910:C1 2.89016e-05
6 *905:A *919:B 0
7 *905:A *173:12 0
8 *905:A *336:18 1.52978e-05
9 *919:A *301:20 0.00014285
10 *919:A *336:28 0.00014285
11 *167:10 *912:B1 3.14078e-05
12 *167:10 *918:B 9.77274e-05
13 *167:10 *1103:A 0.000129868
14 *167:10 *1104:A 4.30382e-05
15 *167:10 *173:12 0
16 *167:10 *173:16 1.74352e-05
17 *167:10 *174:8 0.000317082
18 *167:10 *336:18 2.26327e-05
19 *917:B *167:10 4.46186e-06
*RES
1 *904:Y *167:10 25.3893 
2 *167:10 *919:A 15.1571 
3 *167:10 *905:A 17.6036 
*END

*D_NET *168 0.000520481
*CONN
*I *910:C1 I *D sky130_fd_sc_hd__o311ai_4
*I *905:Y O *D sky130_fd_sc_hd__inv_2
*CAP
1 *910:C1 0.000227936
2 *905:Y 0.000227936
3 *910:C1 *910:B1 0
4 *910:C1 *919:B 0
5 *910:C1 *173:12 3.5707e-05
6 *889:B *910:C1 0
7 *905:A *910:C1 2.89016e-05
*RES
1 *905:Y *910:C1 31.0107 
*END

*D_NET *169 0.00164
*CONN
*I *908:A2 I *D sky130_fd_sc_hd__o21bai_2
*I *907:B2 I *D sky130_fd_sc_hd__o221ai_4
*I *906:X O *D sky130_fd_sc_hd__or2_1
*CAP
1 *908:A2 0.000450688
2 *907:B2 0
3 *906:X 0.000222172
4 *169:10 0.00067286
5 *889:B *908:A2 4.53889e-05
6 *889:B *169:10 4.84853e-05
7 *890:A *908:A2 0
8 *907:B1 *908:A2 0.000190155
9 *907:B1 *169:10 1.02504e-05
10 *907:C1 *169:10 0
11 *138:10 *908:A2 0
12 *138:10 *169:10 0
*RES
1 *906:X *169:10 17.1036 
2 *169:10 *907:B2 13.8 
3 *169:10 *908:A2 22.2464 
*END

*D_NET *170 0.00176504
*CONN
*I *908:B1_N I *D sky130_fd_sc_hd__o21bai_2
*I *909:A3 I *D sky130_fd_sc_hd__o31a_1
*I *910:A3 I *D sky130_fd_sc_hd__o311ai_4
*I *907:Y O *D sky130_fd_sc_hd__o221ai_4
*CAP
1 *908:B1_N 0.000164293
2 *909:A3 6.24635e-05
3 *910:A3 4.95164e-05
4 *907:Y 0.000224689
5 *170:21 0.000332501
6 *170:6 0.000379949
7 *908:B1_N *919:B 1.52978e-05
8 *908:B1_N *171:8 0
9 *909:A3 *919:B 0.00014285
10 *910:A3 *910:B1 0.00015304
11 *910:A3 *919:B 8.39e-05
12 *170:6 *909:B1 1.21258e-05
13 *170:21 *909:B1 4.72917e-05
14 *170:21 *919:B 9.71197e-05
15 *886:A *908:B1_N 0
*RES
1 *907:Y *170:6 11.8893 
2 *170:6 *910:A3 20.2464 
3 *170:6 *170:21 2.19643 
4 *170:21 *909:A3 10.6571 
5 *170:21 *908:B1_N 21.1571 
*END

*D_NET *171 0.00124192
*CONN
*I *909:B1 I *D sky130_fd_sc_hd__o31a_1
*I *910:B1 I *D sky130_fd_sc_hd__o311ai_4
*I *908:Y O *D sky130_fd_sc_hd__o21bai_2
*CAP
1 *909:B1 0.000137738
2 *910:B1 0.000136843
3 *908:Y 0.000131003
4 *171:8 0.000405583
5 *909:B1 *919:B 0.00018372
6 *910:B1 *919:B 1.46624e-05
7 *886:A *171:8 0
8 *908:A1 *171:8 1.99099e-05
9 *908:B1_N *171:8 0
10 *910:A3 *910:B1 0.00015304
11 *910:C1 *910:B1 0
12 *170:6 *909:B1 1.21258e-05
13 *170:21 *909:B1 4.72917e-05
*RES
1 *908:Y *171:8 16.3536 
2 *171:8 *910:B1 16.6571 
3 *171:8 *909:B1 16.8 
*END

*D_NET *172 0.00174356
*CONN
*I *919:B I *D sky130_fd_sc_hd__xnor2_1
*I *909:X O *D sky130_fd_sc_hd__o31a_1
*CAP
1 *919:B 0.00052831
2 *909:X 0.00052831
3 *919:B *173:12 0
4 *905:A *919:B 0
5 *908:B1_N *919:B 1.52978e-05
6 *909:A1 *919:B 5.52302e-05
7 *909:A3 *919:B 0.00014285
8 *909:B1 *919:B 0.00018372
9 *910:A2 *919:B 0
10 *910:A3 *919:B 8.39e-05
11 *910:B1 *919:B 1.46624e-05
12 *910:C1 *919:B 0
13 *143:10 *919:B 0
14 *143:21 *919:B 0
15 *152:16 *919:B 9.41642e-05
16 *170:21 *919:B 9.71197e-05
*RES
1 *909:X *919:B 38.5286 
*END

*D_NET *173 0.00359757
*CONN
*I *911:A2 I *D sky130_fd_sc_hd__a21oi_1
*I *917:C I *D sky130_fd_sc_hd__and3_1
*I *935:A1 I *D sky130_fd_sc_hd__a21o_1
*I *959:A1 I *D sky130_fd_sc_hd__a2111o_1
*I *910:Y O *D sky130_fd_sc_hd__o311ai_4
*CAP
1 *911:A2 0
2 *917:C 3.53055e-05
3 *935:A1 0
4 *959:A1 0.000170049
5 *910:Y 0.000595796
6 *173:18 0.000704119
7 *173:16 0.00066673
8 *173:12 0.000693151
9 *959:A1 *935:B1 6.81083e-05
10 *959:A1 *959:D1 6.0038e-05
11 *959:A1 *194:12 0.000103267
12 *173:12 *918:B 0.000186662
13 *173:12 *1103:A 0
14 *173:12 *336:18 0
15 *173:16 *918:B 5.71472e-05
16 *889:B *173:12 0
17 *905:A *173:12 0
18 *910:C1 *173:12 3.5707e-05
19 *917:A *173:18 5.52302e-05
20 *917:B *173:12 0
21 *917:B *173:16 1.92905e-05
22 *919:B *173:12 0
23 *165:14 *173:12 7.61932e-05
24 *165:22 *173:12 2.44318e-05
25 *165:22 *173:16 2.89114e-05
26 *167:10 *173:12 0
27 *167:10 *173:16 1.74352e-05
*RES
1 *910:Y *173:12 29.6036 
2 *173:12 *173:16 2.5 
3 *173:16 *173:18 6.28571 
4 *173:18 *959:A1 21.3 
5 *173:18 *935:A1 9.3 
6 *173:16 *917:C 9.90714 
7 *173:12 *911:A2 9.3 
*END

*D_NET *174 0.00121628
*CONN
*I *912:B1 I *D sky130_fd_sc_hd__a21oi_1
*I *918:A I *D sky130_fd_sc_hd__nor2_1
*I *911:Y O *D sky130_fd_sc_hd__a21oi_1
*CAP
1 *912:B1 0.000150428
2 *918:A 0
3 *911:Y 7.74351e-05
4 *174:8 0.000227863
5 *912:B1 *1104:A 9.90367e-05
6 *912:B1 *301:20 0
7 *174:8 *918:B 0.000249225
8 *174:8 *1104:A 1.74352e-05
9 *904:A *912:B1 1.37292e-05
10 *904:B *174:8 0
11 *911:B1 *912:B1 0
12 *165:10 *912:B1 2.34204e-05
13 *165:14 *174:8 9.22103e-06
14 *167:10 *912:B1 3.14078e-05
15 *167:10 *174:8 0.000317082
*RES
1 *911:Y *174:8 13.0321 
2 *174:8 *918:A 9.3 
3 *174:8 *912:B1 21.1929 
*END

*D_NET *175 0.00255279
*CONN
*I *913:A2 I *D sky130_fd_sc_hd__o21ai_1
*I *916:A I *D sky130_fd_sc_hd__xor2_1
*I *912:Y O *D sky130_fd_sc_hd__a21oi_1
*CAP
1 *913:A2 0.000335351
2 *916:A 2.28215e-05
3 *912:Y 0.000321309
4 *175:10 0.000679481
5 *913:A2 *916:B 0.000192489
6 *913:A2 *931:B 9.80173e-05
7 *916:A *301:20 8.07951e-05
8 *916:A *310:10 4.58096e-05
9 *175:10 *900:A 5.33334e-05
10 *175:10 *902:A 6.05161e-06
11 *175:10 *912:A2 1.15281e-05
12 *175:10 *301:20 0.000453563
13 *175:10 *310:10 0.0002463
14 *165:10 *175:10 5.94433e-06
*RES
1 *912:Y *175:10 21.8714 
2 *175:10 *916:A 14.8357 
3 *175:10 *913:A2 18.4429 
*END

*D_NET *176 0.000505107
*CONN
*I *914:B I *D sky130_fd_sc_hd__xnor2_1
*I *913:Y O *D sky130_fd_sc_hd__o21ai_1
*CAP
1 *914:B 0.000116226
2 *913:Y 0.000116226
3 *914:B *309:12 0
4 *914:B *321:10 7.6021e-05
5 *914:B *365:22 3.18676e-05
6 *914:A *914:B 0.000122731
7 *161:22 *914:B 4.2035e-05
*RES
1 *913:Y *914:B 30.6179 
*END

*D_NET *177 0.00140286
*CONN
*I *916:B I *D sky130_fd_sc_hd__xor2_1
*I *931:B I *D sky130_fd_sc_hd__or2_1
*I *915:Y O *D sky130_fd_sc_hd__nand2b_1
*CAP
1 *916:B 8.76789e-05
2 *931:B 0.000266985
3 *915:Y 0
4 *177:4 0.000354664
5 *931:B *190:10 1.10365e-05
6 *896:B *931:B 1.15781e-05
7 *913:A1 *916:B 9.90367e-05
8 *913:A1 *931:B 2.14757e-05
9 *913:A2 *916:B 0.000192489
10 *913:A2 *931:B 9.80173e-05
11 *915:B *916:B 1.38106e-05
12 *931:A *931:B 0.000103411
13 *161:12 *916:B 6.09804e-05
14 *161:22 *916:B 1.19393e-05
15 *161:22 *931:B 6.97548e-05
*RES
1 *915:Y *177:4 9.3 
2 *177:4 *931:B 15.4027 
3 *177:4 *916:B 12.7107 
*END

*D_NET *178 0.000863761
*CONN
*I *918:B I *D sky130_fd_sc_hd__nor2_1
*I *917:X O *D sky130_fd_sc_hd__and3_1
*CAP
1 *918:B 0.000101629
2 *917:X 0.000101629
3 *165:14 *918:B 6.97409e-05
4 *167:10 *918:B 9.77274e-05
5 *173:12 *918:B 0.000186662
6 *173:16 *918:B 5.71472e-05
7 *174:8 *918:B 0.000249225
*RES
1 *917:X *918:B 23.2786 
*END

*D_NET *179 0.00175625
*CONN
*I *960:A1 I *D sky130_fd_sc_hd__o221a_1
*I *922:A_N I *D sky130_fd_sc_hd__nand2b_1
*I *920:Y O *D sky130_fd_sc_hd__nor2_1
*CAP
1 *960:A1 0.000418946
2 *922:A_N 4.5955e-05
3 *920:Y 0.000154251
4 *179:8 0.000619152
5 *922:A_N *920:A 0
6 *922:A_N *1112:A 5.58941e-05
7 *960:A1 *960:B2 7.96198e-05
8 *960:A1 *960:C1 9.92409e-05
9 *960:A1 *1112:A 0.000126446
10 *179:8 *921:B 9.38176e-05
11 *179:8 *922:B 5.54894e-05
12 *179:8 *279:16 7.43578e-06
*RES
1 *920:Y *179:8 16.8 
2 *179:8 *922:A_N 14.5321 
3 *179:8 *960:A1 21.2286 
*END

*D_NET *180 0.000944309
*CONN
*I *960:C1 I *D sky130_fd_sc_hd__o221a_1
*I *922:B I *D sky130_fd_sc_hd__nand2b_1
*I *921:Y O *D sky130_fd_sc_hd__nand2_1
*CAP
1 *960:C1 0.000168947
2 *922:B 0.000109135
3 *921:Y 0
4 *180:4 0.000278082
5 *922:B *921:B 6.54743e-05
6 *922:B *957:A 1.56e-05
7 *960:C1 *1112:A 0.00015234
8 *960:C1 *354:18 0
9 *960:A1 *960:C1 9.92409e-05
10 *179:8 *922:B 5.54894e-05
*RES
1 *921:Y *180:4 9.3 
2 *180:4 *922:B 11.9473 
3 *180:4 *960:C1 22.0143 
*END

*D_NET *181 0.00290205
*CONN
*I *957:A I *D sky130_fd_sc_hd__or2_1
*I *940:A I *D sky130_fd_sc_hd__xnor2_1
*I *922:Y O *D sky130_fd_sc_hd__nand2b_1
*CAP
1 *957:A 0.000872799
2 *940:A 0.000149077
3 *922:Y 0
4 *181:4 0.00102188
5 *940:A *920:A 7.83659e-05
6 *940:A *940:B 0.000169383
7 *940:A *314:10 5.41794e-05
8 *940:A *354:18 0.000312209
9 *957:A *921:B 0.000228558
10 *922:B *957:A 1.56e-05
*RES
1 *922:Y *181:4 9.3 
2 *181:4 *940:A 22.9429 
3 *181:4 *957:A 19.7107 
*END

*D_NET *182 0.00118084
*CONN
*I *941:A I *D sky130_fd_sc_hd__nand2_1
*I *939:A1 I *D sky130_fd_sc_hd__a21bo_1
*I *923:X O *D sky130_fd_sc_hd__or2_1
*CAP
1 *941:A 7.93756e-05
2 *939:A1 0.00012162
3 *923:X 9.64202e-05
4 *182:6 0.000297416
5 *939:A1 *923:B 0.000222666
6 *939:A1 *924:A 1.65558e-05
7 *939:A1 *183:8 9.90367e-05
8 *939:A1 *183:21 2.84494e-05
9 *941:A *923:A 5.10822e-05
10 *941:A *941:B 2.6949e-05
11 *941:A *311:12 6.42242e-05
12 *941:A *372:16 0
13 *182:6 *923:A 2.95726e-05
14 *182:6 *923:B 1.24368e-05
15 *182:6 *939:A2 2.47833e-05
16 *1068:A *941:A 1.02504e-05
*RES
1 *923:X *182:6 11.0679 
2 *182:6 *939:A1 21.2107 
3 *182:6 *941:A 20.55 
*END

*D_NET *183 0.00201767
*CONN
*I *960:A2 I *D sky130_fd_sc_hd__o221a_1
*I *939:B1_N I *D sky130_fd_sc_hd__a21bo_1
*I *941:B I *D sky130_fd_sc_hd__nand2_1
*I *924:Y O *D sky130_fd_sc_hd__nand2_1
*CAP
1 *960:A2 0.000268434
2 *939:B1_N 2.72788e-05
3 *941:B 0.000118648
4 *924:Y 0.000209717
5 *183:21 0.000331563
6 *183:8 0.000364216
7 *939:B1_N *923:A 5.52302e-05
8 *939:B1_N *923:B 9.60939e-05
9 *939:B1_N *939:A2 1.98839e-05
10 *941:B *923:A 9.2244e-05
11 *941:B *924:A 3.69047e-06
12 *941:B *1112:A 0
13 *941:B *278:12 0
14 *960:A2 *923:A 3.34366e-05
15 *960:A2 *1112:A 0
16 *960:A2 *311:12 0
17 *960:A2 *354:18 0
18 *183:8 *923:B 6.42877e-05
19 *183:8 *940:B 9.90367e-05
20 *183:21 *923:A 7.6644e-05
21 *939:A1 *183:8 9.90367e-05
22 *939:A1 *183:21 2.84494e-05
23 *941:A *941:B 2.6949e-05
24 *1070:A *941:B 2.8266e-06
*RES
1 *924:Y *183:8 16.8 
2 *183:8 *941:B 16.2821 
3 *183:8 *183:21 1.03571 
4 *183:21 *939:B1_N 14.7464 
5 *183:21 *960:A2 18.4786 
*END

*D_NET *184 0.00281394
*CONN
*I *961:A1 I *D sky130_fd_sc_hd__o21a_1
*I *927:A I *D sky130_fd_sc_hd__nand2_1
*I *925:Y O *D sky130_fd_sc_hd__nand2_1
*CAP
1 *961:A1 0.000295481
2 *927:A 0
3 *925:Y 0.000168452
4 *184:14 0.000463933
5 *961:A1 *927:B 5.80706e-06
6 *961:A1 *937:A1 5.52238e-05
7 *961:A1 *944:B 9.90367e-05
8 *961:A1 *958:A 5.23057e-05
9 *961:A1 *958:B 4.72917e-05
10 *961:A1 *959:B1 2.28598e-05
11 *961:A1 *960:B2 8.98941e-05
12 *961:A1 *961:A2 2.89016e-05
13 *961:A1 *186:12 0.000124725
14 *961:A1 *186:20 0.000275634
15 *961:A1 *187:25 0.000577016
16 *961:A1 *196:8 0.000144512
17 *184:14 *927:B 6.42338e-05
18 *184:14 *938:A1 2.37575e-05
19 *184:14 *938:B1 0.000125731
20 *184:14 *196:8 1.02504e-05
21 *184:14 *312:12 0.000116033
22 *184:14 *365:26 2.28598e-05
*RES
1 *925:Y *184:14 17.7643 
2 *184:14 *927:A 13.8 
3 *184:14 *961:A1 24.8179 
*END

*D_NET *185 0.000233199
*CONN
*I *927:B I *D sky130_fd_sc_hd__nand2_1
*I *926:X O *D sky130_fd_sc_hd__or2_1
*CAP
1 *927:B 8.15792e-05
2 *926:X 8.15792e-05
3 *927:B *1108:A 0
4 *961:A1 *927:B 5.80706e-06
5 *184:14 *927:B 6.42338e-05
*RES
1 *926:X *927:B 29.2429 
*END

*D_NET *186 0.00161465
*CONN
*I *937:B1 I *D sky130_fd_sc_hd__a21oi_1
*I *943:A I *D sky130_fd_sc_hd__and3_1
*I *958:A I *D sky130_fd_sc_hd__or2_1
*I *927:Y O *D sky130_fd_sc_hd__nand2_1
*CAP
1 *937:B1 0
2 *943:A 0
3 *958:A 0.000135118
4 *927:Y 0.000152584
5 *186:20 0.000295217
6 *186:12 0.000312684
7 *958:A *959:B1 5.33005e-05
8 *958:A *960:B2 9.90367e-05
9 *186:12 *937:A1 0
10 *186:20 *937:A2 5.71472e-05
11 *186:20 *943:C 5.68942e-05
12 *961:A1 *958:A 5.23057e-05
13 *961:A1 *186:12 0.000124725
14 *961:A1 *186:20 0.000275634
*RES
1 *927:Y *186:12 21.1929 
2 *186:12 *186:20 4.69643 
3 *186:20 *958:A 11.8893 
4 *186:20 *943:A 9.3 
5 *186:12 *937:B1 9.3 
*END

*D_NET *187 0.00377676
*CONN
*I *930:A I *D sky130_fd_sc_hd__nand2_1
*I *937:A1 I *D sky130_fd_sc_hd__a21oi_1
*I *943:B I *D sky130_fd_sc_hd__and3_1
*I *960:B1 I *D sky130_fd_sc_hd__o221a_1
*I *928:Y O *D sky130_fd_sc_hd__nand2_1
*CAP
1 *930:A 3.82418e-05
2 *937:A1 0.000235363
3 *943:B 0
4 *960:B1 7.61639e-05
5 *928:Y 0
6 *187:25 0.000826623
7 *187:17 0.000946493
8 *187:4 0.000393155
9 *930:A *928:A 0
10 *937:A1 *937:A2 4.46186e-06
11 *937:A1 *944:B 2.8266e-06
12 *937:A1 *1107:A 0
13 *960:B1 *311:12 0
14 *960:B1 *354:18 6.75007e-05
15 *187:17 *928:A 4.14279e-05
16 *187:17 *929:B 9.90431e-05
17 *187:17 *930:B 2.28598e-05
18 *187:17 *189:12 4.00276e-06
19 *187:17 *311:12 0.00014285
20 *187:25 *960:B2 2.07382e-05
21 *187:25 *961:A2 1.39841e-05
22 *187:25 *961:B1 1.92905e-05
23 *187:25 *216:12 7.83587e-05
24 *187:25 *311:12 4.38511e-05
25 *187:25 *372:16 6.72808e-05
26 *961:A1 *937:A1 5.52238e-05
27 *961:A1 *187:25 0.000577016
28 *186:12 *937:A1 0
*RES
1 *928:Y *187:4 9.3 
2 *187:4 *960:B1 19.9429 
3 *187:4 *187:17 4.23214 
4 *187:17 *187:25 18.6607 
5 *187:25 *943:B 9.3 
6 *187:25 *937:A1 21.3536 
7 *187:17 *930:A 10.0321 
*END

*D_NET *188 0.000153566
*CONN
*I *930:B I *D sky130_fd_sc_hd__nand2_1
*I *929:X O *D sky130_fd_sc_hd__or2_1
*CAP
1 *930:B 3.7741e-05
2 *929:X 3.7741e-05
3 *930:B *311:12 5.52238e-05
4 *187:17 *930:B 2.28598e-05
*RES
1 *929:X *930:B 19.5464 
*END

*D_NET *189 0.00193334
*CONN
*I *959:C1 I *D sky130_fd_sc_hd__a2111o_1
*I *936:A I *D sky130_fd_sc_hd__or2_1
*I *945:A I *D sky130_fd_sc_hd__xor2_1
*I *930:Y O *D sky130_fd_sc_hd__nand2_1
*CAP
1 *959:C1 4.99687e-05
2 *936:A 0
3 *945:A 0
4 *930:Y 0.000281482
5 *189:19 0.000137331
6 *189:12 0.000368844
7 *959:C1 *959:B1 1.39841e-05
8 *959:C1 *194:12 0.000320024
9 *959:C1 *195:10 0.000232399
10 *189:12 *1107:A 0
11 *189:12 *372:16 0.000153047
12 *189:19 *945:B 0.000230482
13 *189:19 *1107:A 5.41494e-05
14 *189:19 *194:12 8.76257e-05
15 *187:17 *189:12 4.00276e-06
*RES
1 *930:Y *189:12 22.425 
2 *189:12 *945:A 9.3 
3 *189:12 *189:19 3 
4 *189:19 *936:A 9.3 
5 *189:19 *959:C1 12.3 
*END

*D_NET *190 0.00159043
*CONN
*I *933:A2 I *D sky130_fd_sc_hd__o21ba_1
*I *932:B2 I *D sky130_fd_sc_hd__o221ai_1
*I *931:X O *D sky130_fd_sc_hd__or2_1
*CAP
1 *933:A2 0.00024407
2 *932:B2 0
3 *931:X 0.000199954
4 *190:10 0.000444024
5 *933:A2 *191:12 0.000345632
6 *933:A2 *321:10 0
7 *896:B *190:10 3.81416e-06
8 *901:A *933:A2 0
9 *917:A *933:A2 9.90431e-05
10 *931:A *190:10 2.3773e-05
11 *931:B *190:10 1.10365e-05
12 *932:A1 *933:A2 1.02504e-05
13 *932:A1 *190:10 0.000153047
14 *932:B1 *933:A2 0
15 *932:C1 *190:10 5.5782e-05
*RES
1 *931:X *190:10 17.5143 
2 *190:10 *932:B2 13.8 
3 *190:10 *933:A2 19.7286 
*END

*D_NET *191 0.00135646
*CONN
*I *933:B1_N I *D sky130_fd_sc_hd__o21ba_1
*I *934:A_N I *D sky130_fd_sc_hd__and2b_1
*I *932:Y O *D sky130_fd_sc_hd__o221ai_1
*CAP
1 *933:B1_N 0
2 *934:A_N 6.16243e-05
3 *932:Y 0.000238905
4 *191:12 0.000300529
5 *934:A_N *192:8 7.32955e-05
6 *917:A *934:A_N 0.0001399
7 *932:B1 *191:12 1.33343e-05
8 *933:A2 *191:12 0.000345632
9 *934:B *934:A_N 0.000126629
10 *934:B *191:12 5.66157e-05
*RES
1 *932:Y *191:12 23.6214 
2 *191:12 *934:A_N 11.8893 
3 *191:12 *933:B1_N 9.3 
*END

*D_NET *192 0.00207512
*CONN
*I *935:B1 I *D sky130_fd_sc_hd__a21o_1
*I *959:D1 I *D sky130_fd_sc_hd__a2111o_1
*I *933:X O *D sky130_fd_sc_hd__o21ba_1
*CAP
1 *935:B1 6.24315e-05
2 *959:D1 0.000118162
3 *933:X 0.000492024
4 *192:8 0.000672617
5 *935:B1 *935:A2 4.25716e-05
6 *959:D1 *935:A2 2.19684e-05
7 *959:D1 *959:B1 9.90367e-05
8 *959:D1 *195:10 0.000114334
9 *192:8 *959:A2 5.33334e-05
10 *192:8 *193:8 0.000102207
11 *917:A *192:8 5.52302e-05
12 *934:A_N *192:8 7.32955e-05
13 *934:B *192:8 3.97657e-05
14 *959:A1 *935:B1 6.81083e-05
15 *959:A1 *959:D1 6.0038e-05
*RES
1 *933:X *192:8 20.4964 
2 *192:8 *959:D1 16.9071 
3 *192:8 *935:B1 15.4429 
*END

*D_NET *193 0.000697467
*CONN
*I *935:A2 I *D sky130_fd_sc_hd__a21o_1
*I *959:A2 I *D sky130_fd_sc_hd__a2111o_1
*I *934:X O *D sky130_fd_sc_hd__and2b_1
*CAP
1 *935:A2 0.000113489
2 *959:A2 3.82016e-05
3 *934:X 8.70025e-05
4 *193:8 0.000238693
5 *935:B1 *935:A2 4.25716e-05
6 *959:D1 *935:A2 2.19684e-05
7 *192:8 *959:A2 5.33334e-05
8 *192:8 *193:8 0.000102207
*RES
1 *934:X *193:8 11.4964 
2 *193:8 *959:A2 10.2464 
3 *193:8 *935:A2 20.55 
*END

*D_NET *194 0.00180579
*CONN
*I *936:B I *D sky130_fd_sc_hd__or2_1
*I *945:B I *D sky130_fd_sc_hd__xor2_1
*I *935:X O *D sky130_fd_sc_hd__a21o_1
*CAP
1 *936:B 0
2 *945:B 8.72408e-05
3 *935:X 0.000180874
4 *194:12 0.000268114
5 *945:B *214:6 0.000274294
6 *194:12 *195:10 2.14658e-05
7 *194:12 *214:6 0.000232399
8 *959:A1 *194:12 0.000103267
9 *959:C1 *194:12 0.000320024
10 *189:19 *945:B 0.000230482
11 *189:19 *194:12 8.76257e-05
*RES
1 *935:X *194:12 23.8714 
2 *194:12 *945:B 12.6214 
3 *194:12 *936:B 9.3 
*END

*D_NET *195 0.00141185
*CONN
*I *943:C I *D sky130_fd_sc_hd__and3_1
*I *937:A2 I *D sky130_fd_sc_hd__a21oi_1
*I *936:X O *D sky130_fd_sc_hd__or2_1
*CAP
1 *943:C 5.76728e-05
2 *937:A2 7.81218e-05
3 *936:X 0.000277917
4 *195:10 0.000413712
5 *937:A2 *959:B1 0
6 *195:10 *959:B1 9.77274e-05
7 *937:A1 *937:A2 4.46186e-06
8 *959:C1 *195:10 0.000232399
9 *959:D1 *195:10 0.000114334
10 *186:20 *937:A2 5.71472e-05
11 *186:20 *943:C 5.68942e-05
12 *194:12 *195:10 2.14658e-05
*RES
1 *936:X *195:10 20.4607 
2 *195:10 *937:A2 15.0679 
3 *195:10 *943:C 14.6304 
*END

*D_NET *196 0.0011402
*CONN
*I *944:A I *D sky130_fd_sc_hd__nor2_1
*I *938:B1 I *D sky130_fd_sc_hd__a21o_1
*I *937:Y O *D sky130_fd_sc_hd__a21oi_1
*CAP
1 *944:A 0
2 *938:B1 0.000271659
3 *937:Y 4.37572e-05
4 *196:8 0.000315416
5 *938:B1 *938:A1 0.000144773
6 *938:B1 *944:B 5.80706e-06
7 *938:B1 *1109:A 2.51343e-06
8 *938:B1 *365:26 0
9 *196:8 *944:B 7.57773e-05
10 *961:A1 *196:8 0.000144512
11 *184:14 *938:B1 0.000125731
12 *184:14 *196:8 1.02504e-05
*RES
1 *937:Y *196:8 15.7464 
2 *196:8 *938:B1 18.3536 
3 *196:8 *944:A 13.8 
*END

*D_NET *197 0.00210587
*CONN
*I *939:A2 I *D sky130_fd_sc_hd__a21bo_1
*I *942:A I *D sky130_fd_sc_hd__xnor2_1
*I *938:X O *D sky130_fd_sc_hd__a21o_1
*CAP
1 *939:A2 0.000522655
2 *942:A 0
3 *938:X 0.00026324
4 *197:6 0.000785895
5 *939:A2 *923:A 0.000184745
6 *939:A2 *923:B 4.51611e-05
7 *939:A2 *942:B 3.67257e-05
8 *197:6 *1109:A 0.000222784
9 *939:B1_N *939:A2 1.98839e-05
10 *182:6 *939:A2 2.47833e-05
*RES
1 *938:X *197:6 14.7643 
2 *197:6 *942:A 9.3 
3 *197:6 *939:A2 16.6393 
*END

*D_NET *198 0.00124715
*CONN
*I *940:B I *D sky130_fd_sc_hd__xnor2_1
*I *939:X O *D sky130_fd_sc_hd__a21bo_1
*CAP
1 *940:B 0.000370189
2 *939:X 0.000370189
3 *940:B *923:B 0.000120512
4 *940:B *354:18 0.000117842
5 *940:A *940:B 0.000169383
6 *183:8 *940:B 9.90367e-05
*RES
1 *939:X *940:B 26.1357 
*END

*D_NET *199 0.00127676
*CONN
*I *957:B I *D sky130_fd_sc_hd__or2_1
*I *942:B I *D sky130_fd_sc_hd__xnor2_1
*I *941:Y O *D sky130_fd_sc_hd__nand2_1
*CAP
1 *957:B 8.68406e-05
2 *942:B 4.76793e-05
3 *941:Y 0.000364778
4 *199:14 0.000499298
5 *957:B *311:12 5.44074e-05
6 *957:B *372:16 5.9483e-05
7 *199:14 *311:12 2.8246e-05
8 *199:14 *372:16 4.514e-05
9 *939:A2 *942:B 3.67257e-05
10 *1068:A *199:14 5.41609e-05
*RES
1 *941:Y *199:14 19.1036 
2 *199:14 *942:B 14.7464 
3 *199:14 *957:B 16.05 
*END

*D_NET *200 0.000479424
*CONN
*I *944:B I *D sky130_fd_sc_hd__nor2_1
*I *943:X O *D sky130_fd_sc_hd__and3_1
*CAP
1 *944:B 0.000147988
2 *943:X 0.000147988
3 *944:B *1107:A 0
4 *937:A1 *944:B 2.8266e-06
5 *938:B1 *944:B 5.80706e-06
6 *961:A1 *944:B 9.90367e-05
7 *196:8 *944:B 7.57773e-05
*RES
1 *943:X *944:B 30.4929 
*END

*D_NET *201 0.00103902
*CONN
*I *948:A I *D sky130_fd_sc_hd__nand2_1
*I *985:B I *D sky130_fd_sc_hd__nand2b_1
*I *946:X O *D sky130_fd_sc_hd__or2_1
*CAP
1 *948:A 5.53111e-05
2 *985:B 0
3 *946:X 0.000219548
4 *201:16 0.000274859
5 *948:A *986:D 5.71472e-05
6 *948:A *202:8 0.000173788
7 *201:16 *946:B 0
8 *201:16 *947:A 0.000100478
9 *201:16 *947:B 0
10 *201:16 *202:8 0.00015789
*RES
1 *946:X *201:16 22.7866 
2 *201:16 *985:B 9.3 
3 *201:16 *948:A 11.0634 
*END

*D_NET *202 0.00196715
*CONN
*I *948:B I *D sky130_fd_sc_hd__nand2_1
*I *986:A I *D sky130_fd_sc_hd__and4_1
*I *947:Y O *D sky130_fd_sc_hd__nand2_1
*CAP
1 *948:B 0
2 *986:A 0.000347805
3 *947:Y 0.000103074
4 *202:8 0.000450879
5 *986:A *359:16 0.000150625
6 *202:8 *986:D 4.88637e-05
7 *202:8 *284:16 0.000534222
8 *948:A *202:8 0.000173788
9 *1076:A *986:A 0
10 *201:16 *202:8 0.00015789
*RES
1 *947:Y *202:8 14.7821 
2 *202:8 *986:A 24.0679 
3 *202:8 *948:B 9.3 
*END

*D_NET *203 0.00226313
*CONN
*I *984:A I *D sky130_fd_sc_hd__or3_1
*I *980:A I *D sky130_fd_sc_hd__nor3_1
*I *966:A I *D sky130_fd_sc_hd__xnor2_1
*I *948:Y O *D sky130_fd_sc_hd__nand2_1
*CAP
1 *984:A 0
2 *980:A 0.000150212
3 *966:A 0.00011636
4 *948:Y 0.000130884
5 *203:21 0.000412035
6 *203:12 0.000509067
7 *980:A *980:B 9.99853e-05
8 *980:A *980:C 5.65955e-05
9 *980:A *221:27 4.45874e-05
10 *203:12 *985:A_N 5.57914e-05
11 *203:12 *221:27 1.76135e-05
12 *203:12 *284:16 0.000140645
13 *203:21 *221:27 0.00052935
*RES
1 *948:Y *203:12 21.1929 
2 *203:12 *966:A 11.0679 
3 *203:12 *203:21 5.875 
4 *203:21 *980:A 12.3179 
5 *203:21 *984:A 9.3 
*END

*D_NET *204 0.00157577
*CONN
*I *967:A I *D sky130_fd_sc_hd__nand2_1
*I *965:A1 I *D sky130_fd_sc_hd__a21bo_1
*I *949:X O *D sky130_fd_sc_hd__or2_1
*CAP
1 *967:A 0.000174618
2 *965:A1 2.23854e-05
3 *949:X 0.000380107
4 *204:14 0.00057711
5 *965:A1 *967:B 0
6 *967:A *967:B 5.922e-05
7 *967:A *205:16 6.62898e-05
8 *967:A *221:8 5.33005e-05
9 *204:14 *950:A 5.23057e-05
10 *204:14 *950:B 3.18676e-05
11 *204:14 *966:B 1.40415e-05
12 *204:14 *205:16 3.69047e-06
13 *204:14 *283:10 3.92854e-05
14 *204:14 *316:12 0.000101545
*RES
1 *949:X *204:14 23.9964 
2 *204:14 *965:A1 9.72857 
3 *204:14 *967:A 12.7286 
*END

*D_NET *205 0.00227923
*CONN
*I *985:A_N I *D sky130_fd_sc_hd__nand2b_1
*I *965:B1_N I *D sky130_fd_sc_hd__a21bo_1
*I *967:B I *D sky130_fd_sc_hd__nand2_1
*I *950:Y O *D sky130_fd_sc_hd__nand2_1
*CAP
1 *985:A_N 0.000371056
2 *965:B1_N 0
3 *967:B 4.18577e-05
4 *950:Y 0.00027364
5 *205:16 0.00015841
6 *205:10 0.000761248
7 *985:A_N *947:A 0
8 *985:A_N *966:B 0.000181359
9 *985:A_N *1115:A 0
10 *985:A_N *221:27 0
11 *985:A_N *284:16 0
12 *985:A_N *316:12 4.97121e-06
13 *205:10 *950:A 5.71472e-05
14 *205:10 *965:A2 0.000201999
15 *205:10 *968:B 0
16 *205:10 *221:27 0
17 *205:10 *316:12 4.25513e-05
18 *965:A1 *967:B 0
19 *967:A *967:B 5.922e-05
20 *967:A *205:16 6.62898e-05
21 *1073:A *205:10 0
22 *203:12 *985:A_N 5.57914e-05
23 *204:14 *205:16 3.69047e-06
*RES
1 *950:Y *205:10 19.0321 
2 *205:10 *205:16 6.69643 
3 *205:16 *967:B 10.2643 
4 *205:16 *965:B1_N 9.3 
5 *205:10 *985:A_N 21.4429 
*END

*D_NET *206 0.00203883
*CONN
*I *984:B I *D sky130_fd_sc_hd__or3_1
*I *953:A I *D sky130_fd_sc_hd__nand2_1
*I *951:Y O *D sky130_fd_sc_hd__nand2_1
*CAP
1 *984:B 0.000361084
2 *953:A 0
3 *951:Y 0.000179622
4 *206:10 0.000540706
5 *984:B *953:B 5.80706e-06
6 *984:B *970:B 0
7 *984:B *980:B 0
8 *984:B *986:C 3.34366e-05
9 *984:B *208:10 0
10 *984:B *359:16 0
11 *206:10 *953:B 6.65398e-05
12 *206:10 *964:A1 0.000182598
13 *206:10 *964:B1 8.15939e-05
14 *206:10 *282:12 5.59013e-05
15 *206:10 *317:14 0.000174259
16 *206:10 *354:18 0.000357285
17 *206:10 *359:16 0
*RES
1 *951:Y *206:10 20.0679 
2 *206:10 *953:A 13.8 
3 *206:10 *984:B 19.6929 
*END

*D_NET *207 0.000227615
*CONN
*I *953:B I *D sky130_fd_sc_hd__nand2_1
*I *952:X O *D sky130_fd_sc_hd__or2_1
*CAP
1 *953:B 7.76341e-05
2 *952:X 7.76341e-05
3 *984:B *953:B 5.80706e-06
4 *206:10 *953:B 6.65398e-05
*RES
1 *952:X *953:B 29.2429 
*END

*D_NET *208 0.00197221
*CONN
*I *980:B I *D sky130_fd_sc_hd__nor3_1
*I *963:B1 I *D sky130_fd_sc_hd__a21oi_1
*I *969:A I *D sky130_fd_sc_hd__and3_1
*I *953:Y O *D sky130_fd_sc_hd__nand2_1
*CAP
1 *980:B 0.000127469
2 *963:B1 6.54681e-06
3 *969:A 0
4 *953:Y 0.000339248
5 *208:14 9.48599e-05
6 *208:10 0.00055503
7 *963:B1 *963:A1 4.33899e-05
8 *963:B1 *969:C 5.65955e-05
9 *980:B *956:B 0.00015134
10 *980:B *981:A 3.42426e-05
11 *208:10 *956:B 5.66157e-05
12 *208:10 *964:B1 6.99024e-05
13 *208:10 *970:B 3.69697e-05
14 *208:14 *956:B 2.59355e-05
15 *208:14 *963:A1 9.99853e-05
16 *208:14 *969:C 0.000107531
17 *208:14 *209:10 1.16078e-05
18 *208:14 *209:25 5.49544e-05
19 *980:A *980:B 9.99853e-05
20 *984:B *980:B 0
21 *984:B *208:10 0
*RES
1 *953:Y *208:10 18.6393 
2 *208:10 *208:14 6.67857 
3 *208:14 *969:A 9.3 
4 *208:14 *963:B1 9.83571 
5 *208:10 *980:B 17.1036 
*END

*D_NET *209 0.00495305
*CONN
*I *963:A1 I *D sky130_fd_sc_hd__a21oi_1
*I *956:A I *D sky130_fd_sc_hd__nand2_1
*I *983:A I *D sky130_fd_sc_hd__or2_1
*I *969:B I *D sky130_fd_sc_hd__and3_1
*I *954:Y O *D sky130_fd_sc_hd__nand2_1
*CAP
1 *963:A1 7.16021e-05
2 *956:A 3.67894e-05
3 *983:A 0.000335843
4 *969:B 1.11423e-05
5 *954:Y 0.000918998
6 *209:25 0.000548572
7 *209:19 0.000282362
8 *209:10 0.000964961
9 *956:A *956:B 7.22594e-05
10 *963:A1 *969:C 4.48647e-05
11 *963:A1 *218:12 3.42509e-05
12 *983:A *956:B 1.21258e-05
13 *983:A *981:A 0.000160885
14 *983:A *983:B 3.79877e-06
15 *983:A *986:D 1.2828e-05
16 *983:A *211:8 2.51343e-06
17 *209:10 *956:B 0.000854071
18 *209:10 *970:B 5.52238e-05
19 *209:25 *956:B 0.000320024
20 *963:B1 *963:A1 4.33899e-05
21 *208:14 *963:A1 9.99853e-05
22 *208:14 *209:10 1.16078e-05
23 *208:14 *209:25 5.49544e-05
*RES
1 *954:Y *209:10 22.7107 
2 *209:10 *969:B 9.72857 
3 *209:10 *209:19 0.732143 
4 *209:19 *209:25 9.10714 
5 *209:25 *983:A 18.2464 
6 *209:25 *956:A 14.8357 
7 *209:19 *963:A1 11.4786 
*END

*D_NET *210 0.0032215
*CONN
*I *956:B I *D sky130_fd_sc_hd__nand2_1
*I *955:X O *D sky130_fd_sc_hd__or2_1
*CAP
1 *956:B 0.000740558
2 *955:X 0.000740558
3 *956:B *955:A 0.00014285
4 *956:B *981:A 0.00010516
5 *956:B *358:16 0
6 *956:A *956:B 7.22594e-05
7 *980:B *956:B 0.00015134
8 *983:A *956:B 1.21258e-05
9 *208:10 *956:B 5.66157e-05
10 *208:14 *956:B 2.59355e-05
11 *209:10 *956:B 0.000854071
12 *209:25 *956:B 0.000320024
*RES
1 *955:X *956:B 46.8321 
*END

*D_NET *211 0.00110173
*CONN
*I *982:C1 I *D sky130_fd_sc_hd__a211o_1
*I *971:A I *D sky130_fd_sc_hd__nand3_1
*I *962:B1 I *D sky130_fd_sc_hd__a21o_1
*I *956:Y O *D sky130_fd_sc_hd__nand2_1
*CAP
1 *982:C1 0.000135632
2 *971:A 8.67407e-05
3 *962:B1 1.89716e-05
4 *956:Y 0
5 *211:8 0.000307138
6 *211:4 0.000337057
7 *962:B1 *216:18 3.99614e-06
8 *971:A *971:B 1.04232e-05
9 *971:A *214:8 9.80173e-05
10 *971:A *216:18 4.62869e-05
11 *982:C1 *982:B1 5.49544e-05
12 *983:A *211:8 2.51343e-06
*RES
1 *956:Y *211:4 9.3 
2 *211:4 *211:8 3.01786 
3 *211:8 *962:B1 9.72857 
4 *211:8 *971:A 11.4964 
5 *211:4 *982:C1 20.4786 
*END

*D_NET *212 0.00077133
*CONN
*I *958:B I *D sky130_fd_sc_hd__or2_1
*I *961:A2 I *D sky130_fd_sc_hd__o21a_1
*I *957:X O *D sky130_fd_sc_hd__or2_1
*CAP
1 *958:B 1.71246e-05
2 *961:A2 2.75961e-05
3 *957:X 0.000158611
4 *212:12 0.000203332
5 *958:B *960:B2 9.90431e-05
6 *961:A2 *960:B2 9.71197e-05
7 *212:12 *1107:A 0
8 *212:12 *372:16 7.8327e-05
9 *961:A1 *958:B 4.72917e-05
10 *961:A1 *961:A2 2.89016e-05
11 *187:25 *961:A2 1.39841e-05
*RES
1 *957:X *212:12 20.7821 
2 *212:12 *961:A2 10.2464 
3 *212:12 *958:B 10.2464 
*END

*D_NET *213 0.00298193
*CONN
*I *959:B1 I *D sky130_fd_sc_hd__a2111o_1
*I *960:B2 I *D sky130_fd_sc_hd__o221a_1
*I *958:X O *D sky130_fd_sc_hd__or2_1
*CAP
1 *959:B1 0.000389834
2 *960:B2 0.000442541
3 *958:X 0
4 *213:4 0.000832375
5 *959:B1 *1107:A 0.000318309
6 *960:B2 *961:B1 0.000226513
7 *937:A2 *959:B1 0
8 *958:A *959:B1 5.33005e-05
9 *958:A *960:B2 9.90367e-05
10 *958:B *960:B2 9.90431e-05
11 *959:C1 *959:B1 1.39841e-05
12 *959:D1 *959:B1 9.90367e-05
13 *960:A1 *960:B2 7.96198e-05
14 *961:A1 *959:B1 2.28598e-05
15 *961:A1 *960:B2 8.98941e-05
16 *961:A2 *960:B2 9.71197e-05
17 *187:25 *960:B2 2.07382e-05
18 *195:10 *959:B1 9.77274e-05
*RES
1 *958:X *213:4 9.3 
2 *213:4 *960:B2 18.7464 
3 *213:4 *959:B1 25.9071 
*END

*D_NET *214 0.00431107
*CONN
*I *971:B I *D sky130_fd_sc_hd__nand3_1
*I *962:A1 I *D sky130_fd_sc_hd__a21o_1
*I *982:A1 I *D sky130_fd_sc_hd__a211o_1
*I *959:X O *D sky130_fd_sc_hd__a2111o_1
*CAP
1 *971:B 1.99857e-05
2 *962:A1 0
3 *982:A1 0.000158049
4 *959:X 0.0011204
5 *214:8 0.000256582
6 *214:6 0.00123892
7 *982:A1 *982:A2 0.000241177
8 *982:A1 *982:B1 1.8461e-05
9 *982:A1 *358:16 5.33882e-05
10 *214:6 *216:12 0.00054197
11 *214:6 *216:18 2.95641e-05
12 *214:8 *216:18 1.74352e-05
13 *945:B *214:6 0.000274294
14 *971:A *971:B 1.04232e-05
15 *971:A *214:8 9.80173e-05
16 *194:12 *214:6 0.000232399
*RES
1 *959:X *214:6 25.4429 
2 *214:6 *214:8 1.35714 
3 *214:8 *982:A1 21.8357 
4 *214:8 *962:A1 9.3 
5 *214:6 *971:B 9.72857 
*END

*D_NET *215 0.00040801
*CONN
*I *961:B1 I *D sky130_fd_sc_hd__o21a_1
*I *960:X O *D sky130_fd_sc_hd__o221a_1
*CAP
1 *961:B1 8.11031e-05
2 *960:X 8.11031e-05
3 *960:B2 *961:B1 0.000226513
4 *187:25 *961:B1 1.92905e-05
*RES
1 *960:X *961:B1 20.7786 
*END

*D_NET *216 0.00280554
*CONN
*I *971:C I *D sky130_fd_sc_hd__nand3_1
*I *962:A2 I *D sky130_fd_sc_hd__a21o_1
*I *982:A2 I *D sky130_fd_sc_hd__a211o_1
*I *961:X O *D sky130_fd_sc_hd__o21a_1
*CAP
1 *971:C 0
2 *962:A2 0
3 *982:A2 0.00020073
4 *961:X 0.000559672
5 *216:18 0.000295358
6 *216:12 0.0006543
7 *982:A2 *233:10 3.39053e-05
8 *982:A2 *358:16 2.37761e-05
9 *216:12 *311:12 5.01117e-05
10 *216:12 *372:16 0
11 *216:18 *972:B 2.89016e-05
12 *962:B1 *216:18 3.99614e-06
13 *971:A *216:18 4.62869e-05
14 *982:A1 *982:A2 0.000241177
15 *187:25 *216:12 7.83587e-05
16 *214:6 *216:12 0.00054197
17 *214:6 *216:18 2.95641e-05
18 *214:8 *216:18 1.74352e-05
*RES
1 *961:X *216:12 31.8357 
2 *216:12 *216:18 2.625 
3 *216:18 *982:A2 22.3179 
4 *216:18 *962:A2 9.3 
5 *216:12 *971:C 9.3 
*END

*D_NET *217 0.00165384
*CONN
*I *972:A I *D sky130_fd_sc_hd__and2_1
*I *969:C I *D sky130_fd_sc_hd__and3_1
*I *963:A2 I *D sky130_fd_sc_hd__a21oi_1
*I *962:X O *D sky130_fd_sc_hd__a21o_1
*CAP
1 *972:A 0.000105746
2 *969:C 0.0001984
3 *963:A2 2.88964e-05
4 *962:X 0.000180121
5 *217:16 0.000306014
6 *217:12 0.000364585
7 *963:A2 *358:16 5.66157e-05
8 *217:12 *358:16 6.23879e-05
9 *217:16 *972:B 0
10 *217:16 *358:16 0.000142082
11 *963:A1 *969:C 4.48647e-05
12 *963:B1 *969:C 5.65955e-05
13 *208:14 *969:C 0.000107531
*RES
1 *962:X *217:12 21.3 
2 *217:12 *217:16 6.44643 
3 *217:16 *963:A2 14.5321 
4 *217:16 *969:C 16.4607 
5 *217:12 *972:A 11.0679 
*END

*D_NET *218 0.0015452
*CONN
*I *970:A I *D sky130_fd_sc_hd__nor2_1
*I *964:B1 I *D sky130_fd_sc_hd__a21o_1
*I *963:Y O *D sky130_fd_sc_hd__a21oi_1
*CAP
1 *970:A 0
2 *964:B1 0.000443581
3 *963:Y 0.000170345
4 *218:12 0.000613925
5 *964:B1 *1113:A 5.60962e-05
6 *964:B1 *359:16 0
7 *218:12 *970:B 7.55063e-05
8 *963:A1 *218:12 3.42509e-05
9 *206:10 *964:B1 8.15939e-05
10 *208:10 *964:B1 6.99024e-05
*RES
1 *963:Y *218:12 21.1929 
2 *218:12 *964:B1 26.1393 
3 *218:12 *970:A 9.3 
*END

*D_NET *219 0.00153171
*CONN
*I *968:A I *D sky130_fd_sc_hd__xnor2_1
*I *965:A2 I *D sky130_fd_sc_hd__a21bo_1
*I *964:X O *D sky130_fd_sc_hd__a21o_1
*CAP
1 *968:A 0
2 *965:A2 0.000127845
3 *964:X 0.000209622
4 *219:8 0.000337467
5 *965:A2 *283:10 0
6 *965:A2 *316:12 0.000130025
7 *219:8 *950:A 0
8 *219:8 *968:B 2.28499e-05
9 *219:8 *1114:A 1.39726e-05
10 *219:8 *316:12 0.000224577
11 *219:8 *354:18 1.72894e-05
12 *1073:A *219:8 0.000221634
13 *1097:A *219:8 2.44318e-05
14 *205:10 *965:A2 0.000201999
*RES
1 *964:X *219:8 14.3714 
2 *219:8 *965:A2 21.9071 
3 *219:8 *968:A 9.3 
*END

*D_NET *220 0.000767149
*CONN
*I *966:B I *D sky130_fd_sc_hd__xnor2_1
*I *965:X O *D sky130_fd_sc_hd__a21bo_1
*CAP
1 *966:B 0.000212994
2 *965:X 0.000212994
3 *966:B *281:10 0
4 *966:B *316:12 0.00014576
5 *985:A_N *966:B 0.000181359
6 *1038:A *966:B 0
7 *204:14 *966:B 1.40415e-05
*RES
1 *965:X *966:B 32.5107 
*END

*D_NET *221 0.00296216
*CONN
*I *980:C I *D sky130_fd_sc_hd__nor3_1
*I *984:C I *D sky130_fd_sc_hd__or3_1
*I *968:B I *D sky130_fd_sc_hd__xnor2_1
*I *967:Y O *D sky130_fd_sc_hd__nand2_1
*CAP
1 *980:C 1.56456e-05
2 *984:C 0
3 *968:B 0.000133568
4 *967:Y 4.36033e-05
5 *221:27 0.000527474
6 *221:8 0.000689
7 *968:B *284:16 0.000144038
8 *221:27 *986:C 0.000141554
9 *221:27 *284:16 0.000457969
10 *967:A *221:8 5.33005e-05
11 *980:A *980:C 5.65955e-05
12 *980:A *221:27 4.45874e-05
13 *985:A_N *221:27 0
14 *1073:A *968:B 8.50152e-05
15 *203:12 *221:27 1.76135e-05
16 *203:21 *221:27 0.00052935
17 *205:10 *968:B 0
18 *205:10 *221:27 0
19 *219:8 *968:B 2.28499e-05
*RES
1 *967:Y *221:8 14.3357 
2 *221:8 *968:B 16.6929 
3 *221:8 *221:27 16.6964 
4 *221:27 *984:C 9.3 
5 *221:27 *980:C 9.83571 
*END

*D_NET *222 0.000398795
*CONN
*I *970:B I *D sky130_fd_sc_hd__nor2_1
*I *969:X O *D sky130_fd_sc_hd__and3_1
*CAP
1 *970:B 0.000115548
2 *969:X 0.000115548
3 *984:B *970:B 0
4 *208:10 *970:B 3.69697e-05
5 *209:10 *970:B 5.52238e-05
6 *218:12 *970:B 7.55063e-05
*RES
1 *969:X *970:B 30.0821 
*END

*D_NET *223 0.000339444
*CONN
*I *972:B I *D sky130_fd_sc_hd__and2_1
*I *971:Y O *D sky130_fd_sc_hd__nand3_1
*CAP
1 *972:B 0.000155271
2 *971:Y 0.000155271
3 *972:B *358:16 0
4 *216:18 *972:B 2.89016e-05
5 *217:16 *972:B 0
*RES
1 *971:Y *972:B 30.0821 
*END

*D_NET *224 0.00319403
*CONN
*I *994:A I *D sky130_fd_sc_hd__xor2_1
*I *1012:A I *D sky130_fd_sc_hd__or4_1
*I *1015:C1 I *D sky130_fd_sc_hd__a211o_1
*I *973:Y O *D sky130_fd_sc_hd__xnor2_1
*CAP
1 *994:A 0
2 *1012:A 0.000240092
3 *1015:C1 0.000117592
4 *973:Y 0.000362526
5 *224:16 0.000608844
6 *224:10 0.000613686
7 *1012:A *239:33 5.52302e-05
8 *1012:A *241:12 0.000125908
9 *1012:A *260:10 0
10 *1012:A *262:10 5.52238e-05
11 *1012:A *300:20 3.18676e-05
12 *1012:A *335:18 3.50312e-05
13 *1015:C1 *1015:A1 7.95209e-05
14 *1015:C1 *1015:B1 1.86552e-05
15 *1015:C1 *335:18 9.99644e-06
16 *224:10 *973:A 0
17 *224:10 *994:B 2.48938e-05
18 *224:10 *1018:A3 0
19 *224:10 *1118:A 0.000236235
20 *224:10 *262:10 0
21 *224:10 *264:23 0
22 *224:16 *994:B 0.000195547
23 *224:16 *241:12 0.000272658
24 *224:16 *243:12 0.000110526
25 *224:16 *262:10 0
*RES
1 *973:Y *224:10 21.5679 
2 *224:10 *224:16 11.4286 
3 *224:16 *1015:C1 11.4964 
4 *224:16 *1012:A 23.3536 
5 *224:10 *994:A 13.8 
*END

*D_NET *225 0.00112219
*CONN
*I *992:A_N I *D sky130_fd_sc_hd__nand2b_1
*I *993:B1 I *D sky130_fd_sc_hd__a31o_1
*I *974:Y O *D sky130_fd_sc_hd__nor2_1
*CAP
1 *992:A_N 4.3729e-05
2 *993:B1 0
3 *974:Y 0.000190061
4 *225:10 0.00023379
5 *992:A_N *992:B 0.000274294
6 *992:A_N *993:A1 5.71472e-05
7 *992:A_N *994:B 5.71472e-05
8 *992:A_N *227:12 2.44318e-05
9 *992:A_N *227:21 6.87574e-05
10 *225:10 *1118:A 0
11 *225:10 *226:12 0.000172829
*RES
1 *974:Y *225:10 22.3714 
2 *225:10 *993:B1 9.3 
3 *225:10 *992:A_N 11.8893 
*END

*D_NET *226 0.00160765
*CONN
*I *993:A1 I *D sky130_fd_sc_hd__a31o_1
*I *992:B I *D sky130_fd_sc_hd__nand2b_1
*I *975:Y O *D sky130_fd_sc_hd__nand2_1
*CAP
1 *993:A1 1.14416e-05
2 *992:B 0.000208089
3 *975:Y 0.0001742
4 *226:12 0.000393731
5 *992:B *993:A2 3.99614e-06
6 *992:B *994:B 3.08066e-05
7 *992:B *1118:A 5.7661e-06
8 *992:B *243:12 9.7049e-06
9 *993:A1 *227:12 8.76257e-05
10 *226:12 *1119:A 3.92854e-05
11 *226:12 *227:12 5.71472e-05
12 *226:12 *243:12 0
13 *226:12 *286:10 8.15843e-05
14 *992:A_N *992:B 0.000274294
15 *992:A_N *993:A1 5.71472e-05
16 *1043:A *226:12 0
17 *225:10 *226:12 0.000172829
*RES
1 *975:Y *226:12 23.2107 
2 *226:12 *992:B 14.0009 
3 *226:12 *993:A1 10.2464 
*END

*D_NET *227 0.00317789
*CONN
*I *991:A I *D sky130_fd_sc_hd__nand2_1
*I *978:A I *D sky130_fd_sc_hd__nand2_1
*I *1015:A1 I *D sky130_fd_sc_hd__a211o_1
*I *993:A2 I *D sky130_fd_sc_hd__a31o_1
*I *976:Y O *D sky130_fd_sc_hd__nand2_1
*CAP
1 *991:A 0.000120217
2 *978:A 0
3 *1015:A1 7.61222e-05
4 *993:A2 2.06112e-05
5 *976:Y 0.000155879
6 *227:29 0.000307565
7 *227:21 0.000405425
8 *227:12 0.000230254
9 *991:A *991:B 0.000335345
10 *991:A *993:A3 0.000211249
11 *991:A *994:B 0.00014183
12 *991:A *995:A 6.16082e-05
13 *991:A *995:B 6.4443e-05
14 *1015:A1 *978:B 1.97695e-05
15 *1015:A1 *1015:B1 2.00015e-05
16 *1015:A1 *335:18 0.000100625
17 *227:12 *993:A3 0
18 *227:12 *286:10 0.000104974
19 *227:21 *993:A3 0.000183726
20 *227:21 *994:B 9.80173e-05
21 *227:29 *977:A 0
22 *227:29 *977:B 0
23 *227:29 *993:A3 9.69119e-06
24 *227:29 *1012:D 1.02504e-05
25 *227:29 *243:12 0.000178809
26 *227:29 *286:10 0
27 *992:A_N *227:12 2.44318e-05
28 *992:A_N *227:21 6.87574e-05
29 *992:B *993:A2 3.99614e-06
30 *993:A1 *227:12 8.76257e-05
31 *1015:C1 *1015:A1 7.95209e-05
32 *1092:A *227:29 0
33 *226:12 *227:12 5.71472e-05
*RES
1 *976:Y *227:12 21.8179 
2 *227:12 *993:A2 9.72857 
3 *227:12 *227:21 2.17857 
4 *227:21 *227:29 13.9107 
5 *227:29 *1015:A1 11.925 
6 *227:29 *978:A 9.3 
7 *227:21 *991:A 14.675 
*END

*D_NET *228 0.000834613
*CONN
*I *978:B I *D sky130_fd_sc_hd__nand2_1
*I *1014:B I *D sky130_fd_sc_hd__nand2b_1
*I *977:X O *D sky130_fd_sc_hd__or2_1
*CAP
1 *978:B 5.09878e-05
2 *1014:B 0.000118581
3 *977:X 0.000101422
4 *228:6 0.000270991
5 *978:B *335:18 8.66063e-05
6 *1014:B *1014:A_N 1.02504e-05
7 *1014:B *229:8 3.84385e-05
8 *1014:B *229:10 3.20153e-05
9 *1014:B *300:20 2.76211e-05
10 *228:6 *335:18 5.52238e-05
11 *1015:A1 *978:B 1.97695e-05
12 *1092:A *1014:B 2.27062e-05
*RES
1 *977:X *228:6 11.0679 
2 *228:6 *1014:B 21.1125 
3 *228:6 *978:B 10.675 
*END

*D_NET *229 0.00210408
*CONN
*I *1012:B I *D sky130_fd_sc_hd__or4_1
*I *990:B1 I *D sky130_fd_sc_hd__a21o_1
*I *996:A I *D sky130_fd_sc_hd__nand3_1
*I *978:Y O *D sky130_fd_sc_hd__nand2_1
*CAP
1 *1012:B 0.000218053
2 *990:B1 0.00015282
3 *996:A 0
4 *978:Y 8.72365e-05
5 *229:10 0.000418792
6 *229:8 0.000571262
7 *990:B1 *239:18 1.78896e-05
8 *990:B1 *240:8 5.71472e-05
9 *1012:B *1015:A2 0.000269428
10 *1012:B *239:18 2.14658e-05
11 *229:8 *1012:D 6.09572e-05
12 *229:10 *997:B 0
13 *229:10 *1012:D 4.25427e-05
14 *229:10 *1014:A_N 0
15 *229:10 *230:10 0
16 *229:10 *239:18 0.000116032
17 *229:10 *359:16 0
18 *1014:B *229:8 3.84385e-05
19 *1014:B *229:10 3.20153e-05
*RES
1 *978:Y *229:8 15.4429 
2 *229:8 *229:10 5.89286 
3 *229:10 *996:A 13.8 
4 *229:10 *990:B1 15.6929 
5 *229:8 *1012:B 16.8 
*END

*D_NET *230 0.00197677
*CONN
*I *1014:A_N I *D sky130_fd_sc_hd__nand2b_1
*I *988:A I *D sky130_fd_sc_hd__nand2_1
*I *990:A1 I *D sky130_fd_sc_hd__a21o_1
*I *996:B I *D sky130_fd_sc_hd__nand3_1
*I *979:Y O *D sky130_fd_sc_hd__nand2_1
*CAP
1 *1014:A_N 0.000310831
2 *988:A 0
3 *990:A1 5.71701e-05
4 *996:B 0
5 *979:Y 0.000338511
6 *230:16 0.00014857
7 *230:12 9.13994e-05
8 *230:10 0.000649342
9 *990:A1 *990:A2 5.57185e-05
10 *990:A1 *996:C 4.96604e-05
11 *1014:A_N *320:8 0
12 *230:10 *979:A 0
13 *230:10 *359:16 0
14 *230:16 *996:C 6.67226e-05
15 *230:16 *239:18 1.00073e-05
16 *1014:B *1014:A_N 1.02504e-05
17 *1042:A *230:10 0.000188586
18 *1057:A *1014:A_N 0
19 *1077:A *1014:A_N 0
20 *229:10 *1014:A_N 0
21 *229:10 *230:10 0
*RES
1 *979:Y *230:10 19.2464 
2 *230:10 *230:12 4.5 
3 *230:12 *230:16 1.78571 
4 *230:16 *996:B 9.3 
5 *230:16 *990:A1 10.6571 
6 *230:12 *988:A 9.3 
7 *230:10 *1014:A_N 19.3179 
*END

*D_NET *231 0.000740079
*CONN
*I *981:A I *D sky130_fd_sc_hd__inv_2
*I *980:Y O *D sky130_fd_sc_hd__nor3_1
*CAP
1 *981:A 0.000212468
2 *980:Y 0.000212468
3 *981:A *983:B 1.48543e-05
4 *956:B *981:A 0.00010516
5 *980:B *981:A 3.42426e-05
6 *983:A *981:A 0.000160885
*RES
1 *980:Y *981:A 31.975 
*END

*D_NET *232 0.000850468
*CONN
*I *982:B1 I *D sky130_fd_sc_hd__a211o_1
*I *983:B I *D sky130_fd_sc_hd__or2_1
*I *981:Y O *D sky130_fd_sc_hd__inv_2
*CAP
1 *982:B1 0.000257132
2 *983:B 9.76027e-05
3 *981:Y 0
4 *232:4 0.000354734
5 *982:B1 *986:D 2.34969e-05
6 *982:B1 *237:10 2.54339e-05
7 *981:A *983:B 1.48543e-05
8 *982:A1 *982:B1 1.8461e-05
9 *982:C1 *982:B1 5.49544e-05
10 *983:A *983:B 3.79877e-06
*RES
1 *981:Y *232:4 9.3 
2 *232:4 *983:B 10.675 
3 *232:4 *982:B1 22.6571 
*END

*D_NET *233 0.00259256
*CONN
*I *1013:A1 I *D sky130_fd_sc_hd__a21o_1
*I *998:A I *D sky130_fd_sc_hd__nand3_1
*I *989:A1 I *D sky130_fd_sc_hd__a21o_1
*I *982:X O *D sky130_fd_sc_hd__a211o_1
*CAP
1 *1013:A1 0.000429144
2 *998:A 0
3 *989:A1 0.000433885
4 *982:X 0.000213144
5 *233:27 0.000532182
6 *233:10 0.000750067
7 *989:A1 *358:16 6.97959e-05
8 *1013:A1 *1013:A2 5.49489e-05
9 *233:10 *237:10 0
10 *233:10 *358:16 7.54868e-05
11 *233:27 *237:10 0
12 *982:A2 *233:10 3.39053e-05
*RES
1 *982:X *233:10 17.3 
2 *233:10 *989:A1 28.0679 
3 *233:10 *233:27 1.64286 
4 *233:27 *998:A 13.8 
5 *233:27 *1013:A1 20.7821 
*END

*D_NET *234 0.000301193
*CONN
*I *986:B I *D sky130_fd_sc_hd__and4_1
*I *983:X O *D sky130_fd_sc_hd__or2_1
*CAP
1 *986:B 8.28398e-05
2 *983:X 8.28398e-05
3 *986:B *986:C 7.83659e-05
4 *986:B *986:D 5.71472e-05
5 *986:B *359:16 0
*RES
1 *983:X *986:B 29.1714 
*END

*D_NET *235 0.000959853
*CONN
*I *986:C I *D sky130_fd_sc_hd__and4_1
*I *984:X O *D sky130_fd_sc_hd__or3_1
*CAP
1 *986:C 0.000302632
2 *984:X 0.000302632
3 *986:C *986:D 0.000101233
4 *984:B *986:C 3.34366e-05
5 *986:B *986:C 7.83659e-05
6 *221:27 *986:C 0.000141554
*RES
1 *984:X *986:C 32.725 
*END

*D_NET *236 0.0012482
*CONN
*I *986:D I *D sky130_fd_sc_hd__and4_1
*I *985:Y O *D sky130_fd_sc_hd__nand2b_1
*CAP
1 *986:D 0.000473741
2 *985:Y 0.000473741
3 *948:A *986:D 5.71472e-05
4 *982:B1 *986:D 2.34969e-05
5 *983:A *986:D 1.2828e-05
6 *986:B *986:D 5.71472e-05
7 *986:C *986:D 0.000101233
8 *202:8 *986:D 4.88637e-05
*RES
1 *985:Y *986:D 35.6357 
*END

*D_NET *237 0.00202599
*CONN
*I *998:B I *D sky130_fd_sc_hd__nand3_1
*I *1013:A2 I *D sky130_fd_sc_hd__a21o_1
*I *989:A2 I *D sky130_fd_sc_hd__a21o_1
*I *986:X O *D sky130_fd_sc_hd__and4_1
*CAP
1 *998:B 0.000205709
2 *1013:A2 0.000190186
3 *989:A2 4.51929e-05
4 *986:X 0.000306419
5 *237:12 0.000253765
6 *237:10 0.000530515
7 *989:A2 *999:A 9.83388e-05
8 *998:B *998:C 1.46231e-05
9 *998:B *999:A 6.05161e-06
10 *998:B *999:B 9.91033e-05
11 *237:10 *358:16 0.000195698
12 *982:B1 *237:10 2.54339e-05
13 *1013:A1 *1013:A2 5.49489e-05
14 *233:10 *237:10 0
15 *233:27 *237:10 0
*RES
1 *986:X *237:10 19.0768 
2 *237:10 *237:12 0.276786 
3 *237:12 *989:A2 14.7464 
4 *237:12 *1013:A2 17.1929 
5 *237:10 *998:B 16.7911 
*END

*D_NET *238 6.37568e-05
*CONN
*I *988:B I *D sky130_fd_sc_hd__nand2_1
*I *987:X O *D sky130_fd_sc_hd__or2_1
*CAP
1 *988:B 3.18784e-05
2 *987:X 3.18784e-05
*RES
1 *987:X *988:B 19.1357 
*END

*D_NET *239 0.00402973
*CONN
*I *998:C I *D sky130_fd_sc_hd__nand3_1
*I *989:B1 I *D sky130_fd_sc_hd__a21o_1
*I *1012:C I *D sky130_fd_sc_hd__or4_1
*I *988:Y O *D sky130_fd_sc_hd__nand2_1
*CAP
1 *998:C 0.000242998
2 *989:B1 0
3 *1012:C 0
4 *988:Y 0.000525762
5 *239:33 0.000728686
6 *239:18 0.00101145
7 *998:C *999:A 0.000360942
8 *998:C *999:B 3.99614e-06
9 *998:C *240:8 1.3701e-05
10 *239:18 *996:C 7.17136e-05
11 *239:18 *997:B 9.90431e-05
12 *239:18 *1012:D 0.000218182
13 *239:18 *1015:A2 0.000142856
14 *239:18 *241:12 0
15 *239:18 *300:20 1.56e-05
16 *239:33 *997:A 0
17 *239:33 *999:A 5.65955e-05
18 *239:33 *1013:B1 5.94205e-05
19 *239:33 *241:12 0
20 *239:33 *260:10 7.2754e-05
21 *239:33 *300:20 0.00017078
22 *990:B1 *239:18 1.78896e-05
23 *998:B *998:C 1.46231e-05
24 *1012:A *239:33 5.52302e-05
25 *1012:B *239:18 2.14658e-05
26 *229:10 *239:18 0.000116032
27 *230:16 *239:18 1.00073e-05
*RES
1 *988:Y *239:18 28.5143 
2 *239:18 *1012:C 9.3 
3 *239:18 *239:33 18.6429 
4 *239:33 *989:B1 9.3 
5 *239:33 *998:C 14.7107 
*END

*D_NET *240 0.00243403
*CONN
*I *999:A I *D sky130_fd_sc_hd__and2_1
*I *990:A2 I *D sky130_fd_sc_hd__a21o_1
*I *996:C I *D sky130_fd_sc_hd__nand3_1
*I *989:X O *D sky130_fd_sc_hd__a21o_1
*CAP
1 *999:A 0.000172995
2 *990:A2 2.00768e-05
3 *996:C 5.56318e-05
4 *989:X 0
5 *240:8 0.000354275
6 *240:4 0.000451561
7 *996:C *997:B 9.90431e-05
8 *999:A *999:B 5.06452e-05
9 *240:8 *997:A 1.98839e-05
10 *240:8 *997:B 0.000318101
11 *240:8 *359:16 5.52302e-05
12 *989:A2 *999:A 9.83388e-05
13 *990:A1 *990:A2 5.57185e-05
14 *990:A1 *996:C 4.96604e-05
15 *990:B1 *240:8 5.71472e-05
16 *998:B *999:A 6.05161e-06
17 *998:C *999:A 0.000360942
18 *998:C *240:8 1.3701e-05
19 *230:16 *996:C 6.67226e-05
20 *239:18 *996:C 7.17136e-05
21 *239:33 *999:A 5.65955e-05
*RES
1 *989:X *240:4 9.3 
2 *240:4 *240:8 6.60714 
3 *240:8 *996:C 11.9071 
4 *240:8 *990:A2 10.2509 
5 *240:4 *999:A 14.3893 
*END

*D_NET *241 0.00412127
*CONN
*I *997:A I *D sky130_fd_sc_hd__and2_1
*I *991:B I *D sky130_fd_sc_hd__nand2_1
*I *993:A3 I *D sky130_fd_sc_hd__a31o_1
*I *990:X O *D sky130_fd_sc_hd__a21o_1
*CAP
1 *997:A 0.000148677
2 *991:B 0.000274533
3 *993:A3 0.000329199
4 *990:X 3.65713e-05
5 *241:12 0.00110028
6 *241:6 0.0006818
7 *991:B *995:A 1.99198e-05
8 *993:A3 *243:12 0
9 *993:A3 *286:10 0
10 *997:A *997:B 0.000141596
11 *241:6 *997:B 5.71472e-05
12 *241:12 *1012:D 0
13 *241:12 *1015:A2 0.000173083
14 *241:12 *243:12 0
15 *241:12 *260:10 0
16 *241:12 *262:10 0
17 *991:A *991:B 0.000335345
18 *991:A *993:A3 0.000211249
19 *1012:A *241:12 0.000125908
20 *224:16 *241:12 0.000272658
21 *227:12 *993:A3 0
22 *227:21 *993:A3 0.000183726
23 *227:29 *993:A3 9.69119e-06
24 *239:18 *241:12 0
25 *239:33 *997:A 0
26 *239:33 *241:12 0
27 *240:8 *997:A 1.98839e-05
*RES
1 *990:X *241:6 9.83571 
2 *241:6 *241:12 19.75 
3 *241:12 *993:A3 22.8536 
4 *241:12 *991:B 13.8714 
5 *241:6 *997:A 20.6929 
*END

*D_NET *242 0.000325007
*CONN
*I *995:A I *D sky130_fd_sc_hd__xnor2_1
*I *991:Y O *D sky130_fd_sc_hd__nand2_1
*CAP
1 *995:A 0.000103871
2 *991:Y 0.000103871
3 *995:A *995:B 3.57366e-05
4 *991:A *995:A 6.16082e-05
5 *991:B *995:A 1.99198e-05
*RES
1 *991:Y *995:A 20.7964 
*END

*D_NET *243 0.00227407
*CONN
*I *995:B I *D sky130_fd_sc_hd__xnor2_1
*I *1015:B1 I *D sky130_fd_sc_hd__a211o_1
*I *1012:D I *D sky130_fd_sc_hd__or4_1
*I *992:Y O *D sky130_fd_sc_hd__nand2b_1
*CAP
1 *995:B 9.99487e-05
2 *1015:B1 4.06839e-06
3 *1012:D 0.000235818
4 *992:Y 0
5 *243:12 0.000472371
6 *243:4 0.000332433
7 *995:B *1118:A 5.33005e-05
8 *1012:D *1015:A2 1.98839e-05
9 *1012:D *300:20 0.000137923
10 *243:12 *994:B 0.000112418
11 *243:12 *1015:A2 2.8266e-06
12 *243:12 *1118:A 3.32731e-05
13 *991:A *995:B 6.4443e-05
14 *992:B *243:12 9.7049e-06
15 *993:A3 *243:12 0
16 *995:A *995:B 3.57366e-05
17 *1015:A1 *1015:B1 2.00015e-05
18 *1015:C1 *1015:B1 1.86552e-05
19 *1092:A *1012:D 0
20 *224:16 *243:12 0.000110526
21 *226:12 *243:12 0
22 *227:29 *1012:D 1.02504e-05
23 *227:29 *243:12 0.000178809
24 *229:8 *1012:D 6.09572e-05
25 *229:10 *1012:D 4.25427e-05
26 *239:18 *1012:D 0.000218182
27 *241:12 *1012:D 0
28 *241:12 *243:12 0
*RES
1 *992:Y *243:4 9.3 
2 *243:4 *243:12 10.8571 
3 *243:12 *1012:D 19.3714 
4 *243:12 *1015:B1 13.9875 
5 *243:4 *995:B 11.8 
*END

*D_NET *244 0.00109873
*CONN
*I *994:B I *D sky130_fd_sc_hd__xor2_1
*I *993:X O *D sky130_fd_sc_hd__a31o_1
*CAP
1 *994:B 0.000130421
2 *993:X 0.000130421
3 *994:B *1118:A 0.000177227
4 *991:A *994:B 0.00014183
5 *992:A_N *994:B 5.71472e-05
6 *992:B *994:B 3.08066e-05
7 *224:10 *994:B 2.48938e-05
8 *224:16 *994:B 0.000195547
9 *227:21 *994:B 9.80173e-05
10 *243:12 *994:B 0.000112418
*RES
1 *993:X *994:B 32.6357 
*END

*D_NET *245 0.000994516
*CONN
*I *997:B I *D sky130_fd_sc_hd__and2_1
*I *996:Y O *D sky130_fd_sc_hd__nand3_1
*CAP
1 *997:B 0.000138379
2 *996:Y 0.000138379
3 *997:B *359:16 2.8266e-06
4 *996:C *997:B 9.90431e-05
5 *997:A *997:B 0.000141596
6 *229:10 *997:B 0
7 *239:18 *997:B 9.90431e-05
8 *240:8 *997:B 0.000318101
9 *241:6 *997:B 5.71472e-05
*RES
1 *996:Y *997:B 32.1536 
*END

*D_NET *246 0.000479004
*CONN
*I *999:B I *D sky130_fd_sc_hd__and2_1
*I *998:Y O *D sky130_fd_sc_hd__nand3_1
*CAP
1 *999:B 0.00016263
2 *998:Y 0.00016263
3 *998:B *999:B 9.91033e-05
4 *998:C *999:B 3.99614e-06
5 *999:A *999:B 5.06452e-05
*RES
1 *998:Y *999:B 21.35 
*END

*D_NET *247 0.00123756
*CONN
*I *1022:A I *D sky130_fd_sc_hd__xor2_1
*I *1032:A I *D sky130_fd_sc_hd__nand2_1
*I *1000:X O *D sky130_fd_sc_hd__xor2_1
*CAP
1 *1022:A 5.53377e-05
2 *1032:A 0.000205682
3 *1000:X 0.000128238
4 *247:8 0.000389258
5 *1032:A *1000:A 5.33978e-05
6 *1032:A *1032:B 5.80706e-06
7 *1032:A *1124:A 0
8 *1032:A *323:16 0.000113381
9 *1032:A *329:25 0.000144633
10 *247:8 *1000:A 0.00014183
*RES
1 *1000:X *247:8 11.9071 
2 *247:8 *1032:A 23.2821 
3 *247:8 *1022:A 10.2464 
*END

*D_NET *248 0.00153975
*CONN
*I *1005:A_N I *D sky130_fd_sc_hd__and2b_1
*I *1004:B1 I *D sky130_fd_sc_hd__a21oi_1
*I *1001:Y O *D sky130_fd_sc_hd__nor2_1
*CAP
1 *1005:A_N 0
2 *1004:B1 0.000121296
3 *1001:Y 0.000278969
4 *248:10 0.000400265
5 *1004:B1 *1004:A1 9.78018e-05
6 *1004:B1 *1020:B1 4.0342e-06
7 *1004:B1 *1120:A 0
8 *1004:B1 *1124:A 0
9 *248:10 *1001:B 1.33343e-05
10 *248:10 *1004:A1 1.46624e-05
11 *248:10 *1120:A 0
12 *248:10 *1124:A 0
13 *248:10 *291:20 9.22103e-06
14 *248:10 *326:16 0.000230475
15 *248:10 *328:10 0.000354098
16 *1083:A *248:10 1.55885e-05
*RES
1 *1001:Y *248:10 20.2821 
2 *248:10 *1004:B1 16.2821 
3 *248:10 *1005:A_N 13.8 
*END

*D_NET *249 0.00125103
*CONN
*I *1005:B I *D sky130_fd_sc_hd__and2b_1
*I *1004:A1 I *D sky130_fd_sc_hd__a21oi_1
*I *1002:Y O *D sky130_fd_sc_hd__nand2_1
*CAP
1 *1005:B 0
2 *1004:A1 0.000302199
3 *1002:Y 0.000120817
4 *249:6 0.000423017
5 *1004:A1 *1020:B1 1.03968e-05
6 *1004:A1 *1124:A 5.94737e-05
7 *249:6 *1033:A1 0.00022266
8 *1004:B1 *1004:A1 9.78018e-05
9 *248:10 *1004:A1 1.46624e-05
*RES
1 *1002:Y *249:6 11.4786 
2 *249:6 *1004:A1 23.1393 
3 *249:6 *1005:B 9.3 
*END

*D_NET *250 0.00480628
*CONN
*I *1025:A I *D sky130_fd_sc_hd__nand4_1
*I *1023:A1 I *D sky130_fd_sc_hd__a31o_1
*I *1026:A1 I *D sky130_fd_sc_hd__a22o_1
*I *1004:A2 I *D sky130_fd_sc_hd__a21oi_1
*I *1008:A I *D sky130_fd_sc_hd__and3_1
*I *1003:Y O *D sky130_fd_sc_hd__nand2_1
*CAP
1 *1025:A 0.000327328
2 *1023:A1 0
3 *1026:A1 0.000413147
4 *1004:A2 0.000262955
5 *1008:A 0.000164306
6 *1003:Y 0
7 *250:18 0.000481651
8 *250:14 0.000662235
9 *250:8 0.000642497
10 *250:4 0.000775127
11 *1004:A2 *1020:B1 3.14048e-05
12 *1008:A *1008:B 0.000151333
13 *1008:A *1008:C 0.000100685
14 *1008:A *266:10 0
15 *1008:A *298:14 3.57405e-05
16 *1025:A *1003:A 2.44318e-05
17 *1025:A *1121:A 0.0001098
18 *1025:A *1128:A 0
19 *1025:A *257:10 2.42082e-05
20 *1025:A *257:23 5.2568e-05
21 *1025:A *290:10 0
22 *1026:A1 *1025:D 2.35489e-05
23 *1026:A1 *1026:B1 5.52302e-05
24 *1026:A1 *266:14 2.59355e-05
25 *250:8 *1003:A 9.60771e-05
26 *250:8 *1023:A2 7.92229e-06
27 *250:8 *1023:B1 4.38267e-05
28 *250:8 *326:16 9.71197e-05
29 *250:8 *326:23 6.25993e-05
30 *250:14 *1008:B 6.1684e-05
31 *250:14 *1023:A2 3.08664e-05
32 *250:14 *1023:A3 1.47972e-05
33 *250:18 *1008:B 2.72545e-05
*RES
1 *1003:Y *250:4 9.3 
2 *250:4 *250:8 6.19643 
3 *250:8 *250:14 7.80357 
4 *250:14 *250:18 1.26786 
5 *250:18 *1008:A 17.9071 
6 *250:18 *1004:A2 17.6214 
7 *250:14 *1026:A1 18.8714 
8 *250:8 *1023:A1 9.3 
9 *250:4 *1025:A 23.9429 
*END

*D_NET *251 0.0010995
*CONN
*I *1020:B1 I *D sky130_fd_sc_hd__a21o_1
*I *1004:Y O *D sky130_fd_sc_hd__a21oi_1
*CAP
1 *1020:B1 0.000329534
2 *1004:Y 0.000329534
3 *1020:B1 *1120:A 0.000317594
4 *1020:B1 *255:10 7.70035e-05
5 *1004:A1 *1020:B1 1.03968e-05
6 *1004:A2 *1020:B1 3.14048e-05
7 *1004:B1 *1020:B1 4.0342e-06
*RES
1 *1004:Y *1020:B1 33.85 
*END

*D_NET *252 0.00301299
*CONN
*I *1008:B I *D sky130_fd_sc_hd__and3_1
*I *1024:A I *D sky130_fd_sc_hd__xnor2_1
*I *1032:B I *D sky130_fd_sc_hd__nand2_1
*I *1005:X O *D sky130_fd_sc_hd__and2b_1
*CAP
1 *1008:B 0.000390907
2 *1024:A 0
3 *1032:B 0.000237931
4 *1005:X 0
5 *252:21 0.000738225
6 *252:4 0.000585249
7 *1008:B *1120:A 0
8 *1008:B *269:6 0.000313647
9 *1008:B *298:14 0.000143652
10 *1032:B *1002:A 2.89016e-05
11 *1032:B *1002:B 5.52302e-05
12 *1032:B *1033:A1 3.98547e-05
13 *1032:B *1033:A2 2.56694e-05
14 *1032:B *329:25 0
15 *252:21 *1033:A1 0.000151628
16 *252:21 *269:6 1.02821e-05
17 *1008:A *1008:B 0.000151333
18 *1032:A *1032:B 5.80706e-06
19 *1080:A *1032:B 4.57352e-05
20 *250:14 *1008:B 6.1684e-05
21 *250:18 *1008:B 2.72545e-05
*RES
1 *1005:X *252:4 9.3 
2 *252:4 *1032:B 22.1214 
3 *252:4 *252:21 4.96429 
4 *252:21 *1024:A 9.3 
5 *252:21 *1008:B 26.7286 
*END

*D_NET *253 0.00026335
*CONN
*I *1023:B1 I *D sky130_fd_sc_hd__a31o_1
*I *1006:Y O *D sky130_fd_sc_hd__nor2_1
*CAP
1 *1023:B1 2.9525e-05
2 *1006:Y 2.9525e-05
3 *1023:B1 *1006:B 5.52302e-05
4 *1023:B1 *1023:A2 4.80961e-05
5 *1023:B1 *326:16 5.71472e-05
6 *250:8 *1023:B1 4.38267e-05
*RES
1 *1006:Y *1023:B1 19.9571 
*END

*D_NET *254 0.0028972
*CONN
*I *1025:B I *D sky130_fd_sc_hd__nand4_1
*I *1026:A2 I *D sky130_fd_sc_hd__a22o_1
*I *1008:C I *D sky130_fd_sc_hd__and3_1
*I *1007:X O *D sky130_fd_sc_hd__or2_1
*CAP
1 *1025:B 0.0002424
2 *1026:A2 0
3 *1008:C 0.000707133
4 *1007:X 0.000107606
5 *254:12 0.000747042
6 *254:10 0.000389915
7 *1008:C *290:10 0.000148861
8 *1008:C *298:14 0.00016839
9 *1008:C *325:12 0
10 *1025:B *1025:D 7.66547e-05
11 *1025:B *1027:B 8.27184e-06
12 *254:10 *1026:B1 2.28428e-05
13 *254:10 *257:23 9.90367e-05
14 *254:10 *290:10 3.69697e-05
15 *254:12 *1026:B1 9.69119e-06
16 *254:12 *290:10 3.17067e-05
17 *254:12 *325:12 0
18 *1008:A *1008:C 0.000100685
*RES
1 *1007:X *254:10 15.7821 
2 *254:10 *254:12 0.732143 
3 *254:12 *1008:C 24.4429 
4 *254:12 *1026:A2 13.8 
5 *254:10 *1025:B 16.8 
*END

*D_NET *255 0.000696481
*CONN
*I *1020:A1 I *D sky130_fd_sc_hd__a21o_1
*I *1021:A1 I *D sky130_fd_sc_hd__a21o_1
*I *1008:X O *D sky130_fd_sc_hd__and3_1
*CAP
1 *1020:A1 4.91639e-05
2 *1021:A1 0.000192359
3 *1008:X 5.07765e-05
4 *255:10 0.000292299
5 *1021:A1 *1021:B1 3.4879e-05
6 *1020:B1 *255:10 7.70035e-05
*RES
1 *1008:X *255:10 19.3357 
2 *255:10 *1021:A1 11.4786 
3 *255:10 *1020:A1 9.83571 
*END

*D_NET *256 0.00280842
*CONN
*I *1019:C1 I *D sky130_fd_sc_hd__a311o_1
*I *1028:A1 I *D sky130_fd_sc_hd__o2111a_1
*I *1018:C1 I *D sky130_fd_sc_hd__a311oi_1
*I *1020:A2 I *D sky130_fd_sc_hd__a21o_1
*I *1009:X O *D sky130_fd_sc_hd__and2_1
*CAP
1 *1019:C1 0.000113132
2 *1028:A1 7.00465e-05
3 *1018:C1 0.000204262
4 *1020:A2 9.8029e-05
5 *1009:X 0.000154917
6 *256:19 0.000432181
7 *256:17 0.000486119
8 *256:6 0.000468061
9 *1018:C1 *1018:B1 0.000282192
10 *1018:C1 *260:10 0
11 *1018:C1 *265:14 7.20217e-06
12 *1019:C1 *1019:A1 7.91464e-05
13 *256:17 *1019:B1 4.09836e-05
14 *256:17 *1021:A2 0
15 *256:17 *1120:A 0
16 *256:17 *258:29 0.000100823
17 *256:17 *266:10 0
18 *256:19 *1018:B1 5.83304e-05
19 *256:19 *1019:B1 2.84019e-05
20 *256:19 *258:29 0.00018459
21 *256:19 *265:14 0
*RES
1 *1009:X *256:6 11.8893 
2 *256:6 *1020:A2 10.6571 
3 *256:6 *256:17 8.875 
4 *256:17 *256:19 3.16071 
5 *256:19 *1018:C1 18.5321 
6 *256:19 *1028:A1 14.7464 
7 *256:17 *1019:C1 16.0143 
*END

*D_NET *257 0.00299595
*CONN
*I *1026:B1 I *D sky130_fd_sc_hd__a22o_1
*I *1023:A2 I *D sky130_fd_sc_hd__a31o_1
*I *1025:C I *D sky130_fd_sc_hd__nand4_1
*I *1010:Y O *D sky130_fd_sc_hd__nand2_1
*CAP
1 *1026:B1 7.18737e-05
2 *1023:A2 0.000104924
3 *1025:C 0
4 *1010:Y 0.000455702
5 *257:23 0.000419019
6 *257:10 0.000697924
7 *1023:A2 *1006:B 5.68722e-05
8 *1023:A2 *1023:A3 0.000263034
9 *1023:A2 *326:16 1.02821e-05
10 *1023:A2 *326:23 5.33005e-05
11 *1026:B1 *1025:D 2.4871e-05
12 *1026:B1 *290:10 0
13 *1026:B1 *325:12 0.000125724
14 *257:10 *290:10 0
15 *257:10 *290:19 5.52238e-05
16 *257:23 *1003:A 6.58597e-05
17 *257:23 *1003:B 4.27935e-05
18 *257:23 *290:10 0
19 *257:23 *291:43 5.52238e-05
20 *257:23 *326:23 0.000142856
21 *864:A_N *257:10 0
22 *1023:B1 *1023:A2 4.80961e-05
23 *1025:A *257:10 2.42082e-05
24 *1025:A *257:23 5.2568e-05
25 *1026:A1 *1026:B1 5.52302e-05
26 *250:8 *1023:A2 7.92229e-06
27 *250:14 *1023:A2 3.08664e-05
28 *254:10 *1026:B1 2.28428e-05
29 *254:10 *257:23 9.90367e-05
30 *254:12 *1026:B1 9.69119e-06
*RES
1 *1010:Y *257:10 20.6571 
2 *257:10 *1025:C 13.8 
3 *257:10 *257:23 9.96429 
4 *257:23 *1023:A2 12.7286 
5 *257:23 *1026:B1 20.4786 
*END

*D_NET *258 0.00356647
*CONN
*I *1028:A2 I *D sky130_fd_sc_hd__o2111a_1
*I *1018:B1 I *D sky130_fd_sc_hd__a311oi_1
*I *1019:B1 I *D sky130_fd_sc_hd__a311o_1
*I *1011:Y O *D sky130_fd_sc_hd__nor2_1
*CAP
1 *1028:A2 0
2 *1018:B1 0.00040948
3 *1019:B1 0.000170401
4 *1011:Y 0.000266297
5 *258:29 0.00060903
6 *258:12 0.000636248
7 *1018:B1 *260:10 0
8 *1018:B1 *265:14 4.23644e-06
9 *1019:B1 *334:6 0.000137561
10 *258:12 *846:B 2.59355e-05
11 *258:12 *298:14 0.000128161
12 *258:12 *298:18 5.66157e-05
13 *258:12 *334:6 0.000427185
14 *258:29 *266:10 0
15 *258:29 *298:18 0
16 *1018:C1 *1018:B1 0.000282192
17 *256:17 *1019:B1 4.09836e-05
18 *256:17 *258:29 0.000100823
19 *256:19 *1018:B1 5.83304e-05
20 *256:19 *1019:B1 2.84019e-05
21 *256:19 *258:29 0.00018459
*RES
1 *1011:Y *258:12 24.7821 
2 *258:12 *1019:B1 21.6036 
3 *258:12 *258:29 8.26786 
4 *258:29 *1018:B1 20.8714 
5 *258:29 *1028:A2 13.8 
*END

*D_NET *259 0.000963165
*CONN
*I *1013:B1 I *D sky130_fd_sc_hd__a21o_1
*I *1012:X O *D sky130_fd_sc_hd__or4_1
*CAP
1 *1013:B1 0.000295976
2 *1012:X 0.000295976
3 *1013:B1 *300:20 0.000311793
4 *239:33 *1013:B1 5.94205e-05
*RES
1 *1012:X *1013:B1 32.2429 
*END

*D_NET *260 0.00447341
*CONN
*I *1019:A1 I *D sky130_fd_sc_hd__a311o_1
*I *1028:B1 I *D sky130_fd_sc_hd__o2111a_1
*I *1018:A1 I *D sky130_fd_sc_hd__a311oi_1
*I *1013:X O *D sky130_fd_sc_hd__a21o_1
*CAP
1 *1019:A1 0.000222554
2 *1028:B1 0.000228917
3 *1018:A1 0
4 *1013:X 0.000717831
5 *260:19 0.00047756
6 *260:10 0.00074392
7 *1019:A1 *1019:A2 0.000536625
8 *1019:A1 *262:19 7.05375e-05
9 *1019:A1 *265:14 0.000241198
10 *1028:B1 *1028:C1 1.59373e-05
11 *1028:B1 *1028:D1 0.000119288
12 *260:10 *262:10 0.000728665
13 *260:10 *262:19 6.0038e-05
14 *260:10 *265:14 1.02504e-05
15 *260:19 *262:19 6.98302e-05
16 *260:19 *265:14 7.83587e-05
17 *1012:A *260:10 0
18 *1018:B1 *260:10 0
19 *1018:C1 *260:10 0
20 *1019:C1 *1019:A1 7.91464e-05
21 *239:33 *260:10 7.2754e-05
22 *241:12 *260:10 0
*RES
1 *1013:X *260:10 29.4429 
2 *260:10 *1018:A1 13.8 
3 *260:10 *260:19 1.03571 
4 *260:19 *1028:B1 16.8 
5 *260:19 *1019:A1 20.8 
*END

*D_NET *261 0.00103389
*CONN
*I *1015:A2 I *D sky130_fd_sc_hd__a211o_1
*I *1014:Y O *D sky130_fd_sc_hd__nand2b_1
*CAP
1 *1015:A2 0.000189405
2 *1014:Y 0.000189405
3 *1015:A2 *300:20 4.70078e-05
4 *1012:B *1015:A2 0.000269428
5 *1012:D *1015:A2 1.98839e-05
6 *239:18 *1015:A2 0.000142856
7 *241:12 *1015:A2 0.000173083
8 *243:12 *1015:A2 2.8266e-06
*RES
1 *1014:Y *1015:A2 32.85 
*END

*D_NET *262 0.00465942
*CONN
*I *1019:A2 I *D sky130_fd_sc_hd__a311o_1
*I *1028:C1 I *D sky130_fd_sc_hd__o2111a_1
*I *1018:A2 I *D sky130_fd_sc_hd__a311oi_1
*I *1015:X O *D sky130_fd_sc_hd__a211o_1
*CAP
1 *1019:A2 0.000182904
2 *1028:C1 0.000159965
3 *1018:A2 0
4 *1015:X 0.000591412
5 *262:19 0.000395309
6 *262:10 0.000643851
7 *1019:A2 *1019:A3 0.00046599
8 *1019:A2 *264:23 0.000140361
9 *1028:C1 *1028:D1 0.000266851
10 *262:10 *1018:A3 1.02504e-05
11 *262:10 *335:18 6.4549e-05
12 *262:19 *1018:A3 0.000167691
13 *262:19 *264:23 3.34366e-05
14 *1012:A *262:10 5.52238e-05
15 *1019:A1 *1019:A2 0.000536625
16 *1019:A1 *262:19 7.05375e-05
17 *1028:B1 *1028:C1 1.59373e-05
18 *224:10 *262:10 0
19 *224:16 *262:10 0
20 *241:12 *262:10 0
21 *260:10 *262:10 0.000728665
22 *260:10 *262:19 6.0038e-05
23 *260:19 *262:19 6.98302e-05
*RES
1 *1015:X *262:10 25.6214 
2 *262:10 *1018:A2 13.8 
3 *262:10 *262:19 2.55357 
4 *262:19 *1028:C1 17.2286 
5 *262:19 *1019:A2 20.7107 
*END

*D_NET *263 0.000135553
*CONN
*I *1017:B1 I *D sky130_fd_sc_hd__o21ai_1
*I *1016:X O *D sky130_fd_sc_hd__a22o_1
*CAP
1 *1017:B1 5.33258e-05
2 *1016:X 5.33258e-05
3 *1017:B1 *1017:A2 2.89016e-05
*RES
1 *1016:X *1017:B1 19.5643 
*END

*D_NET *264 0.00378915
*CONN
*I *1028:D1 I *D sky130_fd_sc_hd__o2111a_1
*I *1018:A3 I *D sky130_fd_sc_hd__a311oi_1
*I *1019:A3 I *D sky130_fd_sc_hd__a311o_1
*I *1017:Y O *D sky130_fd_sc_hd__o21ai_1
*CAP
1 *1028:D1 0.0001072
2 *1018:A3 8.32694e-05
3 *1019:A3 0.000513534
4 *1017:Y 0.000453892
5 *264:23 0.000302293
6 *264:6 0.00107925
7 *264:6 *1017:A2 3.18676e-05
8 *264:6 *324:21 1.39726e-05
9 *1019:A2 *1019:A3 0.00046599
10 *1019:A2 *264:23 0.000140361
11 *1028:B1 *1028:D1 0.000119288
12 *1028:C1 *1028:D1 0.000266851
13 *224:10 *1018:A3 0
14 *224:10 *264:23 0
15 *262:10 *1018:A3 1.02504e-05
16 *262:19 *1018:A3 0.000167691
17 *262:19 *264:23 3.34366e-05
*RES
1 *1017:Y *264:6 16.4071 
2 *264:6 *1019:A3 16.7643 
3 *264:6 *264:23 6.75 
4 *264:23 *1018:A3 16.05 
5 *264:23 *1028:D1 16.8 
*END

*D_NET *265 0.00181399
*CONN
*I *1029:A I *D sky130_fd_sc_hd__nor2_1
*I *1021:A2 I *D sky130_fd_sc_hd__a21o_1
*I *1018:Y O *D sky130_fd_sc_hd__a311oi_1
*CAP
1 *1029:A 0
2 *1021:A2 0.000153858
3 *1018:Y 0.000357312
4 *265:14 0.00051117
5 *1021:A2 *1120:A 8.06427e-05
6 *1021:A2 *1124:A 0
7 *1021:A2 *334:6 3.18676e-05
8 *265:14 *1029:B 0.000312736
9 *265:14 *1120:A 3.69047e-06
10 *265:14 *334:6 2.14658e-05
11 *1018:B1 *265:14 4.23644e-06
12 *1018:C1 *265:14 7.20217e-06
13 *1019:A1 *265:14 0.000241198
14 *256:17 *1021:A2 0
15 *256:19 *265:14 0
16 *260:10 *265:14 1.02504e-05
17 *260:19 *265:14 7.83587e-05
*RES
1 *1018:Y *265:14 26.2821 
2 *265:14 *1021:A2 21.6929 
3 *265:14 *1029:A 9.3 
*END

*D_NET *266 0.0036634
*CONN
*I *1023:A3 I *D sky130_fd_sc_hd__a31o_1
*I *1026:B2 I *D sky130_fd_sc_hd__a22o_1
*I *1025:D I *D sky130_fd_sc_hd__nand4_1
*I *1019:X O *D sky130_fd_sc_hd__a311o_1
*CAP
1 *1023:A3 0.000295681
2 *1026:B2 0
3 *1025:D 0.000239877
4 *1019:X 0.000577429
5 *266:14 0.000268749
6 *266:10 0.000901983
7 *1023:A3 *325:12 0.00012401
8 *1025:D *1027:A 0
9 *1025:D *1027:B 0.000116478
10 *266:10 *298:14 0.000172306
11 *266:10 *298:18 0.000148189
12 *266:10 *325:12 0.000389861
13 *1008:A *266:10 0
14 *1023:A2 *1023:A3 0.000263034
15 *1025:B *1025:D 7.66547e-05
16 *1026:A1 *1025:D 2.35489e-05
17 *1026:A1 *266:14 2.59355e-05
18 *1026:B1 *1025:D 2.4871e-05
19 *250:14 *1023:A3 1.47972e-05
20 *256:17 *266:10 0
21 *258:29 *266:10 0
*RES
1 *1019:X *266:10 25.2107 
2 *266:10 *266:14 5.03571 
3 *266:14 *1025:D 14.9607 
4 *266:14 *1026:B2 9.3 
5 *266:10 *1023:A3 18.7643 
*END

*D_NET *267 0.00027731
*CONN
*I *1021:B1 I *D sky130_fd_sc_hd__a21o_1
*I *1020:X O *D sky130_fd_sc_hd__a21o_1
*CAP
1 *1021:B1 0.000121216
2 *1020:X 0.000121216
3 *1021:A1 *1021:B1 3.4879e-05
*RES
1 *1020:X *1021:B1 20.7964 
*END

*D_NET *268 0.000376647
*CONN
*I *1022:B I *D sky130_fd_sc_hd__xor2_1
*I *1021:X O *D sky130_fd_sc_hd__a21o_1
*CAP
1 *1022:B 0.000188323
2 *1021:X 0.000188323
*RES
1 *1021:X *1022:B 21.6 
*END

*D_NET *269 0.00188951
*CONN
*I *1024:B I *D sky130_fd_sc_hd__xnor2_1
*I *1033:A1 I *D sky130_fd_sc_hd__o21ai_1
*I *1023:X O *D sky130_fd_sc_hd__a31o_1
*CAP
1 *1024:B 0
2 *1033:A1 0.000253524
3 *1023:X 0.000129614
4 *269:6 0.000383139
5 *1033:A1 *1002:A 5.33005e-05
6 *1033:A1 *1002:B 8.47274e-05
7 *1033:A1 *1030:B1 0.000144773
8 *269:6 *1123:A 0.000102362
9 *1008:B *269:6 0.000313647
10 *1032:B *1033:A1 3.98547e-05
11 *249:6 *1033:A1 0.00022266
12 *252:21 *1033:A1 0.000151628
13 *252:21 *269:6 1.02821e-05
*RES
1 *1023:X *269:6 13.1214 
2 *269:6 *1033:A1 16.425 
3 *269:6 *1024:B 9.3 
*END

*D_NET *270 0.000227313
*CONN
*I *1027:A I *D sky130_fd_sc_hd__nand2_1
*I *1025:Y O *D sky130_fd_sc_hd__nand4_1
*CAP
1 *1027:A 7.01248e-05
2 *1025:Y 7.01248e-05
3 *1027:A *1027:B 7.9628e-05
4 *1027:A *1121:A 7.43578e-06
5 *1025:D *1027:A 0
*RES
1 *1025:Y *1027:A 20.2786 
*END

*D_NET *271 0.000902466
*CONN
*I *1027:B I *D sky130_fd_sc_hd__nand2_1
*I *1026:X O *D sky130_fd_sc_hd__a22o_1
*CAP
1 *1027:B 0.000340326
2 *1026:X 0.000340326
3 *1027:B *1121:A 1.74352e-05
4 *1025:B *1027:B 8.27184e-06
5 *1025:D *1027:B 0.000116478
6 *1027:A *1027:B 7.9628e-05
*RES
1 *1026:X *1027:B 24.3679 
*END

*D_NET *272 0.000671521
*CONN
*I *1029:B I *D sky130_fd_sc_hd__nor2_1
*I *1028:X O *D sky130_fd_sc_hd__o2111a_1
*CAP
1 *1029:B 0.000179392
2 *1028:X 0.000179392
3 *265:14 *1029:B 0.000312736
*RES
1 *1028:X *1029:B 31.6714 
*END

*D_NET *273 0.000319489
*CONN
*I *1031:B1 I *D sky130_fd_sc_hd__a21oi_1
*I *1030:X O *D sky130_fd_sc_hd__o211a_1
*CAP
1 *1031:B1 8.91448e-05
2 *1030:X 8.91448e-05
3 *1051:A *1031:B1 3.79467e-05
4 *1086:A *1031:B1 0.000103253
*RES
1 *1030:X *1031:B1 29.475 
*END

*D_NET *274 0.000923226
*CONN
*I *1033:B1 I *D sky130_fd_sc_hd__o21ai_1
*I *1031:Y O *D sky130_fd_sc_hd__a21oi_1
*CAP
1 *1033:B1 0.000262671
2 *1031:Y 0.000262671
3 *1033:B1 *1002:A 0
4 *1033:B1 *1033:A2 6.42338e-05
5 *1033:B1 *293:12 3.51442e-05
6 *1033:B1 *329:25 0.00022459
7 *1051:A *1033:B1 1.31933e-05
8 *1055:A *1033:B1 6.07232e-05
*RES
1 *1031:Y *1033:B1 32.1089 
*END

*D_NET *275 0.000330349
*CONN
*I *1033:A2 I *D sky130_fd_sc_hd__o21ai_1
*I *1032:Y O *D sky130_fd_sc_hd__nand2_1
*CAP
1 *1033:A2 0.00011757
2 *1032:Y 0.00011757
3 *1033:A2 *1002:A 0
4 *1032:B *1033:A2 2.56694e-05
5 *1033:B1 *1033:A2 6.42338e-05
6 *1051:A *1033:A2 5.30637e-06
7 *1080:A *1033:A2 0
*RES
1 *1032:Y *1033:A2 29.7786 
*END

*D_NET *276 0.00257506
*CONN
*I *856:B1 I *D sky130_fd_sc_hd__a21o_1
*I *854:A1 I *D sky130_fd_sc_hd__o21ai_1
*I *827:A_N I *D sky130_fd_sc_hd__and2b_1
*I *825:Y O *D sky130_fd_sc_hd__nor2_1
*CAP
1 *856:B1 0.000125972
2 *854:A1 0
3 *827:A_N 5.62961e-05
4 *825:Y 0.00024089
5 *276:25 0.000222977
6 *276:10 0.000394192
7 *827:A_N *331:12 0.000150618
8 *827:A_N *374:14 0.000173083
9 *276:10 *826:B 1.92789e-05
10 *276:10 *1122:A 7.49387e-06
11 *276:10 *374:14 0.000146474
12 *276:25 *331:12 5.33005e-05
13 *829:A *856:B1 3.36025e-05
14 *829:A *276:25 8.34127e-05
15 *840:A1 *276:25 0.000139907
16 *840:A2 *276:10 0.000135028
17 *854:A2 *827:A_N 1.17968e-05
18 *854:A2 *276:10 2.16719e-05
19 *854:A2 *276:25 9.31893e-05
20 *855:B1 *856:B1 0.000188586
21 *856:A1 *856:B1 3.01979e-05
22 *856:A1 *276:25 0
23 *856:A2 *856:B1 0.00014285
24 *101:26 *856:B1 1.21289e-05
25 *101:26 *276:25 5.922e-05
26 *105:12 *276:10 3.28897e-05
*RES
1 *825:Y *276:10 17.925 
2 *276:10 *827:A_N 16.05 
3 *276:10 *276:25 7.92857 
4 *276:25 *854:A1 9.3 
5 *276:25 *856:B1 13.1571 
*END

*D_NET *277 0.00216507
*CONN
*I *834:B I *D sky130_fd_sc_hd__or2_1
*I *833:B I *D sky130_fd_sc_hd__nand2_1
*I *1034:X O *D sky130_fd_sc_hd__clkbuf_1
*CAP
1 *834:B 0
2 *833:B 0.000311407
3 *1034:X 0.000228156
4 *277:12 0.000539563
5 *833:B *833:A 0.000246318
6 *833:B *836:A1 0.000123513
7 *277:12 *836:A1 0.000185643
8 *277:12 *1122:A 1.08359e-05
9 *277:12 *338:14 0.000318061
10 *835:A *833:B 2.8266e-06
11 *1052:A *277:12 0.00017309
12 *108:8 *833:B 2.56601e-05
*RES
1 *1034:X *277:12 23.9607 
2 *277:12 *833:B 24.0321 
3 *277:12 *834:B 9.3 
*END

*D_NET *278 0.00488199
*CONN
*I *923:B I *D sky130_fd_sc_hd__or2_1
*I *924:B I *D sky130_fd_sc_hd__nand2_1
*I *1035:X O *D sky130_fd_sc_hd__clkbuf_1
*CAP
1 *923:B 0.000165189
2 *924:B 0
3 *1035:X 0.00088222
4 *278:12 0.00104741
5 *923:B *923:A 2.44318e-05
6 *923:B *924:A 5.52238e-05
7 *923:B *354:18 9.50861e-05
8 *278:12 *924:A 5.26184e-05
9 *278:12 *1110:A 0.00105089
10 *278:12 *1112:A 0.000175526
11 *278:12 *279:16 0.000156431
12 *278:12 *282:12 0.000275936
13 *278:12 *314:10 5.71472e-05
14 *278:12 *359:16 0.000226513
15 sum[20] *278:12 2.72967e-05
16 *939:A1 *923:B 0.000222666
17 *939:A2 *923:B 4.51611e-05
18 *939:B1_N *923:B 9.60939e-05
19 *940:B *923:B 0.000120512
20 *941:B *278:12 0
21 *1071:A *278:12 2.89114e-05
22 *182:6 *923:B 1.24368e-05
23 *183:8 *923:B 6.42877e-05
*RES
1 *1035:X *278:12 38.7464 
2 *278:12 *924:B 9.3 
3 *278:12 *923:B 14.925 
*END

*D_NET *279 0.0042741
*CONN
*I *920:B I *D sky130_fd_sc_hd__nor2_1
*I *921:B I *D sky130_fd_sc_hd__nand2_1
*I *1036:X O *D sky130_fd_sc_hd__buf_1
*CAP
1 *920:B 0
2 *921:B 0.000155225
3 *1036:X 0.00102299
4 *279:16 0.00117821
5 *279:16 *920:A 4.16114e-05
6 *279:16 *1110:A 0.000336497
7 *279:16 *1112:A 0
8 *279:16 *1114:A 0.000276211
9 *279:16 *284:16 5.33005e-05
10 *279:16 *314:10 6.85967e-05
11 *279:16 *358:16 0
12 *279:16 *359:16 2.24763e-05
13 sum[19] *279:16 5.33005e-05
14 sum[21] *279:16 9.60939e-05
15 sum[22] *279:16 0.000142157
16 *922:B *921:B 6.54743e-05
17 *957:A *921:B 0.000228558
18 *1035:A *279:16 9.28838e-05
19 *1041:A *279:16 9.41642e-05
20 *1071:A *279:16 3.34366e-05
21 *1074:A *279:16 5.52302e-05
22 *179:8 *921:B 9.38176e-05
23 *179:8 *279:16 7.43578e-06
24 *278:12 *279:16 0.000156431
*RES
1 *1036:X *279:16 39.8714 
2 *279:16 *921:B 13.5679 
3 *279:16 *920:B 9.3 
*END

*D_NET *280 0.00101775
*CONN
*I *832:B I *D sky130_fd_sc_hd__and2_1
*I *837:B I *D sky130_fd_sc_hd__nor2_1
*I *1037:X O *D sky130_fd_sc_hd__clkbuf_1
*CAP
1 *832:B 7.65359e-05
2 *837:B 9.7261e-05
3 *1037:X 0.00027218
4 *280:10 0.000445976
5 *837:B *837:A 0
6 *280:10 *837:A 0
7 *280:10 *315:10 0
8 *107:6 *832:B 2.89016e-05
9 *107:10 *280:10 0
10 *111:29 *837:B 9.24299e-05
11 *111:29 *280:10 4.46186e-06
*RES
1 *1037:X *280:10 17.5143 
2 *280:10 *837:B 16.05 
3 *280:10 *832:B 15.1571 
*END

*D_NET *281 0.000557968
*CONN
*I *954:B I *D sky130_fd_sc_hd__nand2_1
*I *955:B I *D sky130_fd_sc_hd__or2_1
*I *1038:X O *D sky130_fd_sc_hd__clkbuf_1
*CAP
1 *954:B 0.000107371
2 *955:B 3.69486e-05
3 *1038:X 6.25982e-05
4 *281:10 0.000206918
5 *954:B *955:A 9.04935e-05
6 *966:B *281:10 0
7 *1038:A *281:10 5.36379e-05
*RES
1 *1038:X *281:10 19.6393 
2 *281:10 *955:B 9.83571 
3 *281:10 *954:B 11.4964 
*END

*D_NET *282 0.0014206
*CONN
*I *951:B I *D sky130_fd_sc_hd__nand2_1
*I *952:B I *D sky130_fd_sc_hd__or2_1
*I *964:A2 I *D sky130_fd_sc_hd__a21o_1
*I *1039:X O *D sky130_fd_sc_hd__buf_1
*CAP
1 *951:B 3.91634e-05
2 *952:B 0
3 *964:A2 0
4 *1039:X 0.000291415
5 *282:21 0.000164238
6 *282:12 0.00041649
7 *951:B *952:A 3.41517e-06
8 *951:B *317:14 2.99326e-05
9 *951:B *354:18 0
10 *282:12 *1114:A 0
11 *282:21 *952:A 3.41517e-06
12 *282:21 *964:A1 8.61626e-05
13 *282:21 *317:14 5.45307e-05
14 *206:10 *282:12 5.59013e-05
15 *278:12 *282:12 0.000275936
*RES
1 *1039:X *282:12 22.8357 
2 *282:12 *964:A2 9.3 
3 *282:12 *282:21 2.60714 
4 *282:21 *952:B 9.3 
5 *282:21 *951:B 10.2643 
*END

*D_NET *283 0.000357912
*CONN
*I *949:B I *D sky130_fd_sc_hd__or2_1
*I *950:B I *D sky130_fd_sc_hd__nand2_1
*I *1040:X O *D sky130_fd_sc_hd__clkbuf_1
*CAP
1 *949:B 0
2 *950:B 2.12833e-05
3 *1040:X 5.65838e-05
4 *283:10 7.78671e-05
5 *950:B *950:A 8.09128e-05
6 *283:10 *318:12 5.01117e-05
7 *965:A2 *283:10 0
8 *204:14 *950:B 3.18676e-05
9 *204:14 *283:10 3.92854e-05
*RES
1 *1040:X *283:10 19.6393 
2 *283:10 *950:B 10.2643 
3 *283:10 *949:B 9.3 
*END

*D_NET *284 0.00420631
*CONN
*I *947:B I *D sky130_fd_sc_hd__nand2_1
*I *946:B I *D sky130_fd_sc_hd__or2_1
*I *1041:X O *D sky130_fd_sc_hd__clkbuf_1
*CAP
1 *947:B 2.23854e-05
2 *946:B 0.000219279
3 *1041:X 0.000657183
4 *284:16 0.000898848
5 *946:B *947:A 0
6 *946:B *1115:A 1.76135e-05
7 *284:16 *359:16 0.000854472
8 *968:B *284:16 0.000144038
9 *985:A_N *284:16 0
10 *1041:A *284:16 5.59013e-05
11 *1073:A *284:16 0.000121446
12 *1076:A *946:B 0
13 *1097:A *284:16 2.90068e-05
14 *201:16 *946:B 0
15 *201:16 *947:B 0
16 *202:8 *284:16 0.000534222
17 *203:12 *284:16 0.000140645
18 *221:27 *284:16 0.000457969
19 *279:16 *284:16 5.33005e-05
*RES
1 *1041:X *284:16 37.3 
2 *284:16 *946:B 21.9071 
3 *284:16 *947:B 9.72857 
*END

*D_NET *285 0.000597151
*CONN
*I *987:B I *D sky130_fd_sc_hd__or2_1
*I *979:B I *D sky130_fd_sc_hd__nand2_1
*I *1042:X O *D sky130_fd_sc_hd__clkbuf_1
*CAP
1 *987:B 5.77931e-05
2 *979:B 2.67446e-05
3 *1042:X 0.000101355
4 *285:8 0.000185893
5 *979:B *979:A 5.83233e-05
6 *987:B *979:A 0.00010326
7 *285:8 *979:A 2.89114e-05
8 *1042:A *285:8 3.48705e-05
*RES
1 *1042:X *285:8 15.1571 
2 *285:8 *979:B 14.5321 
3 *285:8 *987:B 15.1393 
*END

*D_NET *286 0.00117283
*CONN
*I *976:B I *D sky130_fd_sc_hd__nand2_1
*I *977:B I *D sky130_fd_sc_hd__or2_1
*I *1043:X O *D sky130_fd_sc_hd__clkbuf_1
*CAP
1 *976:B 0
2 *977:B 0.00019869
3 *1043:X 0.000219602
4 *286:10 0.000418292
5 *977:B *977:A 0.000101545
6 *286:10 *1119:A 9.33978e-07
7 *993:A3 *286:10 0
8 *1043:A *286:10 3.91668e-05
9 *1079:A *977:B 8.04237e-06
10 *226:12 *286:10 8.15843e-05
11 *227:12 *286:10 0.000104974
12 *227:29 *977:B 0
13 *227:29 *286:10 0
*RES
1 *1043:X *286:10 18.7107 
2 *286:10 *977:B 16.9429 
3 *286:10 *976:B 13.8 
*END

*D_NET *287 0.00299869
*CONN
*I *1016:B2 I *D sky130_fd_sc_hd__a22o_1
*I *974:B I *D sky130_fd_sc_hd__nor2_1
*I *975:B I *D sky130_fd_sc_hd__nand2_1
*I *1044:X O *D sky130_fd_sc_hd__buf_1
*CAP
1 *1016:B2 0.000272918
2 *974:B 0
3 *975:B 8.6677e-05
4 *1044:X 0.000314836
5 *287:12 0.000381566
6 *287:8 0.000882643
7 *975:B *974:A 3.01979e-05
8 *975:B *975:A 1.61893e-05
9 *975:B *323:22 5.62995e-05
10 *1016:B2 *324:21 0.000181803
11 *287:8 *1000:A 5.33978e-05
12 *287:8 *1000:B 1.5942e-05
13 *287:8 *289:8 0.000237639
14 *287:8 *323:16 0
15 *287:8 *329:25 0.000103041
16 *287:12 *973:A 7.95674e-05
17 *287:12 *973:B 0.000107503
18 *287:12 *1118:A 0
19 *287:12 *1119:A 0
20 *287:12 *289:8 2.61337e-05
21 *287:12 *323:22 0
22 *1055:A *287:8 0.00015234
*RES
1 *1044:X *287:8 22.1214 
2 *287:8 *287:12 10.0893 
3 *287:12 *975:B 11.5143 
4 *287:12 *974:B 9.3 
5 *287:8 *1016:B2 17.6571 
*END

*D_NET *288 0.000998636
*CONN
*I *870:B I *D sky130_fd_sc_hd__nand2_1
*I *871:B I *D sky130_fd_sc_hd__or2_1
*I *1045:X O *D sky130_fd_sc_hd__clkbuf_1
*CAP
1 *870:B 0
2 *871:B 0.000182291
3 *1045:X 0.000149743
4 *288:10 0.000332034
5 *871:B *870:A 7.83366e-05
6 *871:B *871:A 0.00010066
7 *871:B *304:8 1.32552e-05
8 *906:B *288:10 0
9 *907:A1 *871:B 0
10 *1061:A *871:B 0.000142315
*RES
1 *1045:X *288:10 15.9786 
2 *288:10 *871:B 18.3179 
3 *288:10 *870:B 13.8 
*END

*D_NET *289 0.00195506
*CONN
*I *1017:A2 I *D sky130_fd_sc_hd__o21ai_1
*I *1016:A2 I *D sky130_fd_sc_hd__a22o_1
*I *973:B I *D sky130_fd_sc_hd__xnor2_1
*I *1046:X O *D sky130_fd_sc_hd__buf_1
*CAP
1 *1017:A2 4.89375e-05
2 *1016:A2 2.36895e-05
3 *973:B 0.00013536
4 *1046:X 0.000192965
5 *289:21 7.26271e-05
6 *289:8 0.000328324
7 *973:B *1118:A 7.61932e-05
8 *973:B *323:22 7.80968e-05
9 *1016:A2 *324:21 5.52238e-05
10 *1017:A2 *324:21 0.000183726
11 *289:8 *1000:B 0.000150632
12 *289:8 *323:22 5.90443e-06
13 *289:8 *324:12 0.000171334
14 *1017:B1 *1017:A2 2.89016e-05
15 *264:6 *1017:A2 3.18676e-05
16 *287:8 *289:8 0.000237639
17 *287:12 *973:B 0.000107503
18 *287:12 *289:8 2.61337e-05
*RES
1 *1046:X *289:8 20.3 
2 *289:8 *973:B 17.7107 
3 *289:8 *289:21 4.5 
4 *289:21 *1016:A2 9.83571 
5 *289:21 *1017:A2 11.0679 
*END

*D_NET *290 0.00195081
*CONN
*I *1011:B I *D sky130_fd_sc_hd__nor2_1
*I *1009:B I *D sky130_fd_sc_hd__and2_1
*I *1010:B I *D sky130_fd_sc_hd__nand2_1
*I *1047:X O *D sky130_fd_sc_hd__buf_1
*CAP
1 *1011:B 1.00162e-05
2 *1009:B 0.000117183
3 *1010:B 0
4 *1047:X 0.000446966
5 *290:19 0.000243516
6 *290:10 0.000563283
7 *1009:B *325:18 3.17016e-05
8 *1011:B *325:18 1.61893e-05
9 *290:10 *1121:A 0
10 *290:10 *291:43 0.000148196
11 *290:10 *298:14 0
12 *290:19 *1010:A 5.71472e-05
13 *290:19 *325:18 4.3852e-05
14 *1008:C *290:10 0.000148861
15 *1025:A *290:10 0
16 *1026:B1 *290:10 0
17 *254:10 *290:10 3.69697e-05
18 *254:12 *290:10 3.17067e-05
19 *257:10 *290:10 0
20 *257:10 *290:19 5.52238e-05
21 *257:23 *290:10 0
*RES
1 *1047:X *290:10 27.2286 
2 *290:10 *1010:B 9.3 
3 *290:10 *290:19 2.60714 
4 *290:19 *1009:B 11.0857 
5 *290:19 *1011:B 9.72857 
*END

*D_NET *291 0.00469018
*CONN
*I *1003:B I *D sky130_fd_sc_hd__nand2_1
*I *1007:B I *D sky130_fd_sc_hd__or2_1
*I *1006:B I *D sky130_fd_sc_hd__nor2_1
*I *1048:X O *D sky130_fd_sc_hd__buf_1
*CAP
1 *1003:B 9.62835e-06
2 *1007:B 0
3 *1006:B 0.000128956
4 *1048:X 0.00089025
5 *291:43 0.000323644
6 *291:20 0.00133322
7 *1003:B *1003:A 5.52302e-05
8 *1006:B *1123:A 0
9 *1006:B *325:12 1.23589e-05
10 *1006:B *326:16 9.91224e-05
11 *291:20 *1001:B 9.95875e-05
12 *291:20 *1099:A 5.52302e-05
13 *291:20 *1124:A 0.000102207
14 *291:20 *293:6 1.97756e-05
15 *291:20 *326:16 0.000129953
16 *291:20 *328:10 0.000210446
17 *291:43 *1003:A 5.33005e-05
18 *291:43 *1121:A 0
19 *291:43 *325:12 5.52238e-05
20 *291:43 *326:16 4.08637e-05
21 cout *291:20 9.71197e-05
22 sum[28] *291:20 0.000142427
23 sum[30] *291:20 0.000144222
24 *1023:A2 *1006:B 5.68722e-05
25 *1023:B1 *1006:B 5.52302e-05
26 *1047:A *291:43 3.18676e-05
27 *1048:A *291:20 5.7661e-06
28 *1083:A *291:20 9.71197e-05
29 *1085:A *291:20 0.000185124
30 *248:10 *291:20 9.22103e-06
31 *257:23 *1003:B 4.27935e-05
32 *257:23 *291:43 5.52238e-05
33 *290:10 *291:43 0.000148196
*RES
1 *1048:X *291:20 27.3179 
2 *291:20 *1006:B 21.0857 
3 *291:20 *291:43 15.1964 
4 *291:43 *1007:B 9.3 
5 *291:43 *1003:B 9.83571 
*END

*D_NET *292 0.00186155
*CONN
*I *828:B I *D sky130_fd_sc_hd__nand2_1
*I *830:B I *D sky130_fd_sc_hd__nor2_1
*I *1049:X O *D sky130_fd_sc_hd__clkbuf_1
*CAP
1 *828:B 0.000140856
2 *830:B 9.3262e-05
3 *1049:X 0.000314067
4 *292:10 0.000548186
5 *830:B *828:A 0
6 *292:10 *1100:A 9.91086e-05
7 *292:10 *1122:A 5.41797e-06
8 *292:10 *338:14 0.000162106
9 *292:10 *374:14 2.89016e-05
10 sum[0] *292:10 9.25014e-06
11 sum[2] *828:B 1.72894e-05
12 sum[2] *292:10 4.56498e-05
13 sum[9] *292:10 2.15354e-05
14 *1034:A *292:10 3.14048e-05
15 *1059:A *830:B 0.000148707
16 *1059:A *292:10 1.10632e-05
17 *1087:A *830:B 0
18 *103:12 *828:B 0.000184745
*RES
1 *1049:X *292:10 20.175 
2 *292:10 *830:B 15.7464 
3 *292:10 *828:B 16.8179 
*END

*D_NET *293 0.00183521
*CONN
*I *1001:B I *D sky130_fd_sc_hd__nor2_1
*I *1030:C1 I *D sky130_fd_sc_hd__o211a_1
*I *1002:B I *D sky130_fd_sc_hd__nand2_1
*I *1050:X O *D sky130_fd_sc_hd__buf_1
*CAP
1 *1001:B 0.000158834
2 *1030:C1 0
3 *1002:B 0.000182016
4 *1050:X 0.000184504
5 *293:12 0.000246971
6 *293:6 0.000408294
7 *1001:B *1099:A 5.52302e-05
8 *1001:B *328:10 1.97695e-05
9 *1002:B *1030:B1 6.95684e-05
10 *293:12 *1002:A 0
11 *293:12 *1099:A 3.92757e-05
12 *293:12 *328:14 0
13 *1032:B *1002:B 5.52302e-05
14 *1033:A1 *1002:B 8.47274e-05
15 *1033:B1 *293:12 3.51442e-05
16 *1048:A *293:6 1.40415e-05
17 *1055:A *293:12 0.000148911
18 *248:10 *1001:B 1.33343e-05
19 *291:20 *1001:B 9.95875e-05
20 *291:20 *293:6 1.97756e-05
*RES
1 *1050:X *293:6 11.4786 
2 *293:6 *293:12 10.9464 
3 *293:12 *1002:B 13.1571 
4 *293:12 *1030:C1 9.3 
5 *293:6 *1001:B 13.05 
*END

*D_NET *294 0.00177676
*CONN
*I *1030:A2 I *D sky130_fd_sc_hd__o211a_1
*I *1031:A2 I *D sky130_fd_sc_hd__a21oi_1
*I *1000:B I *D sky130_fd_sc_hd__xor2_1
*I *1051:X O *D sky130_fd_sc_hd__buf_1
*CAP
1 *1030:A2 5.8926e-05
2 *1031:A2 0
3 *1000:B 0.000191004
4 *1051:X 9.781e-05
5 *294:21 7.75723e-05
6 *294:8 0.00030746
7 *1000:B *1000:A 2.59355e-05
8 *1000:B *324:12 0.000148911
9 *1030:A2 *1030:A1 0.000150618
10 *1044:A *1000:B 4.33002e-05
11 *1044:A *1030:A2 1.02504e-05
12 *1044:A *294:21 5.59013e-05
13 *1051:A *294:8 0.00018077
14 *1055:A *1000:B 6.65563e-05
15 *1055:A *1030:A2 8.5662e-05
16 *1081:A *1000:B 0
17 *1086:A *1000:B 7.62687e-05
18 *1086:A *1030:A2 8.2958e-06
19 *1086:A *294:21 2.49484e-05
20 *287:8 *1000:B 1.5942e-05
21 *289:8 *1000:B 0.000150632
*RES
1 *1051:X *294:8 15.5679 
2 *294:8 *1000:B 19.0143 
3 *294:8 *294:21 0.732143 
4 *294:21 *1031:A2 13.8 
5 *294:21 *1030:A2 16.05 
*END

*D_NET *295 0.00123992
*CONN
*I *826:B I *D sky130_fd_sc_hd__nand2_1
*I *825:B I *D sky130_fd_sc_hd__nor2_1
*I *1052:X O *D sky130_fd_sc_hd__clkbuf_1
*CAP
1 *826:B 0.000184315
2 *825:B 0
3 *1052:X 7.06771e-05
4 *295:10 0.000254992
5 *826:B *825:A 0.000156473
6 *826:B *1122:A 9.60939e-05
7 *295:10 *302:10 8.06427e-05
8 *101:14 *826:B 0.000227539
9 *103:12 *295:10 0.000149911
10 *276:10 *826:B 1.92789e-05
*RES
1 *1052:X *295:10 20.2464 
2 *295:10 *825:B 9.3 
3 *295:10 *826:B 14.3893 
*END

*D_NET *296 0.000906837
*CONN
*I *851:B I *D sky130_fd_sc_hd__nand2_1
*I *852:B I *D sky130_fd_sc_hd__or2_1
*I *1053:X O *D sky130_fd_sc_hd__clkbuf_1
*CAP
1 *851:B 0
2 *852:B 0.000100766
3 *1053:X 0.000324079
4 *296:8 0.000424845
5 *852:B *852:A 5.71472e-05
*RES
1 *1053:X *296:8 14.675 
2 *296:8 *852:B 11.0857 
3 *296:8 *851:B 9.3 
*END

*D_NET *297 0.000646891
*CONN
*I *847:B I *D sky130_fd_sc_hd__and2_1
*I *849:B I *D sky130_fd_sc_hd__nor2_1
*I *1054:X O *D sky130_fd_sc_hd__clkbuf_1
*CAP
1 *847:B 9.4704e-05
2 *849:B 0
3 *1054:X 0.000150451
4 *297:12 0.000245155
5 *847:B *849:A 7.82548e-05
6 *297:12 *1127:A 0
7 *297:12 *333:12 7.8327e-05
*RES
1 *1054:X *297:12 20.7821 
2 *297:12 *849:B 9.3 
3 *297:12 *847:B 11.5143 
*END

*D_NET *298 0.00524249
*CONN
*I *846:B I *D sky130_fd_sc_hd__xor2_1
*I *878:B2 I *D sky130_fd_sc_hd__a22o_1
*I *861:A2 I *D sky130_fd_sc_hd__a21oi_1
*I *1055:X O *D sky130_fd_sc_hd__buf_1
*CAP
1 *846:B 0.000161639
2 *878:B2 0
3 *861:A2 0.000258155
4 *1055:X 0.00117231
5 *298:18 0.000348923
6 *298:14 0.00142472
7 *846:B *846:A 0.000320024
8 *846:B *334:6 1.02821e-05
9 *861:A2 *861:A1 0.000218236
10 *298:14 *325:12 0.000222878
11 *298:18 *878:A1 4.1331e-06
12 *298:18 *334:12 5.33786e-05
13 *879:B1 *861:A2 2.89114e-05
14 *1008:A *298:14 3.57405e-05
15 *1008:B *298:14 0.000143652
16 *1008:C *298:14 0.00016839
17 *1086:A *298:14 0.000139907
18 *258:12 *846:B 2.59355e-05
19 *258:12 *298:14 0.000128161
20 *258:12 *298:18 5.66157e-05
21 *258:29 *298:18 0
22 *266:10 *298:14 0.000172306
23 *266:10 *298:18 0.000148189
24 *290:10 *298:14 0
*RES
1 *1055:X *298:14 35.4786 
2 *298:14 *298:18 7.05357 
3 *298:18 *861:A2 14.8 
4 *298:18 *878:B2 9.3 
5 *298:14 *846:B 17.6214 
*END

*D_NET *299 0.000729405
*CONN
*I *868:B I *D sky130_fd_sc_hd__nand2_1
*I *867:B I *D sky130_fd_sc_hd__nor2_1
*I *1056:X O *D sky130_fd_sc_hd__clkbuf_1
*CAP
1 *868:B 0
2 *867:B 5.96711e-05
3 *1056:X 0.000102658
4 *299:10 0.000162329
5 *867:B *868:A 7.35978e-05
6 *867:B *336:18 0.000186662
7 *299:10 *301:20 2.8266e-06
8 *299:10 *305:16 0
9 *1056:A *299:10 2.04913e-05
10 *134:10 *867:B 9.22103e-06
11 *134:10 *299:10 8.00806e-05
12 *135:10 *867:B 3.18676e-05
13 *135:10 *299:10 0
*RES
1 *1056:X *299:10 20.2464 
2 *299:10 *867:B 11.925 
3 *299:10 *868:B 9.3 
*END

*D_NET *300 0.00601723
*CONN
*I *878:A2 I *D sky130_fd_sc_hd__a22o_1
*I *879:A2 I *D sky130_fd_sc_hd__o21ai_1
*I *845:B I *D sky130_fd_sc_hd__xor2_1
*I *1057:X O *D sky130_fd_sc_hd__buf_1
*CAP
1 *878:A2 0.000119182
2 *879:A2 0
3 *845:B 0
4 *1057:X 0.00169575
5 *300:37 0.000276029
6 *300:20 0.00185259
7 *878:A2 *878:A1 0.000225314
8 *878:A2 *335:27 9.25014e-06
9 *300:20 *335:18 0.000810634
10 *300:37 *335:18 3.51442e-05
11 *300:37 *335:27 0.000119618
12 *879:B1 *878:A2 0.000127439
13 *1012:A *300:20 3.18676e-05
14 *1012:D *300:20 0.000137923
15 *1013:B1 *300:20 0.000311793
16 *1014:B *300:20 2.76211e-05
17 *1015:A2 *300:20 4.70078e-05
18 *146:12 *878:A2 3.69047e-06
19 *239:18 *300:20 1.56e-05
20 *239:33 *300:20 0.00017078
*RES
1 *1057:X *300:20 46.5143 
2 *300:20 *845:B 13.8 
3 *300:20 *300:37 7.83929 
4 *300:37 *879:A2 9.3 
5 *300:37 *878:A2 21.6929 
*END

*D_NET *301 0.00525945
*CONN
*I *876:B I *D sky130_fd_sc_hd__and2_1
*I *883:B I *D sky130_fd_sc_hd__nor2_1
*I *1058:X O *D sky130_fd_sc_hd__buf_1
*CAP
1 *876:B 1.2683e-05
2 *883:B 0.000136852
3 *1058:X 0.00147082
4 *301:20 0.00162036
5 *876:B *883:A 3.99614e-06
6 *883:B *883:A 8.64974e-05
7 *301:20 *883:A 5.62995e-05
8 *301:20 *1105:A 0
9 *301:20 *1106:A 4.50288e-05
10 *301:20 *305:16 0
11 *301:20 *307:21 7.50697e-05
12 *301:20 *308:12 0.000101826
13 *301:20 *310:10 7.30398e-05
14 *301:20 *321:10 0
15 *301:20 *321:27 0
16 *301:20 *336:18 0.000483633
17 *301:20 *336:28 0.000147185
18 *301:20 *365:22 0
19 sum[13] *301:20 0
20 *904:A *301:20 5.59013e-05
21 *912:B1 *301:20 0
22 *915:A_N *301:20 0
23 *916:A *301:20 8.07951e-05
24 *919:A *301:20 0.00014285
25 *135:10 *301:20 5.52238e-05
26 *160:10 *301:20 0
27 *161:12 *301:20 7.83587e-05
28 *165:10 *301:20 7.6644e-05
29 *175:10 *301:20 0.000453563
30 *299:10 *301:20 2.8266e-06
*RES
1 *1058:X *301:20 49.7821 
2 *301:20 *883:B 11.9071 
3 *301:20 *876:B 9.72857 
*END

*D_NET *302 0.00380321
*CONN
*I *874:B I *D sky130_fd_sc_hd__or2_1
*I *873:B I *D sky130_fd_sc_hd__nand2_1
*I *1059:X O *D sky130_fd_sc_hd__clkbuf_1
*CAP
1 *874:B 0
2 *873:B 9.40078e-05
3 *1059:X 0.000704091
4 *302:10 0.000798099
5 *873:B *873:A 0.000153047
6 *302:10 *1101:A 0
7 *302:10 *1125:A 0
8 *302:10 *327:8 0.000137983
9 *302:10 *374:14 0.00133953
10 *840:A2 *302:10 0.000146474
11 *841:A *302:10 6.97972e-05
12 *841:B *302:10 8.08283e-05
13 *875:A *873:B 0
14 *888:A2 *873:B 9.24491e-05
15 *888:A2 *302:10 1.99099e-05
16 *1052:A *302:10 5.41794e-05
17 *103:12 *302:10 2.68632e-05
18 *140:8 *873:B 5.30637e-06
19 *295:10 *302:10 8.06427e-05
*RES
1 *1059:X *302:10 33.1929 
2 *302:10 *873:B 16.5857 
3 *302:10 *874:B 13.8 
*END

*D_NET *303 0.000972707
*CONN
*I *834:A I *D sky130_fd_sc_hd__or2_1
*I *833:A I *D sky130_fd_sc_hd__nand2_1
*I *1060:X O *D sky130_fd_sc_hd__clkbuf_1
*CAP
1 *834:A 0
2 *833:A 0.000190297
3 *1060:X 0.000144766
4 *303:10 0.000335063
5 *833:B *833:A 0.000246318
6 *835:A *833:A 0
7 *835:A *303:10 0
8 *835:B *303:10 4.15914e-05
9 *844:B *303:10 1.46717e-05
10 *1084:A *833:A 0
11 *1084:A *303:10 0
*RES
1 *1060:X *303:10 16.2821 
2 *303:10 *833:A 17.8179 
3 *303:10 *834:A 13.8 
*END

*D_NET *304 0.000715927
*CONN
*I *870:A I *D sky130_fd_sc_hd__nand2_1
*I *871:A I *D sky130_fd_sc_hd__or2_1
*I *1061:X O *D sky130_fd_sc_hd__clkbuf_1
*CAP
1 *870:A 5.81222e-05
2 *871:A 0.000103466
3 *1061:X 3.99224e-05
4 *304:8 0.00020151
5 *871:B *870:A 7.83366e-05
6 *871:B *871:A 0.00010066
7 *871:B *304:8 1.32552e-05
8 *907:A1 *870:A 7.48356e-05
9 *907:A1 *871:A 4.58192e-05
*RES
1 *1061:X *304:8 14.3357 
2 *304:8 *871:A 16.1929 
3 *304:8 *870:A 15.7464 
*END

*D_NET *305 0.00250569
*CONN
*I *868:A I *D sky130_fd_sc_hd__nand2_1
*I *867:A I *D sky130_fd_sc_hd__nor2_1
*I *1062:X O *D sky130_fd_sc_hd__clkbuf_1
*CAP
1 *868:A 0.000101045
2 *867:A 0
3 *1062:X 0.000613807
4 *305:16 0.000714851
5 *305:16 *310:10 0
6 *305:16 *336:18 0.000624758
7 sum[12] *305:16 2.11419e-05
8 *867:B *868:A 7.35978e-05
9 *904:B *305:16 0.000149762
10 *1063:A *305:16 9.68786e-05
11 *1093:A *305:16 5.3553e-05
12 *134:10 *868:A 5.62995e-05
13 *299:10 *305:16 0
14 *301:20 *305:16 0
*RES
1 *1062:X *305:16 33.2821 
2 *305:16 *867:A 9.3 
3 *305:16 *868:A 11.925 
*END

*D_NET *306 0.000843357
*CONN
*I *903:A I *D sky130_fd_sc_hd__or2_1
*I *902:A I *D sky130_fd_sc_hd__nand2_1
*I *1063:X O *D sky130_fd_sc_hd__clkbuf_1
*CAP
1 *903:A 0
2 *902:A 0.000156468
3 *1063:X 0.000123683
4 *306:12 0.000280151
5 *902:A *900:A 9.7049e-06
6 *902:A *903:B 5.52302e-05
7 *902:A *912:A2 5.7661e-06
8 *306:12 *310:10 5.03694e-05
9 *306:12 *336:18 0.000150625
10 *165:10 *902:A 5.30637e-06
11 *175:10 *902:A 6.05161e-06
*RES
1 *1063:X *306:12 20.7821 
2 *306:12 *902:A 12.3357 
3 *306:12 *903:A 9.3 
*END

*D_NET *307 0.00144636
*CONN
*I *912:A1 I *D sky130_fd_sc_hd__a21oi_1
*I *900:A I *D sky130_fd_sc_hd__or2_1
*I *899:A I *D sky130_fd_sc_hd__nand2_1
*I *1064:X O *D sky130_fd_sc_hd__buf_1
*CAP
1 *912:A1 0
2 *900:A 0.000103352
3 *899:A 0.000181525
4 *1064:X 0.000204174
5 *307:21 0.000209464
6 *307:6 0.000491811
7 *900:A *912:A2 6.16274e-05
8 *900:A *321:27 5.62995e-05
9 *307:21 *321:27 0
10 *902:A *900:A 9.7049e-06
11 *175:10 *900:A 5.33334e-05
12 *301:20 *307:21 7.50697e-05
*RES
1 *1064:X *307:6 11.4786 
2 *307:6 *899:A 12.5143 
3 *307:6 *307:21 10.9464 
4 *307:21 *900:A 12.3357 
5 *307:21 *912:A1 9.3 
*END

*D_NET *308 0.000552552
*CONN
*I *898:A I *D sky130_fd_sc_hd__nand2_1
*I *897:A I *D sky130_fd_sc_hd__nor2_1
*I *1065:X O *D sky130_fd_sc_hd__clkbuf_1
*CAP
1 *898:A 1.16062e-05
2 *897:A 0
3 *1065:X 0.000103905
4 *308:12 0.000115511
5 *898:A *898:B 5.52302e-05
6 *898:A *365:22 5.52302e-05
7 *308:12 *332:12 7.73758e-05
8 *1089:A *308:12 3.18676e-05
9 *301:20 *308:12 0.000101826
*RES
1 *1065:X *308:12 20.7821 
2 *308:12 *897:A 9.3 
3 *308:12 *898:A 9.83571 
*END

*D_NET *309 0.00104082
*CONN
*I *895:A I *D sky130_fd_sc_hd__nand2_1
*I *894:A I *D sky130_fd_sc_hd__nor2_1
*I *1066:X O *D sky130_fd_sc_hd__clkbuf_1
*CAP
1 *895:A 0.000146007
2 *894:A 0
3 *1066:X 0.00022148
4 *309:12 0.000367487
5 *895:A *895:B 5.52238e-05
6 *895:A *365:22 6.4443e-05
7 *309:12 *321:10 0
8 *309:12 *332:12 5.71472e-05
9 *309:12 *343:12 7.60306e-05
10 *914:A *309:12 4.1331e-06
11 *914:B *309:12 0
12 *1089:A *309:12 4.88637e-05
*RES
1 *1066:X *309:12 22.0143 
2 *309:12 *894:A 9.3 
3 *309:12 *895:A 12.3357 
*END

*D_NET *310 0.00128527
*CONN
*I *903:B I *D sky130_fd_sc_hd__or2_1
*I *902:B I *D sky130_fd_sc_hd__nand2_1
*I *1067:X O *D sky130_fd_sc_hd__clkbuf_1
*CAP
1 *903:B 2.52056e-05
2 *902:B 0
3 *1067:X 0.000307569
4 *310:10 0.000332774
5 *310:10 *1105:A 5.80217e-05
6 *310:10 *336:18 0
7 *902:A *903:B 5.52302e-05
8 *916:A *310:10 4.58096e-05
9 *1064:A *310:10 9.09514e-05
10 *1093:A *310:10 0
11 *175:10 *310:10 0.0002463
12 *301:20 *310:10 7.30398e-05
13 *305:16 *310:10 0
14 *306:12 *310:10 5.03694e-05
*RES
1 *1067:X *310:10 27.5321 
2 *310:10 *902:B 9.3 
3 *310:10 *903:B 9.83571 
*END

*D_NET *311 0.0016406
*CONN
*I *928:A I *D sky130_fd_sc_hd__nand2_1
*I *929:A I *D sky130_fd_sc_hd__or2_1
*I *1068:X O *D sky130_fd_sc_hd__clkbuf_1
*CAP
1 *928:A 6.93973e-05
2 *929:A 0
3 *1068:X 0.00048216
4 *311:12 0.000551557
5 *928:A *929:B 5.71472e-05
6 *311:12 *354:18 0
7 *311:12 *372:16 0
8 *930:A *928:A 0
9 *930:B *311:12 5.52238e-05
10 *941:A *311:12 6.42242e-05
11 *957:B *311:12 5.44074e-05
12 *960:A2 *311:12 0
13 *960:B1 *311:12 0
14 *187:17 *928:A 4.14279e-05
15 *187:17 *311:12 0.00014285
16 *187:25 *311:12 4.38511e-05
17 *199:14 *311:12 2.8246e-05
18 *216:12 *311:12 5.01117e-05
*RES
1 *1068:X *311:12 28.5857 
2 *311:12 *929:A 9.3 
3 *311:12 *928:A 11.0857 
*END

*D_NET *312 0.000963142
*CONN
*I *925:A I *D sky130_fd_sc_hd__nand2_1
*I *938:A1 I *D sky130_fd_sc_hd__a21o_1
*I *926:A I *D sky130_fd_sc_hd__or2_1
*I *1069:X O *D sky130_fd_sc_hd__clkbuf_1
*CAP
1 *925:A 0
2 *938:A1 5.75184e-05
3 *926:A 0
4 *1069:X 0.000136165
5 *312:12 7.95285e-05
6 *312:10 0.000158175
7 *938:A1 *925:B 0
8 *938:A1 *938:A2 5.71472e-05
9 *938:A1 *365:26 4.7194e-05
10 *312:10 *1108:A 0
11 *312:10 *1109:A 0
12 *312:12 *365:26 0.00014285
13 *938:B1 *938:A1 0.000144773
14 *184:14 *938:A1 2.37575e-05
15 *184:14 *312:12 0.000116033
*RES
1 *1069:X *312:10 20.2464 
2 *312:10 *312:12 1.35714 
3 *312:12 *926:A 9.3 
4 *312:12 *938:A1 11.4964 
5 *312:10 *925:A 9.3 
*END

*D_NET *313 0.00169264
*CONN
*I *923:A I *D sky130_fd_sc_hd__or2_1
*I *924:A I *D sky130_fd_sc_hd__nand2_1
*I *1070:X O *D sky130_fd_sc_hd__clkbuf_1
*CAP
1 *923:A 0.000176386
2 *924:A 0.000294939
3 *1070:X 0
4 *313:4 0.000471325
5 *924:A *354:18 5.52238e-05
6 *923:B *923:A 2.44318e-05
7 *923:B *924:A 5.52238e-05
8 *939:A1 *924:A 1.65558e-05
9 *939:A2 *923:A 0.000184745
10 *939:B1_N *923:A 5.52302e-05
11 *941:A *923:A 5.10822e-05
12 *941:B *923:A 9.2244e-05
13 *941:B *924:A 3.69047e-06
14 *960:A2 *923:A 3.34366e-05
15 *1070:A *924:A 1.92905e-05
16 *182:6 *923:A 2.95726e-05
17 *183:21 *923:A 7.6644e-05
18 *278:12 *924:A 5.26184e-05
*RES
1 *1070:X *313:4 9.3 
2 *313:4 *924:A 22.9607 
3 *313:4 *923:A 22.8536 
*END

*D_NET *314 0.00179957
*CONN
*I *920:A I *D sky130_fd_sc_hd__nor2_1
*I *921:A I *D sky130_fd_sc_hd__nand2_1
*I *1071:X O *D sky130_fd_sc_hd__clkbuf_1
*CAP
1 *920:A 5.97195e-05
2 *921:A 0.000306879
3 *1071:X 0.000153459
4 *314:10 0.000520057
5 *920:A *1112:A 0
6 *921:A *1112:A 6.09572e-05
7 *921:A *354:18 0.0003986
8 *314:10 *1112:A 0
9 *922:A_N *920:A 0
10 *940:A *920:A 7.83659e-05
11 *940:A *314:10 5.41794e-05
12 *278:12 *314:10 5.71472e-05
13 *279:16 *920:A 4.16114e-05
14 *279:16 *314:10 6.85967e-05
*RES
1 *1071:X *314:10 16.8893 
2 *314:10 *921:A 27.8536 
3 *314:10 *920:A 15.4429 
*END

*D_NET *315 0.000943099
*CONN
*I *832:A I *D sky130_fd_sc_hd__and2_1
*I *837:A I *D sky130_fd_sc_hd__nor2_1
*I *1072:X O *D sky130_fd_sc_hd__clkbuf_1
*CAP
1 *832:A 0
2 *837:A 0.000223354
3 *1072:X 0.000248196
4 *315:10 0.00047155
5 *837:A *1127:A 0
6 *315:10 *1127:A 0
7 *837:B *837:A 0
8 *280:10 *837:A 0
9 *280:10 *315:10 0
*RES
1 *1072:X *315:10 17.2107 
2 *315:10 *837:A 17.7107 
3 *315:10 *832:A 13.8 
*END

*D_NET *316 0.00212293
*CONN
*I *954:A I *D sky130_fd_sc_hd__nand2_1
*I *955:A I *D sky130_fd_sc_hd__or2_1
*I *1073:X O *D sky130_fd_sc_hd__clkbuf_1
*CAP
1 *954:A 0
2 *955:A 0.000106889
3 *1073:X 0.000510538
4 *316:12 0.000617427
5 *316:12 *950:A 5.30637e-06
6 *954:B *955:A 9.04935e-05
7 *956:B *955:A 0.00014285
8 *965:A2 *316:12 0.000130025
9 *966:B *316:12 0.00014576
10 *985:A_N *316:12 4.97121e-06
11 *1075:A *316:12 0
12 *204:14 *316:12 0.000101545
13 *205:10 *316:12 4.25513e-05
14 *219:8 *316:12 0.000224577
*RES
1 *1073:X *316:12 26.9071 
2 *316:12 *955:A 12.3357 
3 *316:12 *954:A 9.3 
*END

*D_NET *317 0.00114116
*CONN
*I *951:A I *D sky130_fd_sc_hd__nand2_1
*I *952:A I *D sky130_fd_sc_hd__or2_1
*I *964:A1 I *D sky130_fd_sc_hd__a21o_1
*I *1074:X O *D sky130_fd_sc_hd__buf_1
*CAP
1 *951:A 0
2 *952:A 7.50851e-06
3 *964:A1 7.09557e-05
4 *1074:X 0.000140296
5 *317:14 0.00014654
6 *317:10 0.000208371
7 *317:14 *354:18 3.31749e-05
8 *951:B *952:A 3.41517e-06
9 *951:B *317:14 2.99326e-05
10 *1097:A *964:A1 0
11 *206:10 *964:A1 0.000182598
12 *206:10 *317:14 0.000174259
13 *282:21 *952:A 3.41517e-06
14 *282:21 *964:A1 8.61626e-05
15 *282:21 *317:14 5.45307e-05
*RES
1 *1074:X *317:10 20.2464 
2 *317:10 *317:14 2.60714 
3 *317:14 *964:A1 11.4964 
4 *317:14 *952:A 9.72857 
5 *317:10 *951:A 9.3 
*END

*D_NET *318 0.000755852
*CONN
*I *949:A I *D sky130_fd_sc_hd__or2_1
*I *950:A I *D sky130_fd_sc_hd__nand2_1
*I *1075:X O *D sky130_fd_sc_hd__clkbuf_1
*CAP
1 *949:A 0
2 *950:A 0.000123966
3 *1075:X 0.000103456
4 *318:12 0.000227422
5 *950:B *950:A 8.09128e-05
6 *1040:A *318:12 5.52238e-05
7 *204:14 *950:A 5.23057e-05
8 *205:10 *950:A 5.71472e-05
9 *219:8 *950:A 0
10 *283:10 *318:12 5.01117e-05
11 *316:12 *950:A 5.30637e-06
*RES
1 *1075:X *318:12 20.175 
2 *318:12 *950:A 12.6393 
3 *318:12 *949:A 9.3 
*END

*D_NET *319 0.000507881
*CONN
*I *946:A I *D sky130_fd_sc_hd__or2_1
*I *947:A I *D sky130_fd_sc_hd__nand2_1
*I *1076:X O *D sky130_fd_sc_hd__clkbuf_1
*CAP
1 *946:A 0.000116686
2 *947:A 8.01477e-05
3 *1076:X 0
4 *319:4 0.000196833
5 *947:A *1115:A 4.1331e-06
6 *946:B *947:A 0
7 *985:A_N *947:A 0
8 *1076:A *947:A 9.60337e-06
9 *201:16 *947:A 0.000100478
*RES
1 *1076:X *319:4 9.3 
2 *319:4 *947:A 19.9429 
3 *319:4 *946:A 11.0857 
*END

*D_NET *320 0.000794898
*CONN
*I *987:A I *D sky130_fd_sc_hd__or2_1
*I *979:A I *D sky130_fd_sc_hd__nand2_1
*I *1077:X O *D sky130_fd_sc_hd__clkbuf_1
*CAP
1 *987:A 3.72704e-05
2 *979:A 0.0001132
3 *1077:X 9.35446e-05
4 *320:8 0.000244015
5 *979:B *979:A 5.83233e-05
6 *987:B *979:A 0.00010326
7 *1014:A_N *320:8 0
8 *1042:A *979:A 5.71472e-05
9 *1077:A *320:8 5.92267e-05
10 *230:10 *979:A 0
11 *285:8 *979:A 2.89114e-05
*RES
1 *1077:X *320:8 15.7464 
2 *320:8 *979:A 16.5857 
3 *320:8 *987:A 14.3357 
*END

*D_NET *321 0.00239487
*CONN
*I *912:A2 I *D sky130_fd_sc_hd__a21oi_1
*I *900:B I *D sky130_fd_sc_hd__or2_1
*I *899:B I *D sky130_fd_sc_hd__nand2_1
*I *1078:X O *D sky130_fd_sc_hd__buf_1
*CAP
1 *912:A2 0.000158838
2 *900:B 0
3 *899:B 0
4 *1078:X 0.000589274
5 *321:27 0.000443675
6 *321:10 0.000874111
7 *321:10 *332:12 5.71472e-05
8 *900:A *912:A2 6.16274e-05
9 *900:A *321:27 5.62995e-05
10 *901:A *321:10 0
11 *901:A *321:27 0
12 *902:A *912:A2 5.7661e-06
13 *913:A1 *321:10 6.91215e-06
14 *914:A *321:10 0
15 *914:B *321:10 7.6021e-05
16 *932:A1 *321:10 0
17 *932:A2 *321:10 4.03318e-05
18 *932:B1 *321:10 0
19 *933:A2 *321:10 0
20 *160:10 *321:10 0
21 *165:10 *912:A2 1.33343e-05
22 *175:10 *912:A2 1.15281e-05
23 *301:20 *321:10 0
24 *301:20 *321:27 0
25 *307:21 *321:27 0
26 *309:12 *321:10 0
*RES
1 *1078:X *321:10 23.2643 
2 *321:10 *899:B 13.8 
3 *321:10 *321:27 9.67857 
4 *321:27 *900:B 9.3 
5 *321:27 *912:A2 12.4786 
*END

*D_NET *322 0.000534721
*CONN
*I *977:A I *D sky130_fd_sc_hd__or2_1
*I *976:A I *D sky130_fd_sc_hd__nand2_1
*I *1079:X O *D sky130_fd_sc_hd__clkbuf_1
*CAP
1 *977:A 9.93284e-05
2 *976:A 0.00011726
3 *1079:X 0
4 *322:4 0.000216588
5 *977:B *977:A 0.000101545
6 *227:29 *977:A 0
*RES
1 *1079:X *322:4 9.3 
2 *322:4 *976:A 11.5143 
3 *322:4 *977:A 20.175 
*END

*D_NET *323 0.00306211
*CONN
*I *1016:B1 I *D sky130_fd_sc_hd__a22o_1
*I *974:A I *D sky130_fd_sc_hd__nor2_1
*I *975:A I *D sky130_fd_sc_hd__nand2_1
*I *1080:X O *D sky130_fd_sc_hd__buf_1
*CAP
1 *1016:B1 0
2 *974:A 9.46297e-05
3 *975:A 1.36355e-05
4 *1080:X 0.000565357
5 *323:22 0.000472845
6 *323:16 0.000929937
7 *323:16 *1124:A 0.000135696
8 *323:16 *324:12 0.000148189
9 *323:16 *334:6 0.000284038
10 *323:22 *324:12 1.02504e-05
11 sum[26] *323:22 2.06178e-05
12 *973:B *323:22 7.80968e-05
13 *975:B *974:A 3.01979e-05
14 *975:B *975:A 1.61893e-05
15 *975:B *323:22 5.62995e-05
16 *1032:A *323:16 0.000113381
17 *1091:A *323:16 7.72412e-05
18 *1091:A *323:22 9.60337e-06
19 *287:8 *323:16 0
20 *287:12 *323:22 0
21 *289:8 *323:22 5.90443e-06
*RES
1 *1080:X *323:16 36.6036 
2 *323:16 *323:22 11.25 
3 *323:22 *975:A 9.72857 
4 *323:22 *974:A 11.0857 
5 *323:16 *1016:B1 13.8 
*END

*D_NET *324 0.0022862
*CONN
*I *1017:A1 I *D sky130_fd_sc_hd__o21ai_1
*I *973:A I *D sky130_fd_sc_hd__xnor2_1
*I *1016:A1 I *D sky130_fd_sc_hd__a22o_1
*I *1081:X O *D sky130_fd_sc_hd__buf_1
*CAP
1 *1017:A1 0
2 *973:A 0.000157629
3 *1016:A1 0
4 *1081:X 0.000243481
5 *324:21 0.000290379
6 *324:12 0.000376231
7 *973:A *1118:A 5.71472e-05
8 *1000:B *324:12 0.000148911
9 *1016:A2 *324:21 5.52238e-05
10 *1016:B2 *324:21 0.000181803
11 *1017:A2 *324:21 0.000183726
12 *1046:A *324:12 5.52238e-05
13 *1081:A *324:12 0.000113131
14 *224:10 *973:A 0
15 *264:6 *324:21 1.39726e-05
16 *287:12 *973:A 7.95674e-05
17 *289:8 *324:12 0.000171334
18 *323:16 *324:12 0.000148189
19 *323:22 *324:12 1.02504e-05
*RES
1 *1081:X *324:12 25.0321 
2 *324:12 *1016:A1 9.3 
3 *324:12 *324:21 3.42857 
4 *324:21 *973:A 21.6929 
5 *324:21 *1017:A1 9.3 
*END

*D_NET *325 0.00216028
*CONN
*I *1009:A I *D sky130_fd_sc_hd__and2_1
*I *1010:A I *D sky130_fd_sc_hd__nand2_1
*I *1011:A I *D sky130_fd_sc_hd__nor2_1
*I *1082:X O *D sky130_fd_sc_hd__buf_1
*CAP
1 *1009:A 0
2 *1010:A 1.46425e-05
3 *1011:A 0
4 *1082:X 0.000407636
5 *325:18 0.000109127
6 *325:12 0.00050212
7 *325:12 *326:16 4.78056e-05
8 *1006:B *325:12 1.23589e-05
9 *1008:C *325:12 0
10 *1009:B *325:18 3.17016e-05
11 *1011:B *325:18 1.61893e-05
12 *1023:A3 *325:12 0.00012401
13 *1026:B1 *325:12 0.000125724
14 *254:12 *325:12 0
15 *266:10 *325:12 0.000389861
16 *290:19 *1010:A 5.71472e-05
17 *290:19 *325:18 4.3852e-05
18 *291:43 *325:12 5.52238e-05
19 *298:14 *325:12 0.000222878
*RES
1 *1082:X *325:12 27.7643 
2 *325:12 *325:18 2.21429 
3 *325:18 *1011:A 9.3 
4 *325:18 *1010:A 9.83571 
5 *325:12 *1009:A 9.3 
*END

*D_NET *326 0.00346779
*CONN
*I *1003:A I *D sky130_fd_sc_hd__nand2_1
*I *1007:A I *D sky130_fd_sc_hd__or2_1
*I *1006:A I *D sky130_fd_sc_hd__nor2_1
*I *1083:X O *D sky130_fd_sc_hd__buf_1
*CAP
1 *1003:A 7.58092e-05
2 *1007:A 0
3 *1006:A 0
4 *1083:X 0.000866271
5 *326:23 0.000114925
6 *326:16 0.000905387
7 *326:16 *328:10 0.000209278
8 *1003:B *1003:A 5.52302e-05
9 *1006:B *326:16 9.91224e-05
10 *1023:A2 *326:16 1.02821e-05
11 *1023:A2 *326:23 5.33005e-05
12 *1023:B1 *326:16 5.71472e-05
13 *1025:A *1003:A 2.44318e-05
14 *1085:A *326:16 2.96992e-05
15 *248:10 *326:16 0.000230475
16 *250:8 *1003:A 9.60771e-05
17 *250:8 *326:16 9.71197e-05
18 *250:8 *326:23 6.25993e-05
19 *257:23 *1003:A 6.58597e-05
20 *257:23 *326:23 0.000142856
21 *291:20 *326:16 0.000129953
22 *291:43 *1003:A 5.33005e-05
23 *291:43 *326:16 4.08637e-05
24 *325:12 *326:16 4.78056e-05
*RES
1 *1083:X *326:16 31.7107 
2 *326:16 *1006:A 9.3 
3 *326:16 *326:23 1.76786 
4 *326:23 *1007:A 9.3 
5 *326:23 *1003:A 12.3357 
*END

*D_NET *327 0.00117702
*CONN
*I *828:A I *D sky130_fd_sc_hd__nand2_1
*I *830:A I *D sky130_fd_sc_hd__nor2_1
*I *1084:X O *D sky130_fd_sc_hd__clkbuf_1
*CAP
1 *828:A 0.000202085
2 *830:A 2.23854e-05
3 *1084:X 0.000224048
4 *327:8 0.000448519
5 *830:B *828:A 0
6 *1052:A *327:8 5.33005e-05
7 *105:10 *327:8 8.86947e-05
8 *302:10 *327:8 0.000137983
*RES
1 *1084:X *327:8 13.55 
2 *327:8 *830:A 9.72857 
3 *327:8 *828:A 21.1929 
*END

*D_NET *328 0.00290029
*CONN
*I *1001:A I *D sky130_fd_sc_hd__nor2_1
*I *1002:A I *D sky130_fd_sc_hd__nand2_1
*I *1030:B1 I *D sky130_fd_sc_hd__o211a_1
*I *1085:X O *D sky130_fd_sc_hd__buf_1
*CAP
1 *1001:A 0
2 *1002:A 5.0895e-05
3 *1030:B1 0.000289308
4 *1085:X 0.000187673
5 *328:14 0.000442259
6 *328:10 0.000289728
7 *328:10 *1124:A 0.000186669
8 *328:14 *1099:A 0
9 *1001:B *328:10 1.97695e-05
10 *1002:B *1030:B1 6.95684e-05
11 *1032:B *1002:A 2.89016e-05
12 *1033:A1 *1002:A 5.33005e-05
13 *1033:A1 *1030:B1 0.000144773
14 *1033:A2 *1002:A 0
15 *1033:B1 *1002:A 0
16 *1080:A *1002:A 5.41794e-05
17 *1080:A *328:14 0.000173097
18 *1083:A *1030:B1 0
19 *1083:A *328:10 3.63587e-05
20 *1085:A *328:10 9.99853e-05
21 *248:10 *328:10 0.000354098
22 *291:20 *328:10 0.000210446
23 *293:12 *1002:A 0
24 *293:12 *328:14 0
25 *326:16 *328:10 0.000209278
*RES
1 *1085:X *328:10 17.2643 
2 *328:10 *328:14 6.75 
3 *328:14 *1030:B1 19.0143 
4 *328:14 *1002:A 15.0679 
5 *328:10 *1001:A 9.3 
*END

*D_NET *329 0.00221778
*CONN
*I *1031:A1 I *D sky130_fd_sc_hd__a21oi_1
*I *1030:A1 I *D sky130_fd_sc_hd__o211a_1
*I *1000:A I *D sky130_fd_sc_hd__xor2_1
*I *1086:X O *D sky130_fd_sc_hd__buf_1
*CAP
1 *1031:A1 0
2 *1030:A1 4.38939e-05
3 *1000:A 0.000256673
4 *1086:X 0
5 *329:25 0.000242829
6 *329:6 0.000455609
7 *1000:B *1000:A 2.59355e-05
8 *1030:A2 *1030:A1 0.000150618
9 *1032:A *1000:A 5.33978e-05
10 *1032:A *329:25 0.000144633
11 *1032:B *329:25 0
12 *1033:B1 *329:25 0.00022459
13 *1051:A *329:25 0.000137427
14 *1055:A *329:25 3.15739e-05
15 *1086:A *1030:A1 0.000152333
16 *247:8 *1000:A 0.00014183
17 *287:8 *1000:A 5.33978e-05
18 *287:8 *329:25 0.000103041
*RES
1 *1086:X *329:6 13.8 
2 *329:6 *1000:A 18.5679 
3 *329:6 *329:25 10.8571 
4 *329:25 *1030:A1 20.2464 
5 *329:25 *1031:A1 9.3 
*END

*D_NET *330 0.000762171
*CONN
*I *826:A I *D sky130_fd_sc_hd__nand2_1
*I *825:A I *D sky130_fd_sc_hd__nor2_1
*I *1087:X O *D sky130_fd_sc_hd__clkbuf_1
*CAP
1 *826:A 0
2 *825:A 0.000171924
3 *1087:X 0.000124827
4 *330:10 0.000296751
5 *330:10 *1122:A 0
6 *826:B *825:A 0.000156473
7 *1087:A *330:10 1.21955e-05
8 *101:14 *330:10 0
*RES
1 *1087:X *330:10 20.2464 
2 *330:10 *825:A 12.7464 
3 *330:10 *826:A 9.3 
*END

*D_NET *331 0.0021358
*CONN
*I *851:A I *D sky130_fd_sc_hd__nand2_1
*I *852:A I *D sky130_fd_sc_hd__or2_1
*I *1088:X O *D sky130_fd_sc_hd__clkbuf_1
*CAP
1 *851:A 0
2 *852:A 6.99052e-05
3 *1088:X 0.000617374
4 *331:12 0.000687279
5 *331:12 *374:14 0.000153655
6 *827:A_N *331:12 0.000150618
7 *840:A1 *331:12 3.97677e-05
8 *841:B *331:12 9.71197e-05
9 *852:B *852:A 5.71472e-05
10 *853:B *331:12 0
11 *854:A2 *331:12 3.34366e-05
12 *103:21 *331:12 5.04705e-05
13 *122:14 *331:12 0.000125724
14 *276:25 *331:12 5.33005e-05
*RES
1 *1088:X *331:12 30.8714 
2 *331:12 *852:A 10.6571 
3 *331:12 *851:A 9.3 
*END

*D_NET *332 0.00170935
*CONN
*I *897:B I *D sky130_fd_sc_hd__nor2_1
*I *898:B I *D sky130_fd_sc_hd__nand2_1
*I *1089:X O *D sky130_fd_sc_hd__clkbuf_1
*CAP
1 *897:B 0
2 *898:B 8.12504e-05
3 *1089:X 0.000279643
4 *332:12 0.000360893
5 *898:B *1106:A 0.000224596
6 *898:B *365:22 0.000108421
7 *332:12 *1106:A 0
8 *898:A *898:B 5.52302e-05
9 *1067:A *898:B 0
10 *1089:A *332:12 0.00040765
11 *308:12 *332:12 7.73758e-05
12 *309:12 *332:12 5.71472e-05
13 *321:10 *332:12 5.71472e-05
*RES
1 *1089:X *332:12 24.3714 
2 *332:12 *898:B 12.3357 
3 *332:12 *897:B 9.3 
*END

*D_NET *333 0.000917355
*CONN
*I *847:A I *D sky130_fd_sc_hd__and2_1
*I *849:A I *D sky130_fd_sc_hd__nor2_1
*I *1090:X O *D sky130_fd_sc_hd__clkbuf_1
*CAP
1 *847:A 0
2 *849:A 0.000131141
3 *1090:X 0.000247401
4 *333:12 0.000378541
5 *333:12 *1128:A 0
6 *847:B *849:A 7.82548e-05
7 *1054:A *333:12 3.69047e-06
8 *297:12 *333:12 7.8327e-05
*RES
1 *1090:X *333:12 22.0143 
2 *333:12 *849:A 11.925 
3 *333:12 *847:A 9.3 
*END

*D_NET *334 0.00534239
*CONN
*I *846:A I *D sky130_fd_sc_hd__xor2_1
*I *861:A1 I *D sky130_fd_sc_hd__a21oi_1
*I *878:B1 I *D sky130_fd_sc_hd__a22o_1
*I *1091:X O *D sky130_fd_sc_hd__buf_1
*CAP
1 *846:A 0.000173658
2 *861:A1 0.000218439
3 *878:B1 0
4 *1091:X 0.00145439
5 *334:12 0.000289596
6 *334:6 0.0016992
7 *334:6 *1120:A 3.06878e-06
8 *846:B *846:A 0.000320024
9 *846:B *334:6 1.02821e-05
10 *861:A2 *861:A1 0.000218236
11 *1019:B1 *334:6 0.000137561
12 *1021:A2 *334:6 3.18676e-05
13 *258:12 *334:6 0.000427185
14 *265:14 *334:6 2.14658e-05
15 *298:18 *334:12 5.33786e-05
16 *323:16 *334:6 0.000284038
*RES
1 *1091:X *334:6 27.9071 
2 *334:6 *334:12 10.3393 
3 *334:12 *878:B1 9.3 
4 *334:12 *861:A1 13.5321 
5 *334:6 *846:A 13.4429 
*END

*D_NET *335 0.00513811
*CONN
*I *878:A1 I *D sky130_fd_sc_hd__a22o_1
*I *879:A1 I *D sky130_fd_sc_hd__o21ai_1
*I *845:A I *D sky130_fd_sc_hd__xor2_1
*I *1092:X O *D sky130_fd_sc_hd__buf_1
*CAP
1 *878:A1 0.000111266
2 *879:A1 3.43432e-05
3 *845:A 0
4 *1092:X 0.00152495
5 *335:27 0.000266048
6 *335:18 0.00164538
7 *878:A2 *878:A1 0.000225314
8 *878:A2 *335:27 9.25014e-06
9 *978:B *335:18 8.66063e-05
10 *1012:A *335:18 3.50312e-05
11 *1015:A1 *335:18 0.000100625
12 *1015:C1 *335:18 9.99644e-06
13 *228:6 *335:18 5.52238e-05
14 *262:10 *335:18 6.4549e-05
15 *298:18 *878:A1 4.1331e-06
16 *300:20 *335:18 0.000810634
17 *300:37 *335:18 3.51442e-05
18 *300:37 *335:27 0.000119618
*RES
1 *1092:X *335:18 41.9071 
2 *335:18 *845:A 13.8 
3 *335:18 *335:27 2.25 
4 *335:27 *879:A1 14.3357 
5 *335:27 *878:A1 16.6571 
*END

*D_NET *336 0.00515853
*CONN
*I *876:A I *D sky130_fd_sc_hd__and2_1
*I *883:A I *D sky130_fd_sc_hd__nor2_1
*I *1093:X O *D sky130_fd_sc_hd__buf_1
*CAP
1 *876:A 0
2 *883:A 9.43251e-05
3 *1093:X 0.00112983
4 *336:28 0.00031273
5 *336:18 0.00134824
6 *336:18 *1103:A 1.02504e-05
7 sum[12] *336:18 2.26973e-05
8 sum[13] *336:18 5.7903e-06
9 *867:B *336:18 0.000186662
10 *876:B *883:A 3.99614e-06
11 *883:B *883:A 8.64974e-05
12 *904:B *336:18 0.000149762
13 *905:A *336:18 1.52978e-05
14 *919:A *336:28 0.00014285
15 *1064:A *336:18 8.74324e-05
16 *135:10 *336:18 4.51641e-05
17 *143:10 *883:A 3.18676e-05
18 *167:10 *336:18 2.26327e-05
19 *173:12 *336:18 0
20 *301:20 *883:A 5.62995e-05
21 *301:20 *336:18 0.000483633
22 *301:20 *336:28 0.000147185
23 *305:16 *336:18 0.000624758
24 *306:12 *336:18 0.000150625
25 *310:10 *336:18 0
*RES
1 *1093:X *336:18 49.8714 
2 *336:18 *336:28 5.33929 
3 *336:28 *883:A 11.9071 
4 *336:28 *876:A 9.3 
*END

*D_NET *337 0.00120438
*CONN
*I *873:A I *D sky130_fd_sc_hd__nand2_1
*I *874:A I *D sky130_fd_sc_hd__or2_1
*I *1094:X O *D sky130_fd_sc_hd__clkbuf_1
*CAP
1 *873:A 5.50959e-05
2 *874:A 3.2467e-05
3 *1094:X 0.000300605
4 *337:8 0.000388168
5 *873:B *873:A 0.000153047
6 *890:A *337:8 0.00014285
7 *140:23 *873:A 6.74815e-05
8 *154:8 *874:A 1.92789e-05
9 *154:8 *337:8 4.53889e-05
*RES
1 *1094:X *337:8 14.3714 
2 *337:8 *874:A 9.83571 
3 *337:8 *873:A 20.2464 
*END

*D_NET *338 0.00254157
*CONN
*I *844:A I *D sky130_fd_sc_hd__xnor2_1
*I *836:A1 I *D sky130_fd_sc_hd__a21bo_1
*I *1095:X O *D sky130_fd_sc_hd__buf_1
*CAP
1 *844:A 0
2 *836:A1 0.000223184
3 *1095:X 0.000389916
4 *338:14 0.0006131
5 *338:14 *1100:A 6.49118e-05
6 *338:14 *1122:A 9.25014e-06
7 *833:B *836:A1 0.000123513
8 *836:A2 *836:A1 6.4443e-05
9 *836:B1_N *836:A1 5.52302e-05
10 *844:B *836:A1 0.000279852
11 *1034:A *338:14 4.63078e-05
12 *103:12 *338:14 6.05161e-06
13 *277:12 *836:A1 0.000185643
14 *277:12 *338:14 0.000318061
15 *292:10 *338:14 0.000162106
*RES
1 *1095:X *338:14 25.425 
2 *338:14 *836:A1 15.7464 
3 *338:14 *844:A 9.3 
*END

*D_NET *339 0.000380833
*CONN
*I *1099:A I *D sky130_fd_sc_hd__buf_2
*I *1033:Y O *D sky130_fd_sc_hd__o21ai_1
*CAP
1 *1099:A 0.000100954
2 *1033:Y 0.000100954
3 *1001:B *1099:A 5.52302e-05
4 *1055:A *1099:A 2.91887e-05
5 *291:20 *1099:A 5.52302e-05
6 *293:12 *1099:A 3.92757e-05
7 *328:14 *1099:A 0
*RES
1 *1033:Y *1099:A 30.0821 
*END

*D_NET *340 0.000692874
*CONN
*I *1100:A I *D sky130_fd_sc_hd__buf_2
*I *844:Y O *D sky130_fd_sc_hd__xnor2_1
*CAP
1 *1100:A 0.000241119
2 *844:Y 0.000241119
3 *1100:A *1122:A 1.92905e-05
4 sum[0] *1100:A 2.51895e-05
5 *1052:A *1100:A 0
6 *103:12 *1100:A 2.13481e-06
7 *292:10 *1100:A 9.91086e-05
8 *338:14 *1100:A 6.49118e-05
*RES
1 *844:Y *1100:A 31.3143 
*END

*D_NET *341 0.000378418
*CONN
*I *1101:A I *D sky130_fd_sc_hd__buf_2
*I *890:Y O *D sky130_fd_sc_hd__xnor2_1
*CAP
1 *1101:A 0.000189209
2 *890:Y 0.000189209
3 sum[10] *1101:A 0
4 *302:10 *1101:A 0
*RES
1 *890:Y *1101:A 30.7964 
*END

*D_NET *342 0.00076165
*CONN
*I *1102:A I *D sky130_fd_sc_hd__buf_2
*I *889:Y O *D sky130_fd_sc_hd__xnor2_1
*CAP
1 *1102:A 0.000267975
2 *889:Y 0.000267975
3 *869:A_N *1102:A 9.90367e-05
4 *869:B *1102:A 6.9517e-05
5 *136:6 *1102:A 5.71472e-05
*RES
1 *889:Y *1102:A 23.2786 
*END

*D_NET *343 0.000469946
*CONN
*I *894:B I *D sky130_fd_sc_hd__nor2_1
*I *895:B I *D sky130_fd_sc_hd__nand2_1
*I *1096:X O *D sky130_fd_sc_hd__clkbuf_1
*CAP
1 *894:B 0
2 *895:B 1.40568e-05
3 *1096:X 0.000140838
4 *343:12 0.000154895
5 *895:B *365:22 2.89016e-05
6 *343:12 *1108:A 0
7 *895:A *895:B 5.52238e-05
8 *309:12 *343:12 7.60306e-05
*RES
1 *1096:X *343:12 20.7821 
2 *343:12 *895:B 9.83571 
3 *343:12 *894:B 9.3 
*END

*D_NET *344 0.00144252
*CONN
*I *1103:A I *D sky130_fd_sc_hd__buf_2
*I *919:Y O *D sky130_fd_sc_hd__xnor2_1
*CAP
1 *1103:A 0.000651199
2 *919:Y 0.000651199
3 *167:10 *1103:A 0.000129868
4 *173:12 *1103:A 0
5 *336:18 *1103:A 1.02504e-05
*RES
1 *919:Y *1103:A 38.8143 
*END

*D_NET *345 0.000779395
*CONN
*I *1104:A I *D sky130_fd_sc_hd__buf_2
*I *918:Y O *D sky130_fd_sc_hd__nor2_1
*CAP
1 *1104:A 0.000153124
2 *918:Y 0.000153124
3 *904:B *1104:A 4.22908e-05
4 *912:B1 *1104:A 9.90367e-05
5 *165:14 *1104:A 0.000271345
6 *167:10 *1104:A 4.30382e-05
7 *174:8 *1104:A 1.74352e-05
*RES
1 *918:Y *1104:A 22.85 
*END

*D_NET *346 0.000396854
*CONN
*I *1105:A I *D sky130_fd_sc_hd__buf_2
*I *916:X O *D sky130_fd_sc_hd__xor2_1
*CAP
1 *1105:A 0.000148125
2 *916:X 0.000148125
3 *1105:A *365:22 3.34295e-05
4 *1062:A *1105:A 9.15186e-06
5 *1093:A *1105:A 0
6 *301:20 *1105:A 0
7 *310:10 *1105:A 5.80217e-05
*RES
1 *916:X *1105:A 30.6893 
*END

*D_NET *347 0.000871662
*CONN
*I *1106:A I *D sky130_fd_sc_hd__buf_2
*I *914:Y O *D sky130_fd_sc_hd__xnor2_1
*CAP
1 *1106:A 0.000286238
2 *914:Y 0.000286238
3 *1106:A *365:22 2.9561e-05
4 *898:B *1106:A 0.000224596
5 *1065:A *1106:A 0
6 *1093:A *1106:A 0
7 *1098:A *1106:A 0
8 *301:20 *1106:A 4.50288e-05
9 *332:12 *1106:A 0
*RES
1 *914:Y *1106:A 32.85 
*END

*D_NET *348 0.00178326
*CONN
*I *1107:A I *D sky130_fd_sc_hd__buf_2
*I *945:X O *D sky130_fd_sc_hd__xor2_1
*CAP
1 *1107:A 0.0007054
2 *945:X 0.0007054
3 *1107:A *1109:A 0
4 *1107:A *372:16 0
5 *937:A1 *1107:A 0
6 *944:B *1107:A 0
7 *959:B1 *1107:A 0.000318309
8 *189:12 *1107:A 0
9 *189:19 *1107:A 5.41494e-05
10 *212:12 *1107:A 0
*RES
1 *945:X *1107:A 40.6179 
*END

*D_NET *349 0.00114659
*CONN
*I *1108:A I *D sky130_fd_sc_hd__buf_2
*I *944:Y O *D sky130_fd_sc_hd__nor2_1
*CAP
1 *1108:A 0.000573293
2 *944:Y 0.000573293
3 *927:B *1108:A 0
4 *932:C1 *1108:A 0
5 *1096:A *1108:A 0
6 *158:8 *1108:A 0
7 *312:10 *1108:A 0
8 *343:12 *1108:A 0
*RES
1 *944:Y *1108:A 36.5107 
*END

*D_NET *350 0.000969694
*CONN
*I *1109:A I *D sky130_fd_sc_hd__buf_2
*I *942:Y O *D sky130_fd_sc_hd__xnor2_1
*CAP
1 *1109:A 0.000372198
2 *942:Y 0.000372198
3 *938:B1 *1109:A 2.51343e-06
4 *1069:A *1109:A 0
5 *1107:A *1109:A 0
6 *197:6 *1109:A 0.000222784
7 *312:10 *1109:A 0
*RES
1 *942:Y *1109:A 34.4929 
*END

*D_NET *351 0.00250303
*CONN
*I *1110:A I *D sky130_fd_sc_hd__buf_2
*I *940:Y O *D sky130_fd_sc_hd__xnor2_1
*CAP
1 *1110:A 0.000284297
2 *940:Y 0.000284297
3 *1110:A *1113:A 0.000123359
4 *1110:A *1114:A 0.000274294
5 *1041:A *1110:A 9.41642e-05
6 *1074:A *1110:A 5.52302e-05
7 *278:12 *1110:A 0.00105089
8 *279:16 *1110:A 0.000336497
*RES
1 *940:Y *1110:A 39.6536 
*END

*D_NET *352 0.00121405
*CONN
*I *1111:A I *D sky130_fd_sc_hd__buf_2
*I *843:X O *D sky130_fd_sc_hd__xor2_1
*CAP
1 *1111:A 0.000484072
2 *843:X 0.000484072
3 *1111:A *1130:A 0
4 *835:A *1111:A 0
5 *836:A2 *1111:A 1.33343e-05
6 *838:A *1111:A 0.000144773
7 *111:16 *1111:A 8.78006e-05
*RES
1 *843:X *1111:A 34.6 
*END

*D_NET *353 0.00180639
*CONN
*I *1112:A I *D sky130_fd_sc_hd__buf_2
*I *972:X O *D sky130_fd_sc_hd__and2_1
*CAP
1 *1112:A 0.000617613
2 *972:X 0.000617613
3 *1112:A *354:18 0
4 *920:A *1112:A 0
5 *921:A *1112:A 6.09572e-05
6 *922:A_N *1112:A 5.58941e-05
7 *941:B *1112:A 0
8 *960:A1 *1112:A 0.000126446
9 *960:A2 *1112:A 0
10 *960:C1 *1112:A 0.00015234
11 *1070:A *1112:A 0
12 *278:12 *1112:A 0.000175526
13 *279:16 *1112:A 0
14 *314:10 *1112:A 0
*RES
1 *972:X *1112:A 38.6 
*END

*D_NET *354 0.00455777
*CONN
*I *928:B I *D sky130_fd_sc_hd__nand2_1
*I *929:B I *D sky130_fd_sc_hd__or2_1
*I *1097:X O *D sky130_fd_sc_hd__buf_1
*CAP
1 *928:B 0
2 *929:B 6.98901e-05
3 *1097:X 0.00140379
4 *354:18 0.00147368
5 *921:A *354:18 0.0003986
6 *923:B *354:18 9.50861e-05
7 *924:A *354:18 5.52238e-05
8 *928:A *929:B 5.71472e-05
9 *940:A *354:18 0.000312209
10 *940:B *354:18 0.000117842
11 *951:B *354:18 0
12 *960:A2 *354:18 0
13 *960:B1 *354:18 6.75007e-05
14 *960:C1 *354:18 0
15 *1112:A *354:18 0
16 *187:17 *929:B 9.90431e-05
17 *206:10 *354:18 0.000357285
18 *219:8 *354:18 1.72894e-05
19 *311:12 *354:18 0
20 *317:14 *354:18 3.31749e-05
*RES
1 *1097:X *354:18 42.8357 
2 *354:18 *929:B 11.0857 
3 *354:18 *928:B 9.3 
*END

*D_NET *355 0.00118562
*CONN
*I *1113:A I *D sky130_fd_sc_hd__buf_2
*I *970:Y O *D sky130_fd_sc_hd__nor2_1
*CAP
1 *1113:A 0.000335256
2 *970:Y 0.000335256
3 *1113:A *358:16 0.000335653
4 *964:B1 *1113:A 5.60962e-05
5 *1110:A *1113:A 0.000123359
*RES
1 *970:Y *1113:A 33.7429 
*END

*D_NET *356 0.00132471
*CONN
*I *1114:A I *D sky130_fd_sc_hd__buf_2
*I *968:Y O *D sky130_fd_sc_hd__xnor2_1
*CAP
1 *1114:A 0.000281271
2 *968:Y 0.000281271
3 *1039:A *1114:A 4.46186e-06
4 *1073:A *1114:A 3.97677e-05
5 *1097:A *1114:A 0.00015346
6 *1110:A *1114:A 0.000274294
7 *219:8 *1114:A 1.39726e-05
8 *279:16 *1114:A 0.000276211
9 *282:12 *1114:A 0
*RES
1 *968:Y *1114:A 34.6179 
*END

*D_NET *357 0.000620291
*CONN
*I *1115:A I *D sky130_fd_sc_hd__buf_2
*I *966:Y O *D sky130_fd_sc_hd__xnor2_1
*CAP
1 *1115:A 0.000283508
2 *966:Y 0.000283508
3 sum[23] *1115:A 3.15282e-05
4 *946:B *1115:A 1.76135e-05
5 *947:A *1115:A 4.1331e-06
6 *985:A_N *1115:A 0
*RES
1 *966:Y *1115:A 31.3143 
*END

*D_NET *358 0.00700304
*CONN
*I *1116:A I *D sky130_fd_sc_hd__buf_2
*I *999:X O *D sky130_fd_sc_hd__and2_1
*CAP
1 *1116:A 0.00159972
2 *999:X 0.00134216
3 *358:16 0.00294189
4 sum[21] *358:16 7.56935e-05
5 sum[25] *1116:A 0
6 *956:B *358:16 0
7 *963:A2 *358:16 5.66157e-05
8 *972:B *358:16 0
9 *982:A1 *358:16 5.33882e-05
10 *982:A2 *358:16 2.37761e-05
11 *989:A1 *358:16 6.97959e-05
12 *1035:A *1116:A 0
13 *1036:A *1116:A 2.86908e-05
14 *1113:A *358:16 0.000335653
15 *217:12 *358:16 6.23879e-05
16 *217:16 *358:16 0.000142082
17 *233:10 *358:16 7.54868e-05
18 *237:10 *358:16 0.000195698
19 *279:16 *358:16 0
*RES
1 *999:X *358:16 47.2107 
2 *358:16 *1116:A 40.9964 
*END

*D_NET *359 0.00404365
*CONN
*I *1117:A I *D sky130_fd_sc_hd__buf_2
*I *997:X O *D sky130_fd_sc_hd__and2_1
*CAP
1 *1117:A 0
2 *997:X 0.00126713
3 *359:16 0.00126713
4 *964:B1 *359:16 0
5 *984:B *359:16 0
6 *986:A *359:16 0.000150625
7 *986:B *359:16 0
8 *997:B *359:16 2.8266e-06
9 *1035:A *359:16 4.37931e-05
10 *1036:A *359:16 2.77126e-05
11 *1076:A *359:16 0
12 *1097:A *359:16 0.000125731
13 *206:10 *359:16 0
14 *229:10 *359:16 0
15 *230:10 *359:16 0
16 *240:8 *359:16 5.52302e-05
17 *278:12 *359:16 0.000226513
18 *279:16 *359:16 2.24763e-05
19 *284:16 *359:16 0.000854472
*RES
1 *997:X *359:16 43.1571 
2 *359:16 *1117:A 9.3 
*END

*D_NET *360 0.0020655
*CONN
*I *1118:A I *D sky130_fd_sc_hd__buf_2
*I *995:Y O *D sky130_fd_sc_hd__xnor2_1
*CAP
1 *1118:A 0.000713178
2 *995:Y 0.000713178
3 *973:A *1118:A 5.71472e-05
4 *973:B *1118:A 7.61932e-05
5 *992:B *1118:A 5.7661e-06
6 *994:B *1118:A 0.000177227
7 *995:B *1118:A 5.33005e-05
8 *224:10 *1118:A 0.000236235
9 *225:10 *1118:A 0
10 *243:12 *1118:A 3.32731e-05
11 *287:12 *1118:A 0
*RES
1 *995:Y *1118:A 41.3679 
*END

*D_NET *361 0.00110378
*CONN
*I *1119:A I *D sky130_fd_sc_hd__buf_2
*I *994:X O *D sky130_fd_sc_hd__xor2_1
*CAP
1 *1119:A 0.000526977
2 *994:X 0.000526977
3 sum[27] *1119:A 9.60337e-06
4 *226:12 *1119:A 3.92854e-05
5 *286:10 *1119:A 9.33978e-07
6 *287:12 *1119:A 0
*RES
1 *994:X *1119:A 34.1893 
*END

*D_NET *362 0.00177343
*CONN
*I *1120:A I *D sky130_fd_sc_hd__buf_2
*I *1029:Y O *D sky130_fd_sc_hd__nor2_1
*CAP
1 *1120:A 0.000681312
2 *1029:Y 0.000681312
3 *1120:A *1123:A 0
4 *1004:B1 *1120:A 0
5 *1008:B *1120:A 0
6 *1020:B1 *1120:A 0.000317594
7 *1021:A2 *1120:A 8.06427e-05
8 *1085:A *1120:A 5.80706e-06
9 *248:10 *1120:A 0
10 *256:17 *1120:A 0
11 *265:14 *1120:A 3.69047e-06
12 *334:6 *1120:A 3.06878e-06
*RES
1 *1029:Y *1120:A 39.7964 
*END

*D_NET *363 0.000712485
*CONN
*I *1121:A I *D sky130_fd_sc_hd__buf_2
*I *1027:Y O *D sky130_fd_sc_hd__nand2_1
*CAP
1 *1121:A 0.000288907
2 *1027:Y 0.000288907
3 *1121:A *1128:A 0
4 *1025:A *1121:A 0.0001098
5 *1027:A *1121:A 7.43578e-06
6 *1027:B *1121:A 1.74352e-05
7 *290:10 *1121:A 0
8 *291:43 *1121:A 0
*RES
1 *1027:Y *1121:A 33.0464 
*END

*D_NET *364 0.00176199
*CONN
*I *1122:A I *D sky130_fd_sc_hd__buf_2
*I *842:Y O *D sky130_fd_sc_hd__xnor2_1
*CAP
1 *1122:A 0.000462093
2 *842:Y 0.000462093
3 *826:B *1122:A 9.60939e-05
4 *840:A2 *1122:A 0.000102667
5 *842:A *1122:A 0.00010096
6 *1052:A *1122:A 4.97121e-06
7 *1059:A *1122:A 0.000161858
8 *1087:A *1122:A 0
9 *1100:A *1122:A 1.92905e-05
10 *101:14 *1122:A 4.46186e-06
11 *103:12 *1122:A 0.000314499
12 *276:10 *1122:A 7.49387e-06
13 *277:12 *1122:A 1.08359e-05
14 *292:10 *1122:A 5.41797e-06
15 *330:10 *1122:A 0
16 *338:14 *1122:A 9.25014e-06
*RES
1 *842:Y *1122:A 37.5643 
*END

*D_NET *365 0.00347585
*CONN
*I *925:B I *D sky130_fd_sc_hd__nand2_1
*I *926:B I *D sky130_fd_sc_hd__or2_1
*I *938:A2 I *D sky130_fd_sc_hd__a21o_1
*I *1098:X O *D sky130_fd_sc_hd__buf_1
*CAP
1 *925:B 1.44573e-05
2 *926:B 0
3 *938:A2 1.46425e-05
4 *1098:X 0.00115178
5 *365:26 0.000163655
6 *365:22 0.00131525
7 sum[14] *365:22 2.22043e-05
8 *895:A *365:22 6.4443e-05
9 *895:B *365:22 2.89016e-05
10 *898:A *365:22 5.52302e-05
11 *898:B *365:22 0.000108421
12 *914:A *365:22 6.14673e-05
13 *914:B *365:22 3.18676e-05
14 *938:A1 *925:B 0
15 *938:A1 *938:A2 5.71472e-05
16 *938:A1 *365:26 4.7194e-05
17 *938:B1 *365:26 0
18 *1067:A *365:22 5.33334e-05
19 *1093:A *365:22 0
20 *1105:A *365:22 3.34295e-05
21 *1106:A *365:22 2.9561e-05
22 *160:10 *365:22 5.71472e-05
23 *184:14 *365:26 2.28598e-05
24 *301:20 *365:22 0
25 *312:12 *365:26 0.00014285
*RES
1 *1098:X *365:22 37.9071 
2 *365:22 *365:26 3.42857 
3 *365:26 *938:A2 9.83571 
4 *365:26 *926:B 9.3 
5 *365:22 *925:B 9.72857 
*END

*D_NET *366 0.000595502
*CONN
*I *1123:A I *D sky130_fd_sc_hd__buf_2
*I *1024:Y O *D sky130_fd_sc_hd__xnor2_1
*CAP
1 *1123:A 0.00024657
2 *1024:Y 0.00024657
3 *1006:B *1123:A 0
4 *1082:A *1123:A 0
5 *1120:A *1123:A 0
6 *269:6 *1123:A 0.000102362
*RES
1 *1024:Y *1123:A 31.3143 
*END

*D_NET *367 0.0017961
*CONN
*I *1124:A I *D sky130_fd_sc_hd__buf_2
*I *1022:X O *D sky130_fd_sc_hd__xor2_1
*CAP
1 *1124:A 0.000463881
2 *1022:X 0.000463881
3 *1004:A1 *1124:A 5.94737e-05
4 *1004:B1 *1124:A 0
5 *1021:A2 *1124:A 0
6 *1032:A *1124:A 0
7 *1080:A *1124:A 0.000384288
8 *248:10 *1124:A 0
9 *291:20 *1124:A 0.000102207
10 *323:16 *1124:A 0.000135696
11 *328:10 *1124:A 0.000186669
*RES
1 *1022:X *1124:A 39.8143 
*END

*D_NET *368 0.00113002
*CONN
*I *1125:A I *D sky130_fd_sc_hd__buf_2
*I *841:Y O *D sky130_fd_sc_hd__xnor2_1
*CAP
1 *1125:A 0.000283518
2 *841:Y 0.000283518
3 *1125:A *1126:A 1.72894e-05
4 *841:B *1125:A 0.000139041
5 *1088:A *1125:A 0
6 *101:14 *1125:A 0.000315172
7 *103:12 *1125:A 9.14786e-05
8 *302:10 *1125:A 0
*RES
1 *841:Y *1125:A 34.6357 
*END

*D_NET *369 0.0020618
*CONN
*I *1126:A I *D sky130_fd_sc_hd__buf_2
*I *866:Y O *D sky130_fd_sc_hd__xnor2_1
*CAP
1 *1126:A 0.000704313
2 *866:Y 0.000704313
3 *1125:A *1126:A 1.72894e-05
4 *122:14 *1126:A 0.000531273
5 *124:6 *1126:A 0.000104611
*RES
1 *866:Y *1126:A 31.3679 
*END

*D_NET *370 0.000891483
*CONN
*I *1127:A I *D sky130_fd_sc_hd__buf_2
*I *865:Y O *D sky130_fd_sc_hd__xnor2_1
*CAP
1 *1127:A 0.000417168
2 *865:Y 0.000417168
3 *837:A *1127:A 0
4 *865:A *1127:A 5.71472e-05
5 *1072:A *1127:A 0
6 *120:12 *1127:A 0
7 *297:12 *1127:A 0
8 *315:10 *1127:A 0
*RES
1 *865:Y *1127:A 34.9393 
*END

*D_NET *371 0.000897897
*CONN
*I *1128:A I *D sky130_fd_sc_hd__buf_2
*I *864:X O *D sky130_fd_sc_hd__and2b_1
*CAP
1 *1128:A 0.000420375
2 *864:X 0.000420375
3 *864:B *1128:A 5.71472e-05
4 *1025:A *1128:A 0
5 *1090:A *1128:A 0
6 *1121:A *1128:A 0
7 *118:10 *1128:A 0
8 *333:12 *1128:A 0
*RES
1 *864:X *1128:A 34.9393 
*END

*D_NET *372 0.00500196
*CONN
*I *1129:A I *D sky130_fd_sc_hd__buf_2
*I *862:Y O *D sky130_fd_sc_hd__xnor2_1
*CAP
1 *1129:A 0
2 *862:Y 0.000277277
3 *372:16 0.00201834
4 *372:8 0.00229562
5 *877:A *372:8 7.43578e-06
6 *941:A *372:16 0
7 *957:B *372:16 5.9483e-05
8 *1107:A *372:16 0
9 *187:25 *372:16 6.72808e-05
10 *189:12 *372:16 0.000153047
11 *199:14 *372:16 4.514e-05
12 *212:12 *372:16 7.8327e-05
13 *216:12 *372:16 0
14 *311:12 *372:16 0
*RES
1 *862:Y *372:8 18.0321 
2 *372:8 *372:16 41.4107 
3 *372:16 *1129:A 9.3 
*END

*D_NET *373 0.00201991
*CONN
*I *1130:A I *D sky130_fd_sc_hd__buf_2
*I *893:Y O *D sky130_fd_sc_hd__nor2_1
*CAP
1 *1130:A 0.000970792
2 *893:Y 0.000970792
3 *838:B *1130:A 0
4 *855:B1 *1130:A 0
5 *858:A1 *1130:A 0
6 *858:B1 *1130:A 0
7 *866:B *1130:A 7.8327e-05
8 *885:C1 *1130:A 0
9 *1037:A *1130:A 0
10 *1111:A *1130:A 0
11 *113:19 *1130:A 0
12 *126:10 *1130:A 0
13 *127:12 *1130:A 0
*RES
1 *893:Y *1130:A 44.1179 
*END

*D_NET *374 0.00544967
*CONN
*I *1131:A I *D sky130_fd_sc_hd__buf_2
*I *891:Y O *D sky130_fd_sc_hd__xnor2_1
*CAP
1 *1131:A 0
2 *891:Y 0.00118005
3 *374:14 0.00118005
4 sum[9] *374:14 2.89016e-05
5 *827:A_N *374:14 0.000173083
6 *887:A2 *374:14 4.88637e-05
7 *1052:A *374:14 0.000170615
8 *1084:A *374:14 0.000203291
9 *105:10 *374:14 0
10 *105:12 *374:14 0
11 *122:14 *374:14 0.000125724
12 *154:8 *374:14 0.000670527
13 *276:10 *374:14 0.000146474
14 *292:10 *374:14 2.89016e-05
15 *302:10 *374:14 0.00133953
16 *331:12 *374:14 0.000153655
*RES
1 *891:Y *374:14 47.3179 
2 *374:14 *1131:A 9.3 
*END
