*SPEF "ieee 1481-1999"
*DESIGN "acc32"
*DATE "16:13:34 Saturday September 19, 2026"
*VENDOR "The OpenROAD Project"
*PROGRAM "OpenROAD"
*VERSION "edf00dff99f6c40d67a30c0e22a8191c5d2ed9d6"
*DESIGN_FLOW "NAME_SCOPE LOCAL" "PIN_CAP NONE"
*DIVIDER /
*DELIMITER :
*BUS_DELIMITER []
*T_UNIT 1 NS
*C_UNIT 1 PF
*R_UNIT 1 OHM
*L_UNIT 1 HENRY

*NAME_MAP
*3 acc[0]
*4 acc[10]
*5 acc[11]
*6 acc[12]
*7 acc[13]
*8 acc[14]
*9 acc[15]
*10 acc[16]
*11 acc[17]
*12 acc[18]
*13 acc[19]
*14 acc[1]
*15 acc[20]
*16 acc[21]
*17 acc[22]
*18 acc[23]
*19 acc[24]
*20 acc[25]
*21 acc[26]
*22 acc[27]
*23 acc[28]
*24 acc[29]
*25 acc[2]
*26 acc[30]
*27 acc[31]
*28 acc[3]
*29 acc[4]
*30 acc[5]
*31 acc[6]
*32 acc[7]
*33 acc[8]
*34 acc[9]
*35 clk
*36 data_in[0]
*37 data_in[10]
*38 data_in[11]
*39 data_in[12]
*40 data_in[13]
*41 data_in[14]
*42 data_in[15]
*43 data_in[16]
*44 data_in[17]
*45 data_in[18]
*46 data_in[19]
*47 data_in[1]
*48 data_in[20]
*49 data_in[21]
*50 data_in[22]
*51 data_in[23]
*52 data_in[24]
*53 data_in[25]
*54 data_in[26]
*55 data_in[27]
*56 data_in[28]
*57 data_in[29]
*58 data_in[2]
*59 data_in[30]
*60 data_in[31]
*61 data_in[3]
*62 data_in[4]
*63 data_in[5]
*64 data_in[6]
*65 data_in[7]
*66 data_in[8]
*67 data_in[9]
*68 rst
*69 _000_
*70 _001_
*71 _002_
*72 _003_
*73 _004_
*74 _005_
*75 _006_
*76 _007_
*77 _008_
*78 _009_
*79 _010_
*80 _011_
*81 _012_
*82 _013_
*83 _014_
*84 _015_
*85 _016_
*86 _017_
*87 _018_
*88 _019_
*89 _020_
*90 _021_
*91 _022_
*92 _023_
*93 _024_
*94 _025_
*95 _026_
*96 _027_
*97 _028_
*98 _029_
*99 _030_
*100 _031_
*101 _032_
*102 _033_
*103 _034_
*104 _035_
*105 _036_
*106 _037_
*107 _038_
*108 _039_
*109 _040_
*110 _041_
*111 _042_
*112 _043_
*113 _044_
*114 _045_
*115 _046_
*116 _047_
*117 _048_
*118 _049_
*119 _050_
*120 _051_
*121 _052_
*122 _053_
*123 _054_
*124 _055_
*125 _056_
*126 _057_
*127 _058_
*128 _059_
*129 _060_
*130 _061_
*131 _062_
*132 _063_
*133 _064_
*134 _065_
*135 _066_
*136 _067_
*137 _068_
*138 _069_
*139 _070_
*140 _071_
*141 _072_
*142 _073_
*143 _074_
*144 _075_
*145 _076_
*146 _077_
*147 _078_
*148 _079_
*149 _080_
*150 _081_
*151 _082_
*152 _083_
*153 _084_
*154 _085_
*155 _086_
*156 _087_
*157 _088_
*158 _089_
*159 _090_
*160 _091_
*161 _092_
*162 _093_
*163 _094_
*164 _095_
*165 _096_
*166 _097_
*167 _098_
*168 _099_
*169 _100_
*170 _101_
*171 _102_
*172 _103_
*173 _104_
*174 _105_
*175 _106_
*176 _107_
*177 _108_
*178 _109_
*179 _110_
*180 _111_
*181 _112_
*182 _113_
*183 _114_
*184 _115_
*185 _116_
*186 _117_
*187 _118_
*188 _119_
*189 _120_
*190 _121_
*191 _122_
*192 _123_
*193 _124_
*194 _125_
*195 _126_
*196 _127_
*197 _128_
*198 _129_
*199 _130_
*200 _131_
*201 _132_
*202 _133_
*203 _134_
*204 _135_
*205 _136_
*206 _137_
*207 _138_
*208 _139_
*209 _140_
*210 _141_
*211 _142_
*212 _143_
*213 _144_
*214 _145_
*215 _146_
*216 _147_
*217 _148_
*218 _149_
*219 _150_
*220 _151_
*221 _152_
*222 _153_
*223 _154_
*224 _155_
*225 _156_
*226 _157_
*227 _158_
*228 _159_
*229 _160_
*230 _161_
*231 _162_
*232 _163_
*233 _164_
*234 _165_
*235 _166_
*236 _167_
*237 _168_
*238 _169_
*239 _170_
*240 _171_
*241 _172_
*242 _173_
*243 _174_
*244 _175_
*245 _176_
*246 _177_
*247 _178_
*248 _179_
*249 _180_
*250 _181_
*251 _182_
*252 _183_
*253 _184_
*254 _185_
*255 _186_
*256 _187_
*257 _188_
*258 _189_
*259 _190_
*260 _191_
*261 _192_
*262 _193_
*263 _194_
*264 _195_
*265 _196_
*266 _197_
*267 _198_
*268 _199_
*269 adder\.cla_blocks\[0\]\.block\.p\[0\]
*270 adder\.cla_blocks\[0\]\.block\.sum\[1\]
*271 adder\.cla_blocks\[0\]\.block\.sum\[2\]
*272 adder\.cla_blocks\[0\]\.block\.sum\[3\]
*273 adder\.cla_blocks\[1\]\.block\.sum\[0\]
*274 adder\.cla_blocks\[1\]\.block\.sum\[1\]
*275 adder\.cla_blocks\[1\]\.block\.sum\[2\]
*276 adder\.cla_blocks\[1\]\.block\.sum\[3\]
*277 adder\.cla_blocks\[2\]\.block\.sum\[0\]
*278 adder\.cla_blocks\[2\]\.block\.sum\[1\]
*279 adder\.cla_blocks\[2\]\.block\.sum\[2\]
*280 adder\.cla_blocks\[2\]\.block\.sum\[3\]
*281 adder\.cla_blocks\[3\]\.block\.sum\[0\]
*282 adder\.cla_blocks\[3\]\.block\.sum\[1\]
*283 adder\.cla_blocks\[3\]\.block\.sum\[2\]
*284 adder\.cla_blocks\[3\]\.block\.sum\[3\]
*285 adder\.cla_blocks\[4\]\.block\.sum\[0\]
*286 adder\.cla_blocks\[4\]\.block\.sum\[1\]
*287 adder\.cla_blocks\[4\]\.block\.sum\[2\]
*288 adder\.cla_blocks\[4\]\.block\.sum\[3\]
*289 adder\.cla_blocks\[5\]\.block\.sum\[0\]
*290 adder\.cla_blocks\[5\]\.block\.sum\[1\]
*291 adder\.cla_blocks\[5\]\.block\.sum\[2\]
*292 adder\.cla_blocks\[5\]\.block\.sum\[3\]
*293 adder\.cla_blocks\[6\]\.block\.sum\[0\]
*294 adder\.cla_blocks\[6\]\.block\.sum\[1\]
*295 adder\.cla_blocks\[6\]\.block\.sum\[2\]
*296 adder\.cla_blocks\[6\]\.block\.sum\[3\]
*297 adder\.cla_blocks\[7\]\.block\.sum\[0\]
*298 adder\.cla_blocks\[7\]\.block\.sum\[1\]
*299 adder\.cla_blocks\[7\]\.block\.sum\[2\]
*300 adder\.cla_blocks\[7\]\.block\.sum\[3\]
*301 clknet_0_clk
*302 clknet_2_0__leaf_clk
*303 clknet_2_1__leaf_clk
*304 clknet_2_2__leaf_clk
*305 clknet_2_3__leaf_clk
*306 net1
*307 net10
*308 net11
*309 net12
*310 net13
*311 net14
*312 net15
*313 net16
*314 net17
*315 net18
*316 net19
*317 net2
*318 net20
*319 net21
*320 net22
*321 net23
*322 net24
*323 net25
*324 net26
*325 net27
*326 net28
*327 net29
*328 net3
*329 net30
*330 net31
*331 net32
*332 net33
*333 net34
*334 net35
*335 net36
*336 net37
*337 net38
*338 net39
*339 net4
*340 net40
*341 net41
*342 net42
*343 net43
*344 net44
*345 net45
*346 net46
*347 net47
*348 net48
*349 net49
*350 net5
*351 net50
*352 net51
*353 net52
*354 net53
*355 net54
*356 net55
*357 net56
*358 net57
*359 net58
*360 net59
*361 net6
*362 net60
*363 net61
*364 net62
*365 net63
*366 net64
*367 net65
*368 net66
*369 net67
*370 net68
*371 net69
*372 net7
*373 net8
*374 net9
*375 FILLER_0_106
*376 FILLER_0_113
*377 FILLER_0_118
*378 FILLER_0_126
*379 FILLER_0_133
*380 FILLER_0_139
*381 FILLER_0_141
*382 FILLER_0_15
*383 FILLER_0_156
*384 FILLER_0_169
*385 FILLER_0_175
*386 FILLER_0_27
*387 FILLER_0_29
*388 FILLER_0_3
*389 FILLER_0_33
*390 FILLER_0_37
*391 FILLER_0_49
*392 FILLER_0_55
*393 FILLER_0_57
*394 FILLER_0_62
*395 FILLER_0_70
*396 FILLER_0_82
*397 FILLER_0_85
*398 FILLER_0_91
*399 FILLER_10_109
*400 FILLER_10_117
*401 FILLER_10_127
*402 FILLER_10_139
*403 FILLER_10_141
*404 FILLER_10_145
*405 FILLER_10_15
*406 FILLER_10_153
*407 FILLER_10_175
*408 FILLER_10_19
*409 FILLER_10_29
*410 FILLER_10_3
*411 FILLER_10_38
*412 FILLER_10_49
*413 FILLER_10_61
*414 FILLER_10_70
*415 FILLER_10_82
*416 FILLER_10_85
*417 FILLER_10_97
*418 FILLER_11_10
*419 FILLER_11_105
*420 FILLER_11_111
*421 FILLER_11_113
*422 FILLER_11_121
*423 FILLER_11_154
*424 FILLER_11_16
*425 FILLER_11_160
*426 FILLER_11_175
*427 FILLER_11_20
*428 FILLER_11_32
*429 FILLER_11_55
*430 FILLER_11_57
*431 FILLER_11_69
*432 FILLER_11_81
*433 FILLER_11_93
*434 FILLER_12_109
*435 FILLER_12_121
*436 FILLER_12_130
*437 FILLER_12_138
*438 FILLER_12_141
*439 FILLER_12_153
*440 FILLER_12_165
*441 FILLER_12_171
*442 FILLER_12_25
*443 FILLER_12_29
*444 FILLER_12_3
*445 FILLER_12_41
*446 FILLER_12_53
*447 FILLER_12_65
*448 FILLER_12_77
*449 FILLER_12_83
*450 FILLER_12_85
*451 FILLER_12_97
*452 FILLER_13_105
*453 FILLER_13_11
*454 FILLER_13_111
*455 FILLER_13_113
*456 FILLER_13_125
*457 FILLER_13_135
*458 FILLER_13_147
*459 FILLER_13_15
*460 FILLER_13_158
*461 FILLER_13_167
*462 FILLER_13_174
*463 FILLER_13_27
*464 FILLER_13_34
*465 FILLER_13_40
*466 FILLER_13_54
*467 FILLER_13_57
*468 FILLER_13_69
*469 FILLER_13_7
*470 FILLER_13_81
*471 FILLER_13_93
*472 FILLER_14_109
*473 FILLER_14_121
*474 FILLER_14_137
*475 FILLER_14_141
*476 FILLER_14_154
*477 FILLER_14_24
*478 FILLER_14_29
*479 FILLER_14_36
*480 FILLER_14_45
*481 FILLER_14_69
*482 FILLER_14_81
*483 FILLER_14_85
*484 FILLER_14_97
*485 FILLER_15_10
*486 FILLER_15_101
*487 FILLER_15_109
*488 FILLER_15_113
*489 FILLER_15_128
*490 FILLER_15_144
*491 FILLER_15_150
*492 FILLER_15_157
*493 FILLER_15_17
*494 FILLER_15_172
*495 FILLER_15_32
*496 FILLER_15_44
*497 FILLER_15_57
*498 FILLER_15_6
*499 FILLER_15_69
*500 FILLER_16_109
*501 FILLER_16_117
*502 FILLER_16_144
*503 FILLER_16_156
*504 FILLER_16_168
*505 FILLER_16_172
*506 FILLER_16_18
*507 FILLER_16_26
*508 FILLER_16_29
*509 FILLER_16_41
*510 FILLER_16_53
*511 FILLER_16_6
*512 FILLER_16_65
*513 FILLER_16_77
*514 FILLER_16_83
*515 FILLER_16_85
*516 FILLER_16_97
*517 FILLER_17_105
*518 FILLER_17_111
*519 FILLER_17_113
*520 FILLER_17_125
*521 FILLER_17_13
*522 FILLER_17_137
*523 FILLER_17_149
*524 FILLER_17_161
*525 FILLER_17_167
*526 FILLER_17_169
*527 FILLER_17_25
*528 FILLER_17_33
*529 FILLER_17_39
*530 FILLER_17_51
*531 FILLER_17_55
*532 FILLER_17_57
*533 FILLER_17_69
*534 FILLER_17_7
*535 FILLER_17_81
*536 FILLER_17_93
*537 FILLER_18_109
*538 FILLER_18_121
*539 FILLER_18_132
*540 FILLER_18_141
*541 FILLER_18_149
*542 FILLER_18_173
*543 FILLER_18_25
*544 FILLER_18_3
*545 FILLER_18_49
*546 FILLER_18_61
*547 FILLER_18_73
*548 FILLER_18_81
*549 FILLER_18_85
*550 FILLER_18_97
*551 FILLER_19_105
*552 FILLER_19_111
*553 FILLER_19_113
*554 FILLER_19_139
*555 FILLER_19_154
*556 FILLER_19_16
*557 FILLER_19_162
*558 FILLER_19_28
*559 FILLER_19_40
*560 FILLER_19_52
*561 FILLER_19_57
*562 FILLER_19_69
*563 FILLER_19_7
*564 FILLER_19_81
*565 FILLER_19_93
*566 FILLER_1_116
*567 FILLER_1_123
*568 FILLER_1_129
*569 FILLER_1_141
*570 FILLER_1_147
*571 FILLER_1_15
*572 FILLER_1_3
*573 FILLER_1_60
*574 FILLER_1_64
*575 FILLER_1_87
*576 FILLER_20_100
*577 FILLER_20_104
*578 FILLER_20_108
*579 FILLER_20_123
*580 FILLER_20_135
*581 FILLER_20_139
*582 FILLER_20_141
*583 FILLER_20_153
*584 FILLER_20_165
*585 FILLER_20_169
*586 FILLER_20_18
*587 FILLER_20_37
*588 FILLER_20_45
*589 FILLER_20_6
*590 FILLER_20_77
*591 FILLER_20_83
*592 FILLER_20_88
*593 FILLER_21_10
*594 FILLER_21_111
*595 FILLER_21_133
*596 FILLER_21_137
*597 FILLER_21_14
*598 FILLER_21_149
*599 FILLER_21_161
*600 FILLER_21_35
*601 FILLER_21_43
*602 FILLER_21_54
*603 FILLER_21_57
*604 FILLER_22_112
*605 FILLER_22_127
*606 FILLER_22_13
*607 FILLER_22_139
*608 FILLER_22_155
*609 FILLER_22_25
*610 FILLER_22_32
*611 FILLER_22_44
*612 FILLER_22_56
*613 FILLER_22_64
*614 FILLER_22_78
*615 FILLER_22_95
*616 FILLER_23_103
*617 FILLER_23_111
*618 FILLER_23_113
*619 FILLER_23_125
*620 FILLER_23_137
*621 FILLER_23_143
*622 FILLER_23_159
*623 FILLER_23_167
*624 FILLER_23_169
*625 FILLER_23_19
*626 FILLER_23_31
*627 FILLER_23_43
*628 FILLER_23_55
*629 FILLER_23_60
*630 FILLER_23_7
*631 FILLER_23_72
*632 FILLER_23_94
*633 FILLER_24_103
*634 FILLER_24_115
*635 FILLER_24_131
*636 FILLER_24_139
*637 FILLER_24_141
*638 FILLER_24_155
*639 FILLER_24_167
*640 FILLER_24_19
*641 FILLER_24_23
*642 FILLER_24_27
*643 FILLER_24_29
*644 FILLER_24_42
*645 FILLER_24_57
*646 FILLER_24_66
*647 FILLER_24_7
*648 FILLER_24_78
*649 FILLER_24_88
*650 FILLER_25_103
*651 FILLER_25_111
*652 FILLER_25_118
*653 FILLER_25_130
*654 FILLER_25_142
*655 FILLER_25_151
*656 FILLER_25_163
*657 FILLER_25_167
*658 FILLER_25_175
*659 FILLER_25_29
*660 FILLER_25_3
*661 FILLER_25_47
*662 FILLER_25_52
*663 FILLER_25_62
*664 FILLER_25_66
*665 FILLER_25_74
*666 FILLER_25_86
*667 FILLER_25_98
*668 FILLER_26_106
*669 FILLER_26_114
*670 FILLER_26_118
*671 FILLER_26_124
*672 FILLER_26_135
*673 FILLER_26_139
*674 FILLER_26_141
*675 FILLER_26_15
*676 FILLER_26_150
*677 FILLER_26_27
*678 FILLER_26_29
*679 FILLER_26_3
*680 FILLER_26_37
*681 FILLER_26_42
*682 FILLER_26_50
*683 FILLER_26_54
*684 FILLER_26_66
*685 FILLER_26_78
*686 FILLER_26_85
*687 FILLER_26_89
*688 FILLER_27_107
*689 FILLER_27_111
*690 FILLER_27_113
*691 FILLER_27_117
*692 FILLER_27_123
*693 FILLER_27_134
*694 FILLER_27_146
*695 FILLER_27_15
*696 FILLER_27_150
*697 FILLER_27_154
*698 FILLER_27_162
*699 FILLER_27_169
*700 FILLER_27_27
*701 FILLER_27_3
*702 FILLER_27_33
*703 FILLER_27_37
*704 FILLER_27_45
*705 FILLER_27_64
*706 FILLER_27_73
*707 FILLER_27_80
*708 FILLER_27_92
*709 FILLER_28_113
*710 FILLER_28_123
*711 FILLER_28_139
*712 FILLER_28_15
*713 FILLER_28_161
*714 FILLER_28_173
*715 FILLER_28_3
*716 FILLER_28_49
*717 FILLER_28_59
*718 FILLER_28_83
*719 FILLER_28_85
*720 FILLER_29_104
*721 FILLER_29_113
*722 FILLER_29_118
*723 FILLER_29_125
*724 FILLER_29_132
*725 FILLER_29_141
*726 FILLER_29_149
*727 FILLER_29_15
*728 FILLER_29_161
*729 FILLER_29_167
*730 FILLER_29_169
*731 FILLER_29_27
*732 FILLER_29_29
*733 FILLER_29_3
*734 FILLER_29_41
*735 FILLER_29_48
*736 FILLER_29_57
*737 FILLER_29_62
*738 FILLER_29_70
*739 FILLER_29_83
*740 FILLER_29_85
*741 FILLER_29_91
*742 FILLER_29_98
*743 FILLER_2_100
*744 FILLER_2_108
*745 FILLER_2_130
*746 FILLER_2_138
*747 FILLER_2_144
*748 FILLER_2_15
*749 FILLER_2_163
*750 FILLER_2_171
*751 FILLER_2_27
*752 FILLER_2_29
*753 FILLER_2_3
*754 FILLER_2_41
*755 FILLER_2_51
*756 FILLER_2_59
*757 FILLER_2_73
*758 FILLER_2_77
*759 FILLER_2_81
*760 FILLER_2_85
*761 FILLER_3_111
*762 FILLER_3_113
*763 FILLER_3_125
*764 FILLER_3_133
*765 FILLER_3_149
*766 FILLER_3_15
*767 FILLER_3_161
*768 FILLER_3_167
*769 FILLER_3_169
*770 FILLER_3_175
*771 FILLER_3_27
*772 FILLER_3_3
*773 FILLER_3_39
*774 FILLER_3_51
*775 FILLER_3_55
*776 FILLER_3_57
*777 FILLER_3_69
*778 FILLER_3_77
*779 FILLER_3_89
*780 FILLER_3_99
*781 FILLER_4_109
*782 FILLER_4_120
*783 FILLER_4_132
*784 FILLER_4_148
*785 FILLER_4_15
*786 FILLER_4_160
*787 FILLER_4_27
*788 FILLER_4_3
*789 FILLER_4_36
*790 FILLER_4_48
*791 FILLER_4_63
*792 FILLER_4_71
*793 FILLER_4_75
*794 FILLER_4_83
*795 FILLER_4_85
*796 FILLER_4_97
*797 FILLER_5_11
*798 FILLER_5_110
*799 FILLER_5_113
*800 FILLER_5_125
*801 FILLER_5_131
*802 FILLER_5_136
*803 FILLER_5_146
*804 FILLER_5_17
*805 FILLER_5_174
*806 FILLER_5_25
*807 FILLER_5_3
*808 FILLER_5_39
*809 FILLER_5_51
*810 FILLER_5_55
*811 FILLER_5_57
*812 FILLER_5_87
*813 FILLER_5_95
*814 FILLER_5_99
*815 FILLER_6_127
*816 FILLER_6_137
*817 FILLER_6_152
*818 FILLER_6_167
*819 FILLER_6_23
*820 FILLER_6_27
*821 FILLER_6_34
*822 FILLER_6_46
*823 FILLER_6_50
*824 FILLER_6_61
*825 FILLER_6_73
*826 FILLER_6_81
*827 FILLER_6_85
*828 FILLER_6_97
*829 FILLER_7_108
*830 FILLER_7_113
*831 FILLER_7_142
*832 FILLER_7_15
*833 FILLER_7_154
*834 FILLER_7_166
*835 FILLER_7_169
*836 FILLER_7_22
*837 FILLER_7_32
*838 FILLER_7_44
*839 FILLER_7_55
*840 FILLER_7_70
*841 FILLER_7_78
*842 FILLER_7_83
*843 FILLER_7_91
*844 FILLER_8_109
*845 FILLER_8_121
*846 FILLER_8_125
*847 FILLER_8_131
*848 FILLER_8_139
*849 FILLER_8_141
*850 FILLER_8_15
*851 FILLER_8_155
*852 FILLER_8_167
*853 FILLER_8_27
*854 FILLER_8_29
*855 FILLER_8_3
*856 FILLER_8_33
*857 FILLER_8_37
*858 FILLER_8_45
*859 FILLER_8_56
*860 FILLER_8_85
*861 FILLER_8_97
*862 FILLER_9_108
*863 FILLER_9_139
*864 FILLER_9_147
*865 FILLER_9_18
*866 FILLER_9_26
*867 FILLER_9_38
*868 FILLER_9_50
*869 FILLER_9_57
*870 FILLER_9_6
*871 FILLER_9_63
*872 FILLER_9_84
*873 FILLER_9_96
*874 PHY_EDGE_ROW_0_Left_30
*875 PHY_EDGE_ROW_0_Right_0
*876 PHY_EDGE_ROW_10_Left_40
*877 PHY_EDGE_ROW_10_Right_10
*878 PHY_EDGE_ROW_11_Left_41
*879 PHY_EDGE_ROW_11_Right_11
*880 PHY_EDGE_ROW_12_Left_42
*881 PHY_EDGE_ROW_12_Right_12
*882 PHY_EDGE_ROW_13_Left_43
*883 PHY_EDGE_ROW_13_Right_13
*884 PHY_EDGE_ROW_14_Left_44
*885 PHY_EDGE_ROW_14_Right_14
*886 PHY_EDGE_ROW_15_Left_45
*887 PHY_EDGE_ROW_15_Right_15
*888 PHY_EDGE_ROW_16_Left_46
*889 PHY_EDGE_ROW_16_Right_16
*890 PHY_EDGE_ROW_17_Left_47
*891 PHY_EDGE_ROW_17_Right_17
*892 PHY_EDGE_ROW_18_Left_48
*893 PHY_EDGE_ROW_18_Right_18
*894 PHY_EDGE_ROW_19_Left_49
*895 PHY_EDGE_ROW_19_Right_19
*896 PHY_EDGE_ROW_1_Left_31
*897 PHY_EDGE_ROW_1_Right_1
*898 PHY_EDGE_ROW_20_Left_50
*899 PHY_EDGE_ROW_20_Right_20
*900 PHY_EDGE_ROW_21_Left_51
*901 PHY_EDGE_ROW_21_Right_21
*902 PHY_EDGE_ROW_22_Left_52
*903 PHY_EDGE_ROW_22_Right_22
*904 PHY_EDGE_ROW_23_Left_53
*905 PHY_EDGE_ROW_23_Right_23
*906 PHY_EDGE_ROW_24_Left_54
*907 PHY_EDGE_ROW_24_Right_24
*908 PHY_EDGE_ROW_25_Left_55
*909 PHY_EDGE_ROW_25_Right_25
*910 PHY_EDGE_ROW_26_Left_56
*911 PHY_EDGE_ROW_26_Right_26
*912 PHY_EDGE_ROW_27_Left_57
*913 PHY_EDGE_ROW_27_Right_27
*914 PHY_EDGE_ROW_28_Left_58
*915 PHY_EDGE_ROW_28_Right_28
*916 PHY_EDGE_ROW_29_Left_59
*917 PHY_EDGE_ROW_29_Right_29
*918 PHY_EDGE_ROW_2_Left_32
*919 PHY_EDGE_ROW_2_Right_2
*920 PHY_EDGE_ROW_3_Left_33
*921 PHY_EDGE_ROW_3_Right_3
*922 PHY_EDGE_ROW_4_Left_34
*923 PHY_EDGE_ROW_4_Right_4
*924 PHY_EDGE_ROW_5_Left_35
*925 PHY_EDGE_ROW_5_Right_5
*926 PHY_EDGE_ROW_6_Left_36
*927 PHY_EDGE_ROW_6_Right_6
*928 PHY_EDGE_ROW_7_Left_37
*929 PHY_EDGE_ROW_7_Right_7
*930 PHY_EDGE_ROW_8_Left_38
*931 PHY_EDGE_ROW_8_Right_8
*932 PHY_EDGE_ROW_9_Left_39
*933 PHY_EDGE_ROW_9_Right_9
*934 TAP_TAPCELL_ROW_0_60
*935 TAP_TAPCELL_ROW_0_61
*936 TAP_TAPCELL_ROW_0_62
*937 TAP_TAPCELL_ROW_0_63
*938 TAP_TAPCELL_ROW_0_64
*939 TAP_TAPCELL_ROW_0_65
*940 TAP_TAPCELL_ROW_10_93
*941 TAP_TAPCELL_ROW_10_94
*942 TAP_TAPCELL_ROW_10_95
*943 TAP_TAPCELL_ROW_11_96
*944 TAP_TAPCELL_ROW_11_97
*945 TAP_TAPCELL_ROW_11_98
*946 TAP_TAPCELL_ROW_12_100
*947 TAP_TAPCELL_ROW_12_101
*948 TAP_TAPCELL_ROW_12_99
*949 TAP_TAPCELL_ROW_13_102
*950 TAP_TAPCELL_ROW_13_103
*951 TAP_TAPCELL_ROW_13_104
*952 TAP_TAPCELL_ROW_14_105
*953 TAP_TAPCELL_ROW_14_106
*954 TAP_TAPCELL_ROW_14_107
*955 TAP_TAPCELL_ROW_15_108
*956 TAP_TAPCELL_ROW_15_109
*957 TAP_TAPCELL_ROW_15_110
*958 TAP_TAPCELL_ROW_16_111
*959 TAP_TAPCELL_ROW_16_112
*960 TAP_TAPCELL_ROW_16_113
*961 TAP_TAPCELL_ROW_17_114
*962 TAP_TAPCELL_ROW_17_115
*963 TAP_TAPCELL_ROW_17_116
*964 TAP_TAPCELL_ROW_18_117
*965 TAP_TAPCELL_ROW_18_118
*966 TAP_TAPCELL_ROW_18_119
*967 TAP_TAPCELL_ROW_19_120
*968 TAP_TAPCELL_ROW_19_121
*969 TAP_TAPCELL_ROW_19_122
*970 TAP_TAPCELL_ROW_1_66
*971 TAP_TAPCELL_ROW_1_67
*972 TAP_TAPCELL_ROW_1_68
*973 TAP_TAPCELL_ROW_20_123
*974 TAP_TAPCELL_ROW_20_124
*975 TAP_TAPCELL_ROW_20_125
*976 TAP_TAPCELL_ROW_21_126
*977 TAP_TAPCELL_ROW_21_127
*978 TAP_TAPCELL_ROW_21_128
*979 TAP_TAPCELL_ROW_22_129
*980 TAP_TAPCELL_ROW_22_130
*981 TAP_TAPCELL_ROW_22_131
*982 TAP_TAPCELL_ROW_23_132
*983 TAP_TAPCELL_ROW_23_133
*984 TAP_TAPCELL_ROW_23_134
*985 TAP_TAPCELL_ROW_24_135
*986 TAP_TAPCELL_ROW_24_136
*987 TAP_TAPCELL_ROW_24_137
*988 TAP_TAPCELL_ROW_25_138
*989 TAP_TAPCELL_ROW_25_139
*990 TAP_TAPCELL_ROW_25_140
*991 TAP_TAPCELL_ROW_26_141
*992 TAP_TAPCELL_ROW_26_142
*993 TAP_TAPCELL_ROW_26_143
*994 TAP_TAPCELL_ROW_27_144
*995 TAP_TAPCELL_ROW_27_145
*996 TAP_TAPCELL_ROW_27_146
*997 TAP_TAPCELL_ROW_28_147
*998 TAP_TAPCELL_ROW_28_148
*999 TAP_TAPCELL_ROW_28_149
*1000 TAP_TAPCELL_ROW_29_150
*1001 TAP_TAPCELL_ROW_29_151
*1002 TAP_TAPCELL_ROW_29_152
*1003 TAP_TAPCELL_ROW_29_153
*1004 TAP_TAPCELL_ROW_29_154
*1005 TAP_TAPCELL_ROW_29_155
*1006 TAP_TAPCELL_ROW_2_69
*1007 TAP_TAPCELL_ROW_2_70
*1008 TAP_TAPCELL_ROW_2_71
*1009 TAP_TAPCELL_ROW_3_72
*1010 TAP_TAPCELL_ROW_3_73
*1011 TAP_TAPCELL_ROW_3_74
*1012 TAP_TAPCELL_ROW_4_75
*1013 TAP_TAPCELL_ROW_4_76
*1014 TAP_TAPCELL_ROW_4_77
*1015 TAP_TAPCELL_ROW_5_78
*1016 TAP_TAPCELL_ROW_5_79
*1017 TAP_TAPCELL_ROW_5_80
*1018 TAP_TAPCELL_ROW_6_81
*1019 TAP_TAPCELL_ROW_6_82
*1020 TAP_TAPCELL_ROW_6_83
*1021 TAP_TAPCELL_ROW_7_84
*1022 TAP_TAPCELL_ROW_7_85
*1023 TAP_TAPCELL_ROW_7_86
*1024 TAP_TAPCELL_ROW_8_87
*1025 TAP_TAPCELL_ROW_8_88
*1026 TAP_TAPCELL_ROW_8_89
*1027 TAP_TAPCELL_ROW_9_90
*1028 TAP_TAPCELL_ROW_9_91
*1029 TAP_TAPCELL_ROW_9_92
*1030 _200_
*1031 _201_
*1032 _202_
*1033 _203_
*1034 _204_
*1035 _205_
*1036 _206_
*1037 _207_
*1038 _208_
*1039 _209_
*1040 _210_
*1041 _211_
*1042 _212_
*1043 _213_
*1044 _214_
*1045 _215_
*1046 _216_
*1047 _217_
*1048 _218_
*1049 _219_
*1050 _220_
*1051 _221_
*1052 _222_
*1053 _223_
*1054 _224_
*1055 _225_
*1056 _226_
*1057 _227_
*1058 _228_
*1059 _229_
*1060 _230_
*1061 _231_
*1062 _232_
*1063 _233_
*1064 _234_
*1065 _235_
*1066 _236_
*1067 _237_
*1068 _238_
*1069 _239_
*1070 _240_
*1071 _241_
*1072 _242_
*1073 _243_
*1074 _244_
*1075 _245_
*1076 _246_
*1077 _247_
*1078 _248_
*1079 _249_
*1080 _250_
*1081 _251_
*1082 _252_
*1083 _253_
*1084 _254_
*1085 _255_
*1086 _256_
*1087 _257_
*1088 _258_
*1089 _259_
*1090 _260_
*1091 _261_
*1092 _262_
*1093 _263_
*1094 _264_
*1095 _265_
*1096 _266_
*1097 _267_
*1098 _268_
*1099 _269_
*1100 _270_
*1101 _271_
*1102 _272_
*1103 _273_
*1104 _274_
*1105 _275_
*1106 _276_
*1107 _277_
*1108 _278_
*1109 _279_
*1110 _280_
*1111 _281_
*1112 _282_
*1113 _283_
*1114 _284_
*1115 _285_
*1116 _286_
*1117 _287_
*1118 _288_
*1119 _289_
*1120 _290_
*1121 _291_
*1122 _292_
*1123 _293_
*1124 _294_
*1125 _295_
*1126 _296_
*1127 _297_
*1128 _298_
*1129 _299_
*1130 _300_
*1131 _301_
*1132 _302_
*1133 _303_
*1134 _304_
*1135 _305_
*1136 _306_
*1137 _307_
*1138 _308_
*1139 _309_
*1140 _310_
*1141 _311_
*1142 _312_
*1143 _313_
*1144 _314_
*1145 _315_
*1146 _316_
*1147 _317_
*1148 _318_
*1149 _319_
*1150 _320_
*1151 _321_
*1152 _322_
*1153 _323_
*1154 _324_
*1155 _325_
*1156 _326_
*1157 _327_
*1158 _328_
*1159 _329_
*1160 _330_
*1161 _331_
*1162 _332_
*1163 _333_
*1164 _334_
*1165 _335_
*1166 _336_
*1167 _337_
*1168 _338_
*1169 _339_
*1170 _340_
*1171 _341_
*1172 _342_
*1173 _343_
*1174 _344_
*1175 _345_
*1176 _346_
*1177 _347_
*1178 _348_
*1179 _349_
*1180 _350_
*1181 _351_
*1182 _352_
*1183 _353_
*1184 _354_
*1185 _355_
*1186 _356_
*1187 _357_
*1188 _358_
*1189 _359_
*1190 _360_
*1191 _361_
*1192 _362_
*1193 _363_
*1194 _364_
*1195 _365_
*1196 _366_
*1197 _367_
*1198 _368_
*1199 _369_
*1200 _370_
*1201 _371_
*1202 _372_
*1203 _373_
*1204 _374_
*1205 _375_
*1206 _376_
*1207 _377_
*1208 _378_
*1209 _379_
*1210 _380_
*1211 _381_
*1212 _382_
*1213 _383_
*1214 _384_
*1215 _385_
*1216 _386_
*1217 _387_
*1218 _388_
*1219 _389_
*1220 _390_
*1221 _391_
*1222 _392_
*1223 _393_
*1224 _394_
*1225 _395_
*1226 _396_
*1227 _397_
*1228 _398_
*1229 _399_
*1230 _400_
*1231 _401_
*1232 _402_
*1233 _403_
*1234 _404_
*1235 _405_
*1236 _406_
*1237 _407_
*1238 _408_
*1239 _409_
*1240 _410_
*1241 _411_
*1242 _412_
*1243 _413_
*1244 _414_
*1245 _415_
*1246 _416_
*1247 _417_
*1248 _418_
*1249 _419_
*1250 _420_
*1251 _421_
*1252 _422_
*1253 _423_
*1254 _424_
*1255 _425_
*1256 _426_
*1257 _427_
*1258 _428_
*1259 _429_
*1260 _430_
*1261 _431_
*1262 _432_
*1263 _433_
*1264 _434_
*1265 _435_
*1266 _436_
*1267 _437_
*1268 _438_
*1269 _439_
*1270 _440_
*1271 _441_
*1272 _442_
*1273 _443_
*1274 _444_
*1275 _445_
*1276 _446_
*1277 _447_
*1278 _448_
*1279 _449_
*1280 _450_
*1281 _451_
*1282 _452_
*1283 _453_
*1284 _454_
*1285 _455_
*1286 _456_
*1287 _457_
*1288 _458_
*1289 _459_
*1290 _460_
*1291 _461_
*1292 _462_
*1293 _463_
*1294 clkbuf_0_clk
*1295 clkbuf_2_0__f_clk
*1296 clkbuf_2_1__f_clk
*1297 clkbuf_2_2__f_clk
*1298 clkbuf_2_3__f_clk
*1299 clkload0
*1300 clkload1
*1301 clkload2
*1302 fanout66
*1303 fanout67
*1304 fanout68
*1305 fanout69
*1306 input1
*1307 input10
*1308 input11
*1309 input12
*1310 input13
*1311 input14
*1312 input15
*1313 input16
*1314 input17
*1315 input18
*1316 input19
*1317 input2
*1318 input20
*1319 input21
*1320 input22
*1321 input23
*1322 input24
*1323 input25
*1324 input26
*1325 input27
*1326 input28
*1327 input29
*1328 input3
*1329 input30
*1330 input31
*1331 input32
*1332 input33
*1333 input4
*1334 input5
*1335 input6
*1336 input7
*1337 input8
*1338 input9
*1339 output34
*1340 output35
*1341 output36
*1342 output37
*1343 output38
*1344 output39
*1345 output40
*1346 output41
*1347 output42
*1348 output43
*1349 output44
*1350 output45
*1351 output46
*1352 output47
*1353 output48
*1354 output49
*1355 output50
*1356 output51
*1357 output52
*1358 output53
*1359 output54
*1360 output55
*1361 output56
*1362 output57
*1363 output58
*1364 output59
*1365 output60
*1366 output61
*1367 output62
*1368 output63
*1369 output64
*1370 output65

*PORTS
acc[0] O
acc[10] O
acc[11] O
acc[12] O
acc[13] O
acc[14] O
acc[15] O
acc[16] O
acc[17] O
acc[18] O
acc[19] O
acc[1] O
acc[20] O
acc[21] O
acc[22] O
acc[23] O
acc[24] O
acc[25] O
acc[26] O
acc[27] O
acc[28] O
acc[29] O
acc[2] O
acc[30] O
acc[31] O
acc[3] O
acc[4] O
acc[5] O
acc[6] O
acc[7] O
acc[8] O
acc[9] O
clk I
data_in[0] I
data_in[10] I
data_in[11] I
data_in[12] I
data_in[13] I
data_in[14] I
data_in[15] I
data_in[16] I
data_in[17] I
data_in[18] I
data_in[19] I
data_in[1] I
data_in[20] I
data_in[21] I
data_in[22] I
data_in[23] I
data_in[24] I
data_in[25] I
data_in[26] I
data_in[27] I
data_in[28] I
data_in[29] I
data_in[2] I
data_in[30] I
data_in[31] I
data_in[3] I
data_in[4] I
data_in[5] I
data_in[6] I
data_in[7] I
data_in[8] I
data_in[9] I
rst I

*D_NET *3 0.000612401
*CONN
*P acc[0] O
*I *1339:X O *D sky130_fd_sc_hd__buf_2
*CAP
1 acc[0] 0.000213743
2 *1339:X 0.000213743
3 acc[0] acc[1] 8.8404e-05
4 acc[0] *36:15 9.65101e-05
5 acc[0] *332:28 0
*RES
1 *1339:X acc[0] 47.6028 
*END

*D_NET *4 0.000928267
*CONN
*P acc[10] O
*I *1340:X O *D sky130_fd_sc_hd__buf_2
*CAP
1 acc[10] 0.000464134
2 *1340:X 0.000464134
3 acc[10] *1317:A 0
4 acc[10] *1333:A 0
*RES
1 *1340:X acc[10] 47.0936 
*END

*D_NET *5 0.00103031
*CONN
*P acc[11] O
*I *1341:X O *D sky130_fd_sc_hd__buf_2
*CAP
1 acc[11] 0.000487652
2 *1341:X 0.000487652
3 acc[11] acc[12] 0
4 acc[11] *1328:A 0
5 acc[11] *1341:A 5.50106e-05
*RES
1 *1341:X acc[11] 47.57 
*END

*D_NET *6 0.00186878
*CONN
*P acc[12] O
*I *1342:X O *D sky130_fd_sc_hd__buf_2
*CAP
1 acc[12] 0.000424446
2 *1342:X 0.000216832
3 *6:8 0.000641279
4 acc[12] *1082:A 2.95125e-05
5 acc[12] *1331:A 0
6 acc[12] *367:25 3.70094e-05
7 *6:8 *1370:A 5.29672e-05
8 *6:8 *129:10 0.00010018
9 *6:8 *331:8 5.3304e-05
10 *6:8 *367:25 0.000313249
11 acc[11] acc[12] 0
*RES
1 *1342:X *6:8 43.3857 
2 *6:8 acc[12] 9.40429 
*END

*D_NET *7 0.000825389
*CONN
*P acc[13] O
*I *1343:X O *D sky130_fd_sc_hd__buf_2
*CAP
1 acc[13] 0.000105138
2 *1343:X 0.000266337
3 *7:12 0.000371475
4 acc[13] acc[16] 1.5289e-05
5 acc[13] *1334:A 5.11907e-05
6 acc[13] *10:14 1.59585e-05
*RES
1 *1343:X *7:12 49.7804 
2 *7:12 acc[13] 0.500267 
*END

*D_NET *8 0.001003
*CONN
*P acc[14] O
*I *1344:X O *D sky130_fd_sc_hd__buf_2
*CAP
1 acc[14] 0.000482932
2 *1344:X 0.000482932
3 acc[14] *1335:A 0
4 acc[14] *368:110 3.71369e-05
*RES
1 *1344:X acc[14] 47.86 
*END

*D_NET *9 0.000801024
*CONN
*P acc[15] O
*I *1345:X O *D sky130_fd_sc_hd__buf_2
*CAP
1 acc[15] 8.37565e-05
2 *1345:X 0.000296392
3 *9:14 0.000380149
4 acc[15] *1336:A 2.12457e-05
5 *9:14 *340:12 1.94812e-05
*RES
1 *1345:X *9:14 49.9 
2 *9:14 acc[15] 0.382667 
*END

*D_NET *10 0.000689168
*CONN
*P acc[16] O
*I *1346:X O *D sky130_fd_sc_hd__buf_2
*CAP
1 acc[16] 7.65184e-05
2 *1346:X 0.000241819
3 *10:14 0.000318338
4 acc[16] *44:17 2.12457e-05
5 acc[13] acc[16] 1.5289e-05
6 acc[13] *10:14 1.59585e-05
*RES
1 *1346:X *10:14 49.9 
2 *10:14 acc[16] 0.382667 
*END

*D_NET *11 0.000787601
*CONN
*P acc[17] O
*I *1347:X O *D sky130_fd_sc_hd__buf_2
*CAP
1 acc[17] 7.65184e-05
2 *1347:X 0.000291036
3 *11:14 0.000367554
4 acc[17] acc[18] 2.12457e-05
5 acc[17] *1337:A 1.5289e-05
6 *11:14 *1337:A 1.59585e-05
*RES
1 *1347:X *11:14 49.9 
2 *11:14 acc[17] 0.382667 
*END

*D_NET *12 0.000719364
*CONN
*P acc[18] O
*I *1348:X O *D sky130_fd_sc_hd__buf_2
*CAP
1 acc[18] 0.000293654
2 *1348:X 0.000293654
3 acc[18] *1337:A 0
4 acc[18] *35:9 6.16635e-05
5 acc[18] *45:11 0
6 acc[18] *46:17 2.12457e-05
7 acc[18] *189:8 0
8 acc[18] *251:8 2.79004e-05
9 acc[17] acc[18] 2.12457e-05
*RES
1 *1348:X acc[18] 48.5734 
*END

*D_NET *13 0.000915071
*CONN
*P acc[19] O
*I *1349:X O *D sky130_fd_sc_hd__buf_2
*CAP
1 acc[19] 9.57991e-05
2 *1349:X 0.000337157
3 *13:10 0.000432956
4 acc[19] acc[21] 2.79122e-05
5 acc[19] *45:11 2.12457e-05
6 *13:10 *35:9 0
*RES
1 *1349:X *13:10 43.2096 
2 *13:10 acc[19] 8.4816 
*END

*D_NET *14 0.00154686
*CONN
*P acc[1] O
*I *1350:X O *D sky130_fd_sc_hd__buf_2
*CAP
1 acc[1] 0.000436512
2 *1350:X 0.000174277
3 *14:12 0.000610789
4 acc[1] *1324:A 0
5 acc[1] *1325:A 8.73764e-05
6 acc[1] *36:15 0
7 *14:12 *70:10 4.75766e-05
8 *14:12 *332:28 6.48049e-05
9 *14:12 *332:38 0
10 *14:12 *345:10 0
11 *14:12 *345:29 0
12 *14:12 *368:8 3.71251e-05
13 acc[0] acc[1] 8.8404e-05
*RES
1 *1350:X *14:12 49.1796 
2 *14:12 acc[1] 1.4448 
*END

*D_NET *15 0.000960449
*CONN
*P acc[20] O
*I *1351:X O *D sky130_fd_sc_hd__buf_2
*CAP
1 acc[20] 0.000480224
2 *1351:X 0.000480224
3 acc[20] *1310:A 0
4 acc[20] *1312:A 0
*RES
1 *1351:X acc[20] 48.5021 
*END

*D_NET *16 0.000790865
*CONN
*P acc[21] O
*I *1352:X O *D sky130_fd_sc_hd__buf_2
*CAP
1 acc[21] 0.000350645
2 *1352:X 0.000350645
3 acc[21] *35:9 6.16635e-05
4 acc[21] *45:11 0
5 acc[19] acc[21] 2.79122e-05
*RES
1 *1352:X acc[21] 48.5734 
*END

*D_NET *17 0.000960449
*CONN
*P acc[22] O
*I *1353:X O *D sky130_fd_sc_hd__buf_2
*CAP
1 acc[22] 0.000480224
2 *1353:X 0.000480224
3 acc[22] *1311:A 0
4 acc[22] *1312:A 0
*RES
1 *1353:X acc[22] 48.5021 
*END

*D_NET *18 0.00100219
*CONN
*P acc[23] O
*I *1354:X O *D sky130_fd_sc_hd__buf_2
*CAP
1 acc[23] 0.000501094
2 *1354:X 0.000501094
3 acc[23] acc[25] 0
4 acc[23] *1313:A 0
*RES
1 *1354:X acc[23] 48.9786 
*END

*D_NET *19 0.00126344
*CONN
*P acc[24] O
*I *1355:X O *D sky130_fd_sc_hd__buf_2
*CAP
1 acc[24] 2.40452e-05
2 *1355:X 0.000607227
3 *19:10 0.000631272
4 *19:10 *1315:A 0
5 *19:10 *314:8 8.91468e-07
*RES
1 *1355:X *19:10 49.5275 
2 *19:10 acc[24] 0.548929 
*END

*D_NET *20 0.000960449
*CONN
*P acc[25] O
*I *1356:X O *D sky130_fd_sc_hd__buf_2
*CAP
1 acc[25] 0.000480224
2 *1356:X 0.000480224
3 acc[25] *1315:A 0
4 acc[23] acc[25] 0
*RES
1 *1356:X acc[25] 48.5021 
*END

*D_NET *21 0.00106693
*CONN
*P acc[26] O
*I *1357:X O *D sky130_fd_sc_hd__buf_2
*CAP
1 acc[26] 0.000533464
2 *1357:X 0.000533464
3 acc[26] *1318:A 0
*RES
1 *1357:X acc[26] 49.1236 
*END

*D_NET *22 0.0014971
*CONN
*P acc[27] O
*I *1358:X O *D sky130_fd_sc_hd__buf_2
*CAP
1 acc[27] 0.00050823
2 *1358:X 0.000219977
3 *22:8 0.000728207
4 *22:8 *1304:A 4.06849e-05
*RES
1 *1358:X *22:8 41.0036 
2 *22:8 acc[27] 10.9786 
*END

*D_NET *23 0.000573859
*CONN
*P acc[28] O
*I *1359:X O *D sky130_fd_sc_hd__buf_2
*CAP
1 acc[28] 0.000191439
2 *1359:X 0.000191439
3 acc[28] acc[30] 8.77791e-05
4 acc[28] *1332:A 8.97484e-05
5 acc[28] *355:44 1.34542e-05
*RES
1 *1359:X acc[28] 47.2507 
*END

*D_NET *24 0.000707008
*CONN
*P acc[29] O
*I *1360:X O *D sky130_fd_sc_hd__buf_2
*CAP
1 acc[29] 0.000260375
2 *1360:X 0.000260375
3 acc[29] acc[2] 9.65101e-05
4 acc[29] *1319:A 0
5 acc[29] *1320:A 8.97484e-05
6 acc[29] *332:28 0
7 acc[29] *356:8 0
*RES
1 *1360:X acc[29] 48.6592 
*END

*D_NET *25 0.000568791
*CONN
*P acc[2] O
*I *1361:X O *D sky130_fd_sc_hd__buf_2
*CAP
1 acc[2] 0.000195448
2 *1361:X 0.000195448
3 acc[2] *1321:A 8.13852e-05
4 acc[2] *371:48 0
5 acc[29] acc[2] 9.65101e-05
*RES
1 *1361:X acc[2] 47.2507 
*END

*D_NET *26 0.000566027
*CONN
*P acc[30] O
*I *1362:X O *D sky130_fd_sc_hd__buf_2
*CAP
1 acc[30] 0.000183312
2 *1362:X 0.000183312
3 acc[30] *1322:A 9.8882e-05
4 acc[30] *355:44 1.27424e-05
5 acc[28] acc[30] 8.77791e-05
*RES
1 *1362:X acc[30] 47.2507 
*END

*D_NET *27 0.000925426
*CONN
*P acc[31] O
*I *1363:X O *D sky130_fd_sc_hd__buf_2
*CAP
1 acc[31] 0.000282316
2 *1363:X 0.000282316
3 acc[31] *1319:A 8.8404e-05
4 acc[31] *1322:A 0
5 acc[31] *1323:A 8.97484e-05
6 acc[31] *323:8 0.000182642
*RES
1 *1363:X acc[31] 49.3635 
*END

*D_NET *28 0.000997295
*CONN
*P acc[3] O
*I *1364:X O *D sky130_fd_sc_hd__buf_2
*CAP
1 acc[3] 0.000339226
2 *1364:X 0.000339226
3 acc[3] acc[5] 9.8882e-05
4 acc[3] *1326:A 0
5 acc[3] *1329:A 8.97484e-05
6 acc[3] *369:66 0.000130212
*RES
1 *1364:X acc[3] 49.0027 
*END

*D_NET *29 0.000752991
*CONN
*P acc[4] O
*I *1365:X O *D sky130_fd_sc_hd__buf_2
*CAP
1 acc[4] 0.000251662
2 *1365:X 0.000251662
3 acc[4] *1324:A 9.65101e-05
4 acc[4] *1326:A 8.8404e-05
5 acc[4] *362:20 6.47523e-05
*RES
1 *1365:X acc[4] 48.6592 
*END

*D_NET *30 0.000545127
*CONN
*P acc[5] O
*I *1366:X O *D sky130_fd_sc_hd__buf_2
*CAP
1 acc[5] 0.000170562
2 *1366:X 0.000170562
3 acc[5] *1107:A 8.61037e-06
4 acc[5] *1326:A 9.65101e-05
5 acc[3] acc[5] 9.8882e-05
*RES
1 *1366:X acc[5] 47.2507 
*END

*D_NET *31 0.000935434
*CONN
*P acc[6] O
*I *1367:X O *D sky130_fd_sc_hd__buf_2
*CAP
1 acc[6] 0.000467717
2 *1367:X 0.000467717
3 acc[6] acc[8] 0
4 acc[6] *1327:A 0
*RES
1 *1367:X acc[6] 47.0936 
*END

*D_NET *32 0.000575868
*CONN
*P acc[7] O
*I *1368:X O *D sky130_fd_sc_hd__buf_2
*CAP
1 acc[7] 0.000247241
2 *1368:X 0.000247241
3 acc[7] *1329:A 8.13852e-05
*RES
1 *1368:X acc[7] 47.2507 
*END

*D_NET *33 0.00101076
*CONN
*P acc[8] O
*I *1369:X O *D sky130_fd_sc_hd__buf_2
*CAP
1 acc[8] 0.00049069
2 *1369:X 0.00049069
3 acc[8] *1330:A 0
4 acc[8] *366:29 2.93845e-05
5 acc[6] acc[8] 0
*RES
1 *1369:X acc[8] 47.57 
*END

*D_NET *34 0.00103031
*CONN
*P acc[9] O
*I *1370:X O *D sky130_fd_sc_hd__buf_2
*CAP
1 acc[9] 0.000487652
2 *1370:X 0.000487652
3 acc[9] *1330:A 0
4 acc[9] *1331:A 0
5 acc[9] *1370:A 5.50106e-05
*RES
1 *1370:X acc[9] 47.57 
*END

*D_NET *35 0.00963368
*CONN
*P clk I
*I *1294:A I *D sky130_fd_sc_hd__clkbuf_16
*CAP
1 clk 0.00182212
2 *1294:A 0
3 *35:13 0.00189224
4 *35:11 0.00189224
5 *35:9 0.00182212
6 *35:9 *1337:A 7.76035e-05
7 *35:9 *1347:A 0
8 *35:9 *45:11 0.000293655
9 *35:9 *46:17 0
10 *35:9 *189:18 0
11 *35:9 *251:8 0
12 *35:9 *308:34 2.75666e-05
13 *35:9 *344:16 0
14 *35:9 *347:12 0
15 *35:9 *374:10 1.19796e-05
16 *35:13 *1147:A_N 2.93845e-05
17 *35:13 *1217:A2 0.00010018
18 *35:13 *1217:B1 7.42621e-05
19 *35:13 *44:17 5.67058e-05
20 *35:13 *194:8 0.000143655
21 *35:13 *194:25 0.00053637
22 *35:13 *201:8 5.67058e-05
23 *35:13 *342:23 0.00014196
24 *35:13 *342:33 8.96439e-05
25 *35:13 *374:17 0.000313249
26 *35:13 *374:38 0.000128723
27 acc[18] *35:9 6.16635e-05
28 acc[21] *35:9 6.16635e-05
29 *13:10 *35:9 0
*RES
1 clk *35:9 41.7424 
2 *35:9 *35:11 15 
3 *35:11 *35:13 37.7829 
4 *35:13 *1294:A 23 
*END

*D_NET *36 0.00205298
*CONN
*P data_in[0] I
*I *1306:A I *D sky130_fd_sc_hd__clkbuf_1
*CAP
1 data_in[0] 0.000579867
2 *1306:A 0
3 *36:15 0.000579867
4 *36:15 *1309:A 8.73764e-05
5 *36:15 *69:8 0.000199701
6 *36:15 *309:6 0.000269775
7 *36:15 *321:12 0.000148688
8 *36:15 *332:28 9.11986e-05
9 *36:15 *333:8 0
10 acc[0] *36:15 9.65101e-05
11 acc[1] *36:15 0
*RES
1 data_in[0] *36:15 32.939 
2 *36:15 *1306:A 23 
*END

*D_NET *37 0.00101193
*CONN
*P data_in[10] I
*I *1317:A I *D sky130_fd_sc_hd__clkbuf_1
*CAP
1 data_in[10] 0.000491428
2 *1317:A 0.000491428
3 *1317:A *1328:A 0
4 *1317:A *317:10 1.94812e-05
5 *1317:A *328:10 5.37348e-06
6 *1317:A *334:14 4.21594e-06
7 acc[10] *1317:A 0
*RES
1 data_in[10] *1317:A 48.2743 
*END

*D_NET *38 0.000932349
*CONN
*P data_in[11] I
*I *1328:A I *D sky130_fd_sc_hd__clkbuf_1
*CAP
1 data_in[11] 0.000461103
2 *1328:A 0.000461103
3 *1328:A *335:31 1.01436e-05
4 acc[11] *1328:A 0
5 *1317:A *1328:A 0
*RES
1 data_in[11] *1328:A 47.3214 
*END

*D_NET *39 0.00103344
*CONN
*P data_in[12] I
*I *1333:A I *D sky130_fd_sc_hd__buf_1
*CAP
1 data_in[12] 0.000489214
2 *1333:A 0.000489214
3 *1333:A *1335:A 0
4 *1333:A *368:110 5.50106e-05
5 acc[10] *1333:A 0
*RES
1 data_in[12] *1333:A 48.2743 
*END

*D_NET *40 0.00085496
*CONN
*P data_in[13] I
*I *1334:A I *D sky130_fd_sc_hd__clkbuf_1
*CAP
1 data_in[13] 0.000401885
2 *1334:A 0.000401885
3 *1334:A *1336:A 0
4 acc[13] *1334:A 5.11907e-05
*RES
1 data_in[13] *1334:A 48.4788 
*END

*D_NET *41 0.00108643
*CONN
*P data_in[14] I
*I *1335:A I *D sky130_fd_sc_hd__clkbuf_1
*CAP
1 data_in[14] 0.000472234
2 *1335:A 0.000472234
3 *1335:A *368:110 0.00014196
4 acc[14] *1335:A 0
5 *1333:A *1335:A 0
*RES
1 data_in[14] *1335:A 48.2743 
*END

*D_NET *42 0.000725405
*CONN
*P data_in[15] I
*I *1336:A I *D sky130_fd_sc_hd__buf_1
*CAP
1 data_in[15] 0.00035208
2 *1336:A 0.00035208
3 *1336:A *372:10 0
4 acc[15] *1336:A 2.12457e-05
5 *1334:A *1336:A 0
*RES
1 data_in[15] *1336:A 49.5439 
*END

*D_NET *43 0.000641687
*CONN
*P data_in[16] I
*I *1337:A I *D sky130_fd_sc_hd__buf_1
*CAP
1 data_in[16] 0.000238277
2 *1337:A 0.000238277
3 *1337:A *1347:A 2.50347e-05
4 *1337:A *44:17 3.12475e-05
5 acc[17] *1337:A 1.5289e-05
6 acc[18] *1337:A 0
7 *11:14 *1337:A 1.59585e-05
8 *35:9 *1337:A 7.76035e-05
*RES
1 data_in[16] *1337:A 47.7832 
*END

*D_NET *44 0.000739859
*CONN
*P data_in[17] I
*I *1338:A I *D sky130_fd_sc_hd__buf_1
*CAP
1 data_in[17] 0.00031533
2 *1338:A 0
3 *44:17 0.00031533
4 *44:17 *374:10 0
5 acc[16] *44:17 2.12457e-05
6 *1337:A *44:17 3.12475e-05
7 *35:13 *44:17 5.67058e-05
*RES
1 data_in[17] *44:17 27.8627 
2 *44:17 *1338:A 23 
*END

*D_NET *45 0.00104845
*CONN
*P data_in[18] I
*I *1307:A I *D sky130_fd_sc_hd__buf_1
*CAP
1 data_in[18] 0.000292224
2 *1307:A 0
3 *45:11 0.000292224
4 *45:11 *46:17 3.12475e-05
5 *45:11 *308:34 5.32119e-05
6 *45:11 *344:16 6.46393e-05
7 acc[18] *45:11 0
8 acc[19] *45:11 2.12457e-05
9 acc[21] *45:11 0
10 *35:9 *45:11 0.000293655
*RES
1 data_in[18] *45:11 27.6004 
2 *45:11 *1307:A 23 
*END

*D_NET *46 0.000701196
*CONN
*P data_in[19] I
*I *1308:A I *D sky130_fd_sc_hd__buf_1
*CAP
1 data_in[19] 0.000324352
2 *1308:A 0
3 *46:17 0.000324352
4 acc[18] *46:17 2.12457e-05
5 *35:9 *46:17 0
6 *45:11 *46:17 3.12475e-05
*RES
1 data_in[19] *46:17 27.5105 
2 *46:17 *1308:A 23 
*END

*D_NET *47 0.000710126
*CONN
*P data_in[1] I
*I *1309:A I *D sky130_fd_sc_hd__clkbuf_1
*CAP
1 data_in[1] 0.000266501
2 *1309:A 0.000266501
3 *1309:A *1321:A 8.97484e-05
4 *1309:A *332:28 0
5 *1309:A *371:48 0
6 *36:15 *1309:A 8.73764e-05
*RES
1 data_in[1] *1309:A 48.9255 
*END

*D_NET *48 0.000997297
*CONN
*P data_in[20] I
*I *1310:A I *D sky130_fd_sc_hd__clkbuf_1
*CAP
1 data_in[20] 0.000498649
2 *1310:A 0.000498649
3 *1310:A *1313:A 0
4 acc[20] *1310:A 0
*RES
1 data_in[20] *1310:A 48.73 
*END

*D_NET *49 0.00106389
*CONN
*P data_in[21] I
*I *1311:A I *D sky130_fd_sc_hd__clkbuf_1
*CAP
1 data_in[21] 0.000531944
2 *1311:A 0.000531944
3 *1311:A *348:14 0
4 acc[22] *1311:A 0
*RES
1 data_in[21] *1311:A 49.6829 
*END

*D_NET *50 0.00106389
*CONN
*P data_in[22] I
*I *1312:A I *D sky130_fd_sc_hd__clkbuf_1
*CAP
1 data_in[22] 0.000531944
2 *1312:A 0.000531944
3 *1312:A *346:25 0
4 *1312:A *348:14 0
5 acc[20] *1312:A 0
6 acc[22] *1312:A 0
*RES
1 data_in[22] *1312:A 49.6829 
*END

*D_NET *51 0.00107397
*CONN
*P data_in[23] I
*I *1313:A I *D sky130_fd_sc_hd__clkbuf_1
*CAP
1 data_in[23] 0.000536984
2 *1313:A 0.000536984
3 *1313:A *349:25 0
4 acc[23] *1313:A 0
5 *1310:A *1313:A 0
*RES
1 data_in[23] *1313:A 49.6829 
*END

*D_NET *52 0.00106389
*CONN
*P data_in[24] I
*I *1314:A I *D sky130_fd_sc_hd__clkbuf_1
*CAP
1 data_in[24] 0.000531944
2 *1314:A 0.000531944
3 *1314:A *1316:A 0
4 *1314:A *351:42 0
*RES
1 data_in[24] *1314:A 49.6829 
*END

*D_NET *53 0.000980411
*CONN
*P data_in[25] I
*I *1315:A I *D sky130_fd_sc_hd__clkbuf_1
*CAP
1 data_in[25] 0.000490205
2 *1315:A 0.000490205
3 *1315:A *1356:A 0
4 *1315:A *351:42 0
5 acc[25] *1315:A 0
6 *19:10 *1315:A 0
*RES
1 data_in[25] *1315:A 48.73 
*END

*D_NET *54 0.000980411
*CONN
*P data_in[26] I
*I *1316:A I *D sky130_fd_sc_hd__buf_1
*CAP
1 data_in[26] 0.000490205
2 *1316:A 0.000490205
3 *1316:A *1318:A 0
4 *1314:A *1316:A 0
*RES
1 data_in[26] *1316:A 48.73 
*END

*D_NET *55 0.000982356
*CONN
*P data_in[27] I
*I *1318:A I *D sky130_fd_sc_hd__buf_1
*CAP
1 data_in[27] 0.00048814
2 *1318:A 0.00048814
3 *1318:A *1357:A 6.07611e-06
4 acc[26] *1318:A 0
5 *1316:A *1318:A 0
*RES
1 data_in[27] *1318:A 48.73 
*END

*D_NET *56 0.000884983
*CONN
*P data_in[28] I
*I *1319:A I *D sky130_fd_sc_hd__clkbuf_1
*CAP
1 data_in[28] 0.000333998
2 *1319:A 0.000333998
3 *1319:A *1320:A 9.39643e-05
4 *1319:A *332:28 3.46181e-05
5 acc[29] *1319:A 0
6 acc[31] *1319:A 8.8404e-05
*RES
1 data_in[28] *1319:A 49.1831 
*END

*D_NET *57 0.000655097
*CONN
*P data_in[29] I
*I *1320:A I *D sky130_fd_sc_hd__clkbuf_1
*CAP
1 data_in[29] 0.000235692
2 *1320:A 0.000235692
3 *1320:A *320:10 0
4 *1320:A *332:28 0
5 acc[29] *1320:A 8.97484e-05
6 *1319:A *1320:A 9.39643e-05
*RES
1 data_in[29] *1320:A 48.5734 
*END

*D_NET *58 0.000571176
*CONN
*P data_in[2] I
*I *1321:A I *D sky130_fd_sc_hd__clkbuf_1
*CAP
1 data_in[2] 0.00019365
2 *1321:A 0.00019365
3 *1321:A *321:8 1.27424e-05
4 *1321:A *371:48 0
5 acc[2] *1321:A 8.13852e-05
6 *1309:A *1321:A 8.97484e-05
*RES
1 data_in[2] *1321:A 47.8691 
*END

*D_NET *59 0.00085677
*CONN
*P data_in[30] I
*I *1322:A I *D sky130_fd_sc_hd__clkbuf_1
*CAP
1 data_in[30] 0.000277923
2 *1322:A 0.000277923
3 *1322:A *1323:A 9.39643e-05
4 *1322:A *355:44 0.000108079
5 acc[30] *1322:A 9.8882e-05
6 acc[31] *1322:A 0
*RES
1 data_in[30] *1322:A 48.4788 
*END

*D_NET *60 0.000730418
*CONN
*P data_in[31] I
*I *1323:A I *D sky130_fd_sc_hd__clkbuf_1
*CAP
1 data_in[31] 0.000240615
2 *1323:A 0.000240615
3 *1323:A *323:8 6.54744e-05
4 *1323:A *355:44 0
5 acc[31] *1323:A 8.97484e-05
6 *1322:A *1323:A 9.39643e-05
*RES
1 data_in[31] *1323:A 49.2777 
*END

*D_NET *61 0.000943366
*CONN
*P data_in[3] I
*I *1324:A I *D sky130_fd_sc_hd__clkbuf_2
*CAP
1 data_in[3] 0.000319488
2 *1324:A 0.000319488
3 *1324:A *1325:A 8.97484e-05
4 *1324:A *325:8 4.77554e-05
5 *1324:A *362:10 0
6 *1324:A *362:20 7.03766e-05
7 acc[1] *1324:A 0
8 acc[4] *1324:A 9.65101e-05
*RES
1 data_in[3] *1324:A 49.7157 
*END

*D_NET *62 0.000565536
*CONN
*P data_in[4] I
*I *1325:A I *D sky130_fd_sc_hd__clkbuf_1
*CAP
1 data_in[4] 0.000179662
2 *1325:A 0.000179662
3 *1325:A *332:38 2.90878e-05
4 acc[1] *1325:A 8.73764e-05
5 *1324:A *1325:A 8.97484e-05
*RES
1 data_in[4] *1325:A 47.8691 
*END

*D_NET *63 0.000832129
*CONN
*P data_in[5] I
*I *1326:A I *D sky130_fd_sc_hd__clkbuf_1
*CAP
1 data_in[5] 0.000293647
2 *1326:A 0.000293647
3 *1326:A *155:8 2.60152e-05
4 *1326:A *326:14 2.24608e-05
5 *1326:A *362:20 1.14452e-05
6 acc[3] *1326:A 0
7 acc[4] *1326:A 8.8404e-05
8 acc[5] *1326:A 9.65101e-05
*RES
1 data_in[5] *1326:A 48.2126 
*END

*D_NET *64 0.000914002
*CONN
*P data_in[6] I
*I *1327:A I *D sky130_fd_sc_hd__buf_1
*CAP
1 data_in[6] 0.000451929
2 *1327:A 0.000451929
3 *1327:A *1367:A 1.01436e-05
4 acc[6] *1327:A 0
*RES
1 data_in[6] *1327:A 47.3214 
*END

*D_NET *65 0.000512212
*CONN
*P data_in[7] I
*I *1329:A I *D sky130_fd_sc_hd__clkbuf_1
*CAP
1 data_in[7] 0.000170539
2 *1329:A 0.000170539
3 *1329:A *369:66 0
4 acc[3] *1329:A 8.97484e-05
5 acc[7] *1329:A 8.13852e-05
*RES
1 data_in[7] *1329:A 47.1648 
*END

*D_NET *66 0.000908848
*CONN
*P data_in[8] I
*I *1330:A I *D sky130_fd_sc_hd__clkbuf_1
*CAP
1 data_in[8] 0.000454424
2 *1330:A 0.000454424
3 acc[8] *1330:A 0
4 acc[9] *1330:A 0
*RES
1 data_in[8] *1330:A 47.3214 
*END

*D_NET *67 0.00125607
*CONN
*P data_in[9] I
*I *1331:A I *D sky130_fd_sc_hd__clkbuf_1
*CAP
1 data_in[9] 0.000461178
2 *1331:A 0.000461178
3 *1331:A *1082:A 0.000143655
4 *1331:A *336:51 4.6318e-06
5 *1331:A *367:25 0.000185428
6 acc[12] *1331:A 0
7 acc[9] *1331:A 0
*RES
1 data_in[9] *1331:A 48.7507 
*END

*D_NET *68 0.000742945
*CONN
*P rst I
*I *1332:A I *D sky130_fd_sc_hd__buf_1
*CAP
1 rst 0.000326598
2 *1332:A 0.000326598
3 *1332:A *332:10 0
4 acc[28] *1332:A 8.97484e-05
*RES
1 rst *1332:A 49.6298 
*END

*D_NET *69 0.00049431
*CONN
*I *1262:RESET_B I *D sky130_fd_sc_hd__dfrtp_1
*I *1053:Y O *D sky130_fd_sc_hd__inv_2
*CAP
1 *1262:RESET_B 0
2 *1053:Y 4.74541e-05
3 *69:8 4.74541e-05
4 *69:8 *332:28 0.000199701
5 *36:15 *69:8 0.000199701
*RES
1 *1053:Y *69:8 40.61 
2 *69:8 *1262:RESET_B 15 
*END

*D_NET *70 0.00102441
*CONN
*I *1263:RESET_B I *D sky130_fd_sc_hd__dfrtp_1
*I *1254:Y O *D sky130_fd_sc_hd__inv_2
*CAP
1 *1263:RESET_B 0
2 *1254:Y 0.00029956
3 *70:10 0.00029956
4 *70:10 *332:38 6.70723e-05
5 *70:10 *368:8 0.000310641
6 *14:12 *70:10 4.75766e-05
*RES
1 *1254:Y *70:10 44.4421 
2 *70:10 *1263:RESET_B 15 
*END

*D_NET *71 0.000367915
*CONN
*I *1264:RESET_B I *D sky130_fd_sc_hd__dfrtp_1
*I *1255:Y O *D sky130_fd_sc_hd__inv_2
*CAP
1 *1264:RESET_B 0.000183957
2 *1255:Y 0.000183957
*RES
1 *1255:Y *1264:RESET_B 25.9311 
*END

*D_NET *72 0.000401671
*CONN
*I *1265:RESET_B I *D sky130_fd_sc_hd__dfrtp_4
*I *1256:Y O *D sky130_fd_sc_hd__inv_2
*CAP
1 *1265:RESET_B 0
2 *1256:Y 0.000189321
3 *72:10 0.000189321
4 *72:10 *1099:B1 0
5 *72:10 *360:10 0
6 *72:10 *369:86 2.30292e-05
*RES
1 *1256:Y *72:10 41.2314 
2 *72:10 *1265:RESET_B 15 
*END

*D_NET *73 0.000434325
*CONN
*I *1266:RESET_B I *D sky130_fd_sc_hd__dfrtp_1
*I *1257:Y O *D sky130_fd_sc_hd__inv_2
*CAP
1 *1266:RESET_B 0
2 *1257:Y 0.00013121
3 *73:8 0.00013121
4 *73:8 *332:38 0
5 *73:8 *369:10 0.000171906
6 *73:8 *369:86 0
*RES
1 *1257:Y *73:8 41.3143 
2 *73:8 *1266:RESET_B 15 
*END

*D_NET *74 0.000334637
*CONN
*I *1267:RESET_B I *D sky130_fd_sc_hd__dfrtp_1
*I *1258:Y O *D sky130_fd_sc_hd__inv_2
*CAP
1 *1267:RESET_B 0
2 *1258:Y 8.13659e-05
3 *74:8 8.13659e-05
4 *74:8 *154:45 0.000171906
5 *74:8 *369:56 0
*RES
1 *1258:Y *74:8 40.2579 
2 *74:8 *1267:RESET_B 15 
*END

*D_NET *75 0.000194273
*CONN
*I *1268:RESET_B I *D sky130_fd_sc_hd__dfrtp_1
*I *1259:Y O *D sky130_fd_sc_hd__inv_2
*CAP
1 *1268:RESET_B 0
2 *1259:Y 6.80883e-05
3 *75:8 6.80883e-05
4 *75:8 *366:29 5.80963e-05
5 *75:8 *369:36 0
*RES
1 *1259:Y *75:8 39.5536 
2 *75:8 *1268:RESET_B 15 
*END

*D_NET *76 0.000450485
*CONN
*I *1269:RESET_B I *D sky130_fd_sc_hd__dfrtp_1
*I *1260:Y O *D sky130_fd_sc_hd__inv_2
*CAP
1 *1269:RESET_B 9.28122e-05
2 *1260:Y 9.28122e-05
3 *1269:RESET_B *1368:A 0.000127821
4 *1269:RESET_B *365:12 0.000137039
*RES
1 *1260:Y *1269:RESET_B 25.9311 
*END

*D_NET *77 0.000346669
*CONN
*I *1270:RESET_B I *D sky130_fd_sc_hd__dfrtp_1
*I *1261:Y O *D sky130_fd_sc_hd__inv_2
*CAP
1 *1270:RESET_B 0.000109566
2 *1261:Y 0.000109566
3 *1270:RESET_B *303:14 0.000127537
*RES
1 *1261:Y *1270:RESET_B 25.4546 
*END

*D_NET *78 0.00146502
*CONN
*I *1271:RESET_B I *D sky130_fd_sc_hd__dfrtp_1
*I *1030:Y O *D sky130_fd_sc_hd__inv_2
*CAP
1 *1271:RESET_B 0.00070797
2 *1030:Y 0.00070797
3 *1271:RESET_B *1081:B 0
4 *1271:RESET_B *303:55 4.39278e-05
5 *1271:RESET_B *303:72 5.14746e-06
*RES
1 *1030:Y *1271:RESET_B 32.8496 
*END

*D_NET *79 0.000498875
*CONN
*I *1272:RESET_B I *D sky130_fd_sc_hd__dfrtp_1
*I *1031:Y O *D sky130_fd_sc_hd__inv_2
*CAP
1 *1272:RESET_B 7.77646e-05
2 *1031:Y 7.77646e-05
3 *1272:RESET_B *302:22 0.000264463
4 *1272:RESET_B *334:8 7.88828e-05
*RES
1 *1031:Y *1272:RESET_B 25.9311 
*END

*D_NET *80 0.000396895
*CONN
*I *1273:RESET_B I *D sky130_fd_sc_hd__dfrtp_1
*I *1032:Y O *D sky130_fd_sc_hd__inv_2
*CAP
1 *1273:RESET_B 0
2 *1032:Y 0.000184246
3 *80:10 0.000184246
4 *80:10 *280:10 0
5 *80:10 *368:90 2.30292e-05
6 *80:10 *368:100 5.37348e-06
*RES
1 *1032:Y *80:10 41.2314 
2 *80:10 *1273:RESET_B 15 
*END

*D_NET *81 0.000302549
*CONN
*I *1274:RESET_B I *D sky130_fd_sc_hd__dfrtp_1
*I *1033:Y O *D sky130_fd_sc_hd__inv_2
*CAP
1 *1274:RESET_B 2.51449e-05
2 *1033:Y 0.000101935
3 *81:8 0.00012708
4 *1274:RESET_B *336:10 4.83893e-05
5 *81:8 *368:84 0
*RES
1 *1033:Y *81:8 39.5536 
2 *81:8 *1274:RESET_B 15.5489 
*END

*D_NET *82 0.000534147
*CONN
*I *1275:RESET_B I *D sky130_fd_sc_hd__dfrtp_1
*I *1034:Y O *D sky130_fd_sc_hd__inv_2
*CAP
1 *1275:RESET_B 0
2 *1034:Y 0.000155502
3 *82:10 0.000155502
4 *82:10 *1034:A 8.62876e-05
5 *82:10 *186:12 2.84912e-05
6 *82:10 *282:10 5.50049e-05
7 *82:10 *368:49 5.33597e-05
*RES
1 *1034:Y *82:10 41.2314 
2 *82:10 *1275:RESET_B 15 
*END

*D_NET *83 0.00120089
*CONN
*I *1276:RESET_B I *D sky130_fd_sc_hd__dfrtp_1
*I *1035:Y O *D sky130_fd_sc_hd__inv_2
*CAP
1 *1276:RESET_B 0.000156554
2 *1035:Y 0.000264133
3 *83:10 0.000420687
4 *1276:RESET_B *1272:CLK 1.12349e-05
5 *1276:RESET_B *302:22 4.70543e-05
6 *1276:RESET_B *302:24 0.000118459
7 *1276:RESET_B *338:8 0.00010108
8 *83:10 *338:21 0
9 *83:10 *368:110 8.16913e-05
*RES
1 *1035:Y *83:10 41.9564 
2 *83:10 *1276:RESET_B 19.5261 
*END

*D_NET *84 0.000290101
*CONN
*I *1277:RESET_B I *D sky130_fd_sc_hd__dfrtp_1
*I *1036:Y O *D sky130_fd_sc_hd__inv_2
*CAP
1 *1277:RESET_B 0
2 *1036:Y 0.00014505
3 *84:10 0.00014505
4 *84:10 *368:59 0
*RES
1 *1036:Y *84:10 40.175 
2 *84:10 *1277:RESET_B 15 
*END

*D_NET *85 0.000336422
*CONN
*I *1278:RESET_B I *D sky130_fd_sc_hd__dfrtp_1
*I *1037:Y O *D sky130_fd_sc_hd__inv_2
*CAP
1 *1278:RESET_B 9.96915e-05
2 *1037:Y 9.96915e-05
3 *1278:RESET_B *341:10 0.000137039
*RES
1 *1037:Y *1278:RESET_B 25.4546 
*END

*D_NET *86 0.000327735
*CONN
*I *1279:RESET_B I *D sky130_fd_sc_hd__dfrtp_1
*I *1038:Y O *D sky130_fd_sc_hd__inv_2
*CAP
1 *1279:RESET_B 6.84887e-05
2 *1038:Y 9.53785e-05
3 *86:8 0.000163867
4 *86:8 *302:52 0
*RES
1 *1038:Y *86:8 39.5536 
2 *86:8 *1279:RESET_B 16.0254 
*END

*D_NET *87 0.000178601
*CONN
*I *1280:RESET_B I *D sky130_fd_sc_hd__dfrtp_1
*I *1039:Y O *D sky130_fd_sc_hd__inv_2
*CAP
1 *1280:RESET_B 0
2 *1039:Y 8.93007e-05
3 *87:8 8.93007e-05
*RES
1 *1039:Y *87:8 39.5536 
2 *87:8 *1280:RESET_B 15 
*END

*D_NET *88 0.000229431
*CONN
*I *1281:RESET_B I *D sky130_fd_sc_hd__dfrtp_1
*I *1040:Y O *D sky130_fd_sc_hd__inv_2
*CAP
1 *1281:RESET_B 0
2 *1040:Y 9.42836e-05
3 *88:8 9.42836e-05
4 *88:8 *1220:A 0
5 *88:8 *304:80 4.08641e-05
*RES
1 *1040:Y *88:8 39.9057 
2 *88:8 *1281:RESET_B 15 
*END

*D_NET *89 0.000372788
*CONN
*I *1282:RESET_B I *D sky130_fd_sc_hd__dfrtp_1
*I *1041:Y O *D sky130_fd_sc_hd__inv_2
*CAP
1 *1282:RESET_B 5.34473e-05
2 *1041:Y 5.34473e-05
3 *1282:RESET_B *218:6 0.000223988
4 *1282:RESET_B *346:10 4.19048e-05
*RES
1 *1041:Y *1282:RESET_B 25.4546 
*END

*D_NET *90 0.000402872
*CONN
*I *1283:RESET_B I *D sky130_fd_sc_hd__dfrtp_1
*I *1042:Y O *D sky130_fd_sc_hd__inv_2
*CAP
1 *1283:RESET_B 0
2 *1042:Y 0.000201436
3 *90:10 0.000201436
4 *90:10 *290:10 0
5 *90:10 *304:72 0
*RES
1 *1042:Y *90:10 41.2314 
2 *90:10 *1283:RESET_B 15 
*END

*D_NET *91 0.000354688
*CONN
*I *1284:RESET_B I *D sky130_fd_sc_hd__dfrtp_1
*I *1043:Y O *D sky130_fd_sc_hd__inv_2
*CAP
1 *1284:RESET_B 5.4754e-05
2 *1043:Y 9.7452e-05
3 *91:8 0.000152206
4 *1284:RESET_B *304:64 5.02764e-05
5 *91:8 *304:72 0
*RES
1 *1043:Y *91:8 39.5536 
2 *91:8 *1284:RESET_B 16.0254 
*END

*D_NET *92 0.000389858
*CONN
*I *1285:RESET_B I *D sky130_fd_sc_hd__dfrtp_1
*I *1044:Y O *D sky130_fd_sc_hd__inv_2
*CAP
1 *1285:RESET_B 0
2 *1044:Y 6.15601e-05
3 *92:8 6.15601e-05
4 *92:8 *1044:A 0
5 *92:8 *313:23 0.000171906
6 *92:8 *349:12 9.48318e-05
*RES
1 *1044:Y *92:8 40.2579 
2 *92:8 *1285:RESET_B 15 
*END

*D_NET *93 0.000916511
*CONN
*I *1286:RESET_B I *D sky130_fd_sc_hd__dfrtp_1
*I *1045:Y O *D sky130_fd_sc_hd__inv_2
*CAP
1 *1286:RESET_B 3.63448e-05
2 *1045:Y 0.000173419
3 *93:10 0.000209764
4 *1286:RESET_B *1297:A 0.000178813
5 *1286:RESET_B *305:12 9.987e-05
6 *93:10 *370:118 0.000188926
7 *93:10 *370:126 2.93747e-05
*RES
1 *1045:Y *93:10 41.2314 
2 *93:10 *1286:RESET_B 16.9782 
*END

*D_NET *94 0.000292736
*CONN
*I *1287:RESET_B I *D sky130_fd_sc_hd__dfrtp_1
*I *1046:Y O *D sky130_fd_sc_hd__inv_2
*CAP
1 *1287:RESET_B 0
2 *1046:Y 0.000146368
3 *94:10 0.000146368
4 *94:10 *222:14 0
5 *94:10 *305:29 0
*RES
1 *1046:Y *94:10 40.175 
2 *94:10 *1287:RESET_B 15 
*END

*D_NET *95 0.000361289
*CONN
*I *1288:RESET_B I *D sky130_fd_sc_hd__dfrtp_1
*I *1047:Y O *D sky130_fd_sc_hd__inv_2
*CAP
1 *1288:RESET_B 0
2 *1047:Y 0.000108286
3 *95:10 0.000108286
4 *95:10 *315:8 0.000116314
5 *95:10 *351:42 0
6 *95:10 *370:26 2.30292e-05
7 *95:10 *370:30 5.37348e-06
*RES
1 *1047:Y *95:10 40.175 
2 *95:10 *1288:RESET_B 15 
*END

*D_NET *96 0.000379292
*CONN
*I *1289:RESET_B I *D sky130_fd_sc_hd__dfrtp_1
*I *1048:Y O *D sky130_fd_sc_hd__inv_2
*CAP
1 *1289:RESET_B 0
2 *1048:Y 0.000117917
3 *96:10 0.000117917
4 *96:10 *1289:CLK 0.000114083
5 *96:10 *370:12 2.93747e-05
*RES
1 *1048:Y *96:10 40.175 
2 *96:10 *1289:RESET_B 15 
*END

*D_NET *97 0.000269036
*CONN
*I *1290:RESET_B I *D sky130_fd_sc_hd__dfrtp_1
*I *1049:Y O *D sky130_fd_sc_hd__inv_2
*CAP
1 *1290:RESET_B 0
2 *1049:Y 0.000134518
3 *97:8 0.000134518
4 *97:8 *297:8 0
*RES
1 *1049:Y *97:8 40.61 
2 *97:8 *1290:RESET_B 15 
*END

*D_NET *98 0.000374727
*CONN
*I *1291:RESET_B I *D sky130_fd_sc_hd__dfrtp_1
*I *1050:Y O *D sky130_fd_sc_hd__inv_2
*CAP
1 *1291:RESET_B 0.000140434
2 *1050:Y 0.000140434
3 *1291:RESET_B *1050:A 2.32101e-05
4 *1291:RESET_B *371:42 7.06491e-05
*RES
1 *1050:Y *1291:RESET_B 25.4546 
*END

*D_NET *99 0.000415525
*CONN
*I *1292:RESET_B I *D sky130_fd_sc_hd__dfrtp_1
*I *1051:Y O *D sky130_fd_sc_hd__inv_2
*CAP
1 *1292:RESET_B 0
2 *1051:Y 9.54055e-05
3 *99:10 9.54055e-05
4 *99:10 *231:6 5.50106e-05
5 *99:10 *332:28 5.56203e-05
6 *99:10 *371:8 0.000114083
*RES
1 *1051:Y *99:10 40.175 
2 *99:10 *1292:RESET_B 15 
*END

*D_NET *100 0.00024543
*CONN
*I *1293:RESET_B I *D sky130_fd_sc_hd__dfrtp_1
*I *1052:Y O *D sky130_fd_sc_hd__inv_2
*CAP
1 *1293:RESET_B 0
2 *1052:Y 4.5488e-05
3 *100:8 4.5488e-05
4 *100:8 *332:28 3.81391e-05
5 *100:8 *371:10 0.000116314
*RES
1 *1052:Y *100:8 39.5536 
2 *100:8 *1293:RESET_B 15 
*END

*D_NET *101 0.00285198
*CONN
*I *1189:A1 I *D sky130_fd_sc_hd__a31o_1
*I *1191:C1 I *D sky130_fd_sc_hd__o211a_1
*I *1184:A I *D sky130_fd_sc_hd__nand2_1
*I *1056:A I *D sky130_fd_sc_hd__nand2_1
*I *1054:Y O *D sky130_fd_sc_hd__nand2_1
*CAP
1 *1189:A1 8.03152e-05
2 *1191:C1 6.20851e-05
3 *1184:A 0.000162604
4 *1056:A 4.91011e-05
5 *1054:Y 0
6 *101:40 0.000483413
7 *101:8 0.0002811
8 *101:4 0.000410408
9 *1056:A *228:21 0
10 *1056:A *230:8 2.71291e-05
11 *1056:A *355:25 4.21594e-06
12 *1184:A *1184:B 5.90675e-06
13 *1184:A *1193:A1 5.90675e-06
14 *1184:A *226:17 5.70419e-05
15 *1184:A *230:8 3.62323e-05
16 *1184:A *305:82 0
17 *1189:A1 *226:36 4.34973e-05
18 *1191:C1 *226:36 2.02872e-05
19 *1191:C1 *234:10 5.50049e-05
20 *101:8 *305:82 9.84851e-05
21 *101:40 *1189:A3 5.15096e-05
22 *101:40 *1192:A1 0
23 *101:40 *228:21 0.000293785
24 *101:40 *305:82 0.000355319
25 *101:40 *305:93 0.000238185
26 *101:40 *355:44 3.04516e-05
*RES
1 *1054:Y *101:4 23 
2 *101:4 *101:8 16.0979 
3 *101:8 *1056:A 38.8493 
4 *101:8 *1184:A 41.2936 
5 *101:4 *101:40 38.0786 
6 *101:40 *1191:C1 24.0979 
7 *101:40 *1189:A1 24.5743 
*END

*D_NET *102 0.000140026
*CONN
*I *1056:B I *D sky130_fd_sc_hd__nand2_1
*I *1055:X O *D sky130_fd_sc_hd__or2_1
*CAP
1 *1056:B 1.50079e-05
2 *1055:X 1.50079e-05
3 *1056:B *1055:A 5.50049e-05
4 *1056:B *305:82 5.50049e-05
*RES
1 *1055:X *1056:B 46.6214 
*END

*D_NET *103 0.003435
*CONN
*I *1179:C1 I *D sky130_fd_sc_hd__a311o_1
*I *1180:A I *D sky130_fd_sc_hd__xnor2_1
*I *1056:Y O *D sky130_fd_sc_hd__nand2_1
*CAP
1 *1179:C1 0.000100958
2 *1180:A 0.00011597
3 *1056:Y 0.000718574
4 *103:10 0.00022926
5 *103:6 0.000730905
6 *1179:C1 *1179:A2 5.33797e-05
7 *1179:C1 *117:10 1.14452e-05
8 *1179:C1 *118:47 4.6318e-06
9 *1179:C1 *225:8 2.45318e-05
10 *1180:A *1179:A2 4.25892e-06
11 *1180:A *225:8 0.000293183
12 *1180:A *301:30 0
13 *1180:A *305:45 0.000253061
14 *103:6 *305:6 0.000269391
15 *103:6 *305:8 6.17437e-06
16 *103:6 *305:82 0.000619272
*RES
1 *1056:Y *103:6 35.0557 
2 *103:6 *103:10 15.3211 
3 *103:10 *1180:A 42.8161 
4 *103:10 *1179:C1 39.7296 
*END

*D_NET *104 0.00224572
*CONN
*I *1065:A I *D sky130_fd_sc_hd__or2_1
*I *1200:B1_N I *D sky130_fd_sc_hd__a21bo_1
*I *1059:A I *D sky130_fd_sc_hd__nand2_1
*I *1057:Y O *D sky130_fd_sc_hd__nand2_1
*CAP
1 *1065:A 0.000323823
2 *1200:B1_N 0
3 *1059:A 0.000102605
4 *1057:Y 0.00015471
5 *104:21 0.000366443
6 *104:8 0.000299935
7 *1059:A *1058:A 2.76611e-06
8 *1059:A *1200:A2 0
9 *1059:A *105:25 7.03663e-05
10 *1059:A *352:18 2.96369e-05
11 *1065:A *1057:A 0.000140259
12 *1065:A *1058:B 5.50106e-05
13 *1065:A *105:6 7.11496e-05
14 *1065:A *105:14 1.40958e-05
15 *104:8 *1057:A 0.000119287
16 *104:8 *1057:B 0.000139346
17 *104:8 *1058:B 0.000140259
18 *104:8 *105:14 0.000181125
19 *104:21 *1058:A 1.62015e-05
20 *104:21 *1356:A 1.19796e-05
21 *104:21 *352:18 6.7177e-06
*RES
1 *1057:Y *104:8 42.4329 
2 *104:8 *1059:A 40.2579 
3 *104:8 *104:21 15.8493 
4 *104:21 *1200:B1_N 23 
5 *104:21 *1065:A 29.0279 
*END

*D_NET *105 0.00131132
*CONN
*I *1059:B I *D sky130_fd_sc_hd__nand2_1
*I *1200:A1 I *D sky130_fd_sc_hd__a21bo_1
*I *1058:X O *D sky130_fd_sc_hd__or2_1
*CAP
1 *1059:B 0
2 *1200:A1 0
3 *1058:X 9.43856e-05
4 *105:25 8.63649e-05
5 *105:14 0.000232167
6 *105:6 0.000412918
7 *105:14 *1058:B 2.32101e-05
8 *105:14 *1200:A2 6.38845e-05
9 *105:14 *352:18 6.16531e-05
10 *105:25 *370:118 0
11 *1059:A *105:25 7.03663e-05
12 *1065:A *105:6 7.11496e-05
13 *1065:A *105:14 1.40958e-05
14 *104:8 *105:14 0.000181125
*RES
1 *1058:X *105:6 24.5743 
2 *105:6 *105:14 33.8529 
3 *105:14 *1200:A1 23 
4 *105:6 *105:25 31.9057 
5 *105:25 *1059:B 23 
*END

*D_NET *106 0.00132588
*CONN
*I *1064:A I *D sky130_fd_sc_hd__or2_1
*I *1199:A I *D sky130_fd_sc_hd__xnor2_1
*I *1059:Y O *D sky130_fd_sc_hd__nand2_1
*CAP
1 *1064:A 0.000406434
2 *1199:A 0
3 *1059:Y 0
4 *106:12 0.000205461
5 *106:4 0.000611895
6 *1064:A *1064:B 0.000102093
7 *106:12 *1200:A2 0
8 *106:12 *240:10 0
9 *106:12 *370:118 0
*RES
1 *1059:Y *106:4 23 
2 *106:4 *106:12 33.5836 
3 *106:12 *1199:A 23 
4 *106:4 *1064:A 30.3121 
*END

*D_NET *107 0.0019423
*CONN
*I *1066:A I *D sky130_fd_sc_hd__nor2_1
*I *1204:A I *D sky130_fd_sc_hd__xor2_1
*I *1070:A1 I *D sky130_fd_sc_hd__o21a_1
*I *1060:Y O *D sky130_fd_sc_hd__xnor2_1
*CAP
1 *1066:A 0
2 *1204:A 0
3 *1070:A1 0
4 *1060:Y 0.000124111
5 *107:24 0.000309616
6 *107:16 0.000502975
7 *107:10 0.000317469
8 *107:10 *1060:A 3.50723e-05
9 *107:10 *1068:A2 0
10 *107:10 *296:8 0.000141869
11 *107:10 *353:32 4.6318e-06
12 *107:16 *112:19 0.000101117
13 *107:16 *115:8 2.72055e-05
14 *107:16 *296:8 0.000168754
15 *107:24 *1203:A 0
16 *107:24 *1204:B 5.41385e-05
17 *107:24 *111:10 0
18 *107:24 *112:19 1.40958e-05
19 *107:24 *115:8 0.000141248
20 *107:24 *242:8 0
*RES
1 *1060:Y *107:10 40.5271 
2 *107:10 *107:16 19.8886 
3 *107:16 *107:24 37.0014 
4 *107:24 *1070:A1 23 
5 *107:16 *1204:A 23 
6 *107:10 *1066:A 38 
*END

*D_NET *108 0.00120937
*CONN
*I *1063:A I *D sky130_fd_sc_hd__nand2_1
*I *1203:A I *D sky130_fd_sc_hd__and3_1
*I *1061:Y O *D sky130_fd_sc_hd__nand2_1
*CAP
1 *1063:A 0.000165777
2 *1203:A 0.000261693
3 *1061:Y 9.36746e-05
4 *108:8 0.000521145
5 *1063:A *370:24 0.000153145
6 *1203:A *109:10 0
7 *1203:A *112:6 1.39317e-05
8 *1203:A *114:8 0
9 *1203:A *115:8 0
10 *1203:A *314:16 0
11 *108:8 *109:10 0
12 *108:8 *114:8 0
13 *107:24 *1203:A 0
*RES
1 *1061:Y *108:8 39.5536 
2 *108:8 *1203:A 42.64 
3 *108:8 *1063:A 41.5007 
*END

*D_NET *109 0.000377672
*CONN
*I *1063:B I *D sky130_fd_sc_hd__nand2_1
*I *1062:X O *D sky130_fd_sc_hd__or2_1
*CAP
1 *1063:B 0
2 *1062:X 0.000139663
3 *109:10 0.000139663
4 *109:10 *110:8 4.334e-05
5 *109:10 *314:16 0
6 *109:10 *353:8 5.50049e-05
7 *1203:A *109:10 0
8 *108:8 *109:10 0
*RES
1 *1062:X *109:10 40.5271 
2 *109:10 *1063:B 38 
*END

*D_NET *110 0.003876
*CONN
*I *1065:B I *D sky130_fd_sc_hd__or2_1
*I *1064:B I *D sky130_fd_sc_hd__or2_1
*I *1202:A I *D sky130_fd_sc_hd__xnor2_1
*I *1063:Y O *D sky130_fd_sc_hd__nand2_1
*CAP
1 *1065:B 0
2 *1064:B 0.000148324
3 *1202:A 0.000614431
4 *1063:Y 0.000116131
5 *110:27 0.000282065
6 *110:12 0.000891989
7 *110:8 0.000259948
8 *1064:B *314:16 0.000141888
9 *1064:B *351:42 0.00014411
10 *1202:A *1288:D 0.00010779
11 *110:8 *314:16 0
12 *110:12 *353:8 5.41288e-05
13 *110:27 *314:16 0.000490604
14 *110:27 *351:42 0.000479159
15 *1064:A *1064:B 0.000102093
16 *109:10 *110:8 4.334e-05
*RES
1 *1063:Y *110:8 40.2579 
2 *110:8 *110:12 17.5271 
3 *110:12 *1202:A 33.7921 
4 *110:12 *110:27 21.4836 
5 *110:27 *1064:B 41.9564 
6 *110:27 *1065:B 38 
*END

*D_NET *111 0.0010239
*CONN
*I *1070:A2 I *D sky130_fd_sc_hd__o21a_1
*I *1201:B1 I *D sky130_fd_sc_hd__a21o_1
*I *1064:X O *D sky130_fd_sc_hd__or2_1
*CAP
1 *1070:A2 0.000184421
2 *1201:B1 0
3 *1064:X 0.000236273
4 *111:12 0.000184421
5 *111:10 0.000236273
6 *1070:A2 *116:8 4.95081e-05
7 *1070:A2 *116:18 5.50106e-05
8 *1070:A2 *117:10 3.71369e-05
9 *111:10 *116:18 0
10 *111:10 *242:8 4.08537e-05
11 *111:10 *314:16 0
12 *107:24 *111:10 0
*RES
1 *1064:X *111:10 41.3557 
2 *111:10 *111:12 15 
3 *111:12 *1201:B1 23 
4 *111:12 *1070:A2 26.9771 
*END

*D_NET *112 0.00191314
*CONN
*I *1066:B I *D sky130_fd_sc_hd__nor2_1
*I *1203:B I *D sky130_fd_sc_hd__and3_1
*I *1065:X O *D sky130_fd_sc_hd__or2_1
*CAP
1 *1066:B 0
2 *1203:B 0
3 *1065:X 0.000303705
4 *112:19 0.000405299
5 *112:6 0.000709005
6 *112:6 *1203:C 8.91468e-07
7 *112:19 *1068:A2 4.21594e-06
8 *112:19 *1203:C 5.0941e-07
9 *112:19 *1204:B 0.000274078
10 *112:19 *115:8 8.62876e-05
11 *1203:A *112:6 1.39317e-05
12 *107:16 *112:19 0.000101117
13 *107:24 *112:19 1.40958e-05
*RES
1 *1065:X *112:6 26.9564 
2 *112:6 *1203:B 23 
3 *112:6 *112:19 37.1671 
4 *112:19 *1066:B 23 
*END

*D_NET *113 0.000561626
*CONN
*I *1068:B1 I *D sky130_fd_sc_hd__a211o_1
*I *1066:Y O *D sky130_fd_sc_hd__nor2_1
*CAP
1 *1068:B1 0.000184439
2 *1066:Y 0.000184439
3 *1068:B1 *370:24 0.000192748
*RES
1 *1066:Y *1068:B1 49.9771 
*END

*D_NET *114 0.000252135
*CONN
*I *1068:C1 I *D sky130_fd_sc_hd__a211o_1
*I *1067:X O *D sky130_fd_sc_hd__o211a_1
*CAP
1 *1068:C1 0
2 *1067:X 0.000101879
3 *114:8 0.000101879
4 *114:8 *1068:A1 4.83778e-05
5 *1203:A *114:8 0
6 *108:8 *114:8 0
*RES
1 *1067:X *114:8 39.9057 
2 *114:8 *1068:C1 38 
*END

*D_NET *115 0.000957293
*CONN
*I *1069:A I *D sky130_fd_sc_hd__inv_2
*I *1068:X O *D sky130_fd_sc_hd__a211o_1
*CAP
1 *1069:A 0
2 *1068:X 0.000351276
3 *115:8 0.000351276
4 *1203:A *115:8 0
5 *107:16 *115:8 2.72055e-05
6 *107:24 *115:8 0.000141248
7 *112:19 *115:8 8.62876e-05
*RES
1 *1068:X *115:8 45.8921 
2 *115:8 *1069:A 38 
*END

*D_NET *116 0.00187422
*CONN
*I *1070:B1 I *D sky130_fd_sc_hd__o21a_1
*I *1179:A1 I *D sky130_fd_sc_hd__a311o_1
*I *1178:A1 I *D sky130_fd_sc_hd__a31oi_1
*I *1069:Y O *D sky130_fd_sc_hd__inv_2
*CAP
1 *1070:B1 0
2 *1179:A1 1.43468e-05
3 *1178:A1 8.21249e-05
4 *1069:Y 0.000152375
5 *116:18 0.000421253
6 *116:8 0.000477156
7 *1178:A1 *1178:B1 4.96717e-05
8 *1178:A1 *1179:A2 3.53115e-05
9 *1178:A1 *1179:A3 0.000268873
10 *1178:A1 *118:28 5.50049e-05
11 *1179:A1 *1178:B1 5.90675e-06
12 *1179:A1 *1179:A3 2.02517e-05
13 *1179:A1 *118:19 0
14 *116:18 *1179:A2 1.76557e-05
15 *116:18 *1179:A3 5.50049e-05
16 *116:18 *1201:A2 0
17 *116:18 *117:10 0.000114764
18 *1070:A2 *116:8 4.95081e-05
19 *1070:A2 *116:18 5.50106e-05
20 *111:10 *116:18 0
*RES
1 *1069:Y *116:8 26.0243 
2 *116:8 *116:18 36.67 
3 *116:18 *1178:A1 26.0036 
4 *116:18 *1179:A1 23.4971 
5 *116:8 *1070:B1 23 
*END

*D_NET *117 0.00114135
*CONN
*I *1179:B1 I *D sky130_fd_sc_hd__a311o_1
*I *1178:B1 I *D sky130_fd_sc_hd__a31oi_1
*I *1070:X O *D sky130_fd_sc_hd__o21a_1
*CAP
1 *1179:B1 0
2 *1178:B1 7.19855e-05
3 *1070:X 0.000277055
4 *117:12 7.19855e-05
5 *117:10 0.000277055
6 *1178:B1 *1179:A2 9.98796e-05
7 *1178:B1 *118:19 4.00259e-06
8 *117:10 *1201:A1 4.59027e-05
9 *117:10 *118:47 7.4564e-05
10 *1070:A2 *117:10 3.71369e-05
11 *1178:A1 *1178:B1 4.96717e-05
12 *1179:A1 *1178:B1 5.90675e-06
13 *1179:C1 *117:10 1.14452e-05
14 *116:18 *117:10 0.000114764
*RES
1 *1070:X *117:10 44.1729 
2 *117:10 *117:12 15 
3 *117:12 *1178:B1 25.0921 
4 *117:12 *1179:B1 23 
*END

*D_NET *118 0.00407672
*CONN
*I *1201:A1 I *D sky130_fd_sc_hd__a21o_1
*I *1198:A I *D sky130_fd_sc_hd__nand2_1
*I *1179:A2 I *D sky130_fd_sc_hd__a311o_1
*I *1178:A2 I *D sky130_fd_sc_hd__a31oi_1
*I *1073:A I *D sky130_fd_sc_hd__nand2_1
*I *1071:Y O *D sky130_fd_sc_hd__nand2_1
*CAP
1 *1201:A1 6.66519e-05
2 *1198:A 0.000336667
3 *1179:A2 0.000268245
4 *1178:A2 0
5 *1073:A 2.34823e-05
6 *1071:Y 0.000328794
7 *118:47 0.000543689
8 *118:28 0.000455151
9 *118:19 0.000152414
10 *118:8 0.000458154
11 *1073:A *314:16 0
12 *1179:A2 *1178:A3 4.21594e-06
13 *1179:A2 *225:8 1.14452e-05
14 *1179:A2 *351:27 0
15 *1198:A *224:20 0.000525417
16 *1201:A1 *1201:A2 4.31366e-05
17 *118:8 *1071:B 0.000269775
18 *118:8 *314:16 4.5051e-05
19 *118:19 *1179:A3 5.50106e-05
20 *118:28 *1179:A3 1.72202e-05
21 *118:47 *1178:A3 1.4471e-05
22 *118:47 *1201:A2 9.48381e-06
23 *118:47 *224:22 5.3656e-05
24 *1178:A1 *1179:A2 3.53115e-05
25 *1178:A1 *118:28 5.50049e-05
26 *1178:B1 *1179:A2 9.98796e-05
27 *1178:B1 *118:19 4.00259e-06
28 *1179:A1 *118:19 0
29 *1179:C1 *1179:A2 5.33797e-05
30 *1179:C1 *118:47 4.6318e-06
31 *1180:A *1179:A2 4.25892e-06
32 *116:18 *1179:A2 1.76557e-05
33 *117:10 *1201:A1 4.59027e-05
34 *117:10 *118:47 7.4564e-05
*RES
1 *1071:Y *118:8 28.2821 
2 *118:8 *1073:A 23.4971 
3 *118:8 *118:19 2.54786 
4 *118:19 *1178:A2 23 
5 *118:19 *118:28 16.0979 
6 *118:28 *1179:A2 42.64 
7 *118:28 *118:47 3.31429 
8 *118:47 *1198:A 45.2914 
9 *118:47 *1201:A1 39.9057 
*END

*D_NET *119 0.000112291
*CONN
*I *1073:B I *D sky130_fd_sc_hd__nand2_1
*I *1072:X O *D sky130_fd_sc_hd__or2_1
*CAP
1 *1073:B 1.24964e-05
2 *1072:X 1.24964e-05
3 *1073:B *120:10 3.22879e-05
4 *1073:B *314:16 5.50106e-05
*RES
1 *1072:X *1073:B 46.6214 
*END

*D_NET *120 0.0025424
*CONN
*I *1177:B1 I *D sky130_fd_sc_hd__a21o_1
*I *1196:A I *D sky130_fd_sc_hd__and3_1
*I *1176:B1 I *D sky130_fd_sc_hd__a21oi_1
*I *1073:Y O *D sky130_fd_sc_hd__nand2_1
*CAP
1 *1177:B1 1.99717e-05
2 *1196:A 0.000180135
3 *1176:B1 0
4 *1073:Y 0.000491411
5 *120:19 0.000342364
6 *120:10 0.000633668
7 *1177:B1 *1176:A2 4.00259e-06
8 *1177:B1 *1177:A2 4.00259e-06
9 *1196:A *1176:A2 8.1796e-05
10 *1196:A *1177:A2 0
11 *1196:A *218:14 2.64616e-05
12 *1196:A *218:21 0.000119313
13 *1196:A *218:40 4.79641e-05
14 *1196:A *222:14 9.70259e-06
15 *1196:A *222:21 0.000100118
16 *120:10 *1071:A 3.04516e-05
17 *120:10 *1071:B 3.53115e-05
18 *120:10 *1072:B 0.000139346
19 *120:10 *314:16 2.80512e-05
20 *120:19 *1071:B 0
21 *120:19 *1176:A2 8.79853e-05
22 *120:19 *218:40 7.1349e-05
23 *120:19 *224:10 5.67058e-05
24 *1073:B *120:10 3.22879e-05
*RES
1 *1073:Y *120:10 31.41 
2 *120:10 *1176:B1 23 
3 *120:10 *120:19 3.85286 
4 *120:19 *1196:A 28.2821 
5 *120:19 *1177:B1 23.4971 
*END

*D_NET *121 0.000899842
*CONN
*I *1086:B1 I *D sky130_fd_sc_hd__o21a_1
*I *1077:A I *D sky130_fd_sc_hd__nand2_1
*I *1074:Y O *D sky130_fd_sc_hd__nand2_1
*CAP
1 *1086:B1 6.61806e-05
2 *1077:A 0
3 *1074:Y 4.84716e-05
4 *121:12 0.000130654
5 *121:6 0.000245307
6 *1086:B1 *1074:B 9.67842e-05
7 *1086:B1 *1076:A 2.71422e-05
8 *1086:B1 *335:16 0
9 *121:6 *1074:B 0.000185428
10 *121:6 *1086:A1 5.41288e-05
11 *121:6 *1086:A2 2.98648e-05
12 *121:12 *123:8 0
13 *121:12 *125:14 0
14 *121:12 *335:31 1.58805e-05
*RES
1 *1074:Y *121:6 25.0507 
2 *121:6 *121:12 32.2579 
3 *121:12 *1077:A 23 
4 *121:6 *1086:B1 25.3821 
*END

*D_NET *122 0.000592558
*CONN
*I *1086:A1 I *D sky130_fd_sc_hd__o21a_1
*I *1075:Y O *D sky130_fd_sc_hd__nor2_1
*CAP
1 *1086:A1 2.71359e-05
2 *1075:Y 0.000133657
3 *122:10 0.000160792
4 *1086:A1 *1076:A 2.18409e-05
5 *1086:A1 *1086:A2 5.67058e-05
6 *122:10 *1074:A 1.86973e-05
7 *122:10 *1075:A 3.22879e-05
8 *122:10 *328:10 2.29192e-05
9 *122:10 *335:31 6.4393e-05
10 *121:6 *1086:A1 5.41288e-05
*RES
1 *1075:Y *122:10 40.5271 
2 *122:10 *1086:A1 39.0979 
*END

*D_NET *123 0.000661959
*CONN
*I *1077:B I *D sky130_fd_sc_hd__nand2_1
*I *1076:X O *D sky130_fd_sc_hd__or2_1
*CAP
1 *1077:B 4.56652e-05
2 *1076:X 0.000133507
3 *123:8 0.000179172
4 *1077:B *257:6 9.84794e-05
5 *123:8 *133:10 0.000164282
6 *123:8 *335:31 4.08537e-05
7 *121:12 *123:8 0
*RES
1 *1076:X *123:8 40.9621 
2 *123:8 *1077:B 39.0979 
*END

*D_NET *124 0.00293609
*CONN
*I *1235:A I *D sky130_fd_sc_hd__xnor2_1
*I *1084:A I *D sky130_fd_sc_hd__or3_1
*I *1085:A I *D sky130_fd_sc_hd__or3_1
*I *1077:Y O *D sky130_fd_sc_hd__nand2_1
*CAP
1 *1235:A 0
2 *1084:A 0.000104098
3 *1085:A 0
4 *1077:Y 0.000187458
5 *124:32 0.000703994
6 *124:12 0.000104098
7 *124:10 0.000891452
8 *1084:A *1085:C 0.000267178
9 *1084:A *131:10 5.25848e-05
10 *1084:A *132:10 2.93747e-05
11 *124:10 *127:23 0
12 *124:10 *133:10 4.66036e-05
13 *124:10 *257:6 3.22879e-05
14 *124:32 *132:10 5.56203e-05
15 *124:32 *133:10 1.80023e-05
16 *124:32 *280:10 4.05309e-05
17 *124:32 *368:90 0.000217372
18 *124:32 *368:100 0.000185434
*RES
1 *1077:Y *124:10 40.8793 
2 *124:10 *124:12 15 
3 *124:12 *1085:A 23 
4 *124:12 *1084:A 26.0036 
5 *124:10 *124:32 28.3814 
6 *124:32 *1235:A 23 
*END

*D_NET *125 0.00145647
*CONN
*I *1086:A2 I *D sky130_fd_sc_hd__o21a_1
*I *1080:A I *D sky130_fd_sc_hd__nand2_1
*I *1234:B1_N I *D sky130_fd_sc_hd__a21bo_1
*I *1078:Y O *D sky130_fd_sc_hd__nand2_1
*CAP
1 *1086:A2 7.37276e-05
2 *1080:A 0
3 *1234:B1_N 8.77307e-05
4 *1078:Y 7.36446e-05
5 *125:14 0.000346611
6 *125:6 0.000406253
7 *1086:A2 *1074:B 9.8971e-06
8 *1086:A2 *1076:A 9.84851e-05
9 *1234:B1_N *1080:B 5.67058e-05
10 *1234:B1_N *257:6 4.19743e-05
11 *125:6 *1074:B 2.45549e-06
12 *125:6 *1079:A 1.94693e-05
13 *125:14 *1074:A 3.3123e-05
14 *125:14 *257:6 5.50049e-05
15 *125:14 *317:10 6.48142e-05
16 *125:14 *335:31 0
17 *125:14 *368:100 0
18 *1086:A1 *1086:A2 5.67058e-05
19 *121:6 *1086:A2 2.98648e-05
20 *121:12 *125:14 0
*RES
1 *1078:Y *125:6 24.0979 
2 *125:6 *125:14 33.9357 
3 *125:14 *1234:B1_N 25.0714 
4 *125:14 *1080:A 23 
5 *125:6 *1086:A2 25.0507 
*END

*D_NET *126 0.000695874
*CONN
*I *1080:B I *D sky130_fd_sc_hd__nand2_1
*I *1234:A1 I *D sky130_fd_sc_hd__a21bo_1
*I *1079:X O *D sky130_fd_sc_hd__or2_1
*CAP
1 *1080:B 9.27219e-05
2 *1234:A1 0
3 *1079:X 9.07631e-05
4 *126:10 9.27219e-05
5 *126:8 9.07631e-05
6 *1080:B *257:6 0.000226306
7 *126:8 *302:22 0
8 *126:8 *368:100 4.58924e-05
9 *1234:B1_N *1080:B 5.67058e-05
*RES
1 *1079:X *126:8 39.9057 
2 *126:8 *126:10 15 
3 *126:10 *1234:A1 23 
4 *126:10 *1080:B 25.5271 
*END

*D_NET *127 0.0035764
*CONN
*I *1084:B I *D sky130_fd_sc_hd__or3_1
*I *1085:B I *D sky130_fd_sc_hd__or3_1
*I *1233:A I *D sky130_fd_sc_hd__xnor2_1
*I *1080:Y O *D sky130_fd_sc_hd__nand2_1
*CAP
1 *1084:B 0.000168966
2 *1085:B 0
3 *1233:A 0.000516728
4 *1080:Y 0
5 *127:23 0.000613262
6 *127:4 0.000961024
7 *1084:B *1085:C 0.00012239
8 *1233:A *1233:B 0.000657541
9 *1233:A *257:6 0.00031495
10 *1233:A *258:10 0.000141052
11 *127:23 *1085:C 5.25848e-05
12 *127:23 *368:100 2.79004e-05
13 *124:10 *127:23 0
*RES
1 *1080:Y *127:4 23 
2 *127:4 *1233:A 35.4493 
3 *127:4 *127:23 36.1107 
4 *127:23 *1085:B 23 
5 *127:23 *1084:B 25.5271 
*END

*D_NET *128 0.00207213
*CONN
*I *1085:C I *D sky130_fd_sc_hd__or3_1
*I *1083:A I *D sky130_fd_sc_hd__nand2_1
*I *1232:B1_N I *D sky130_fd_sc_hd__a21bo_1
*I *1081:Y O *D sky130_fd_sc_hd__nand2_1
*CAP
1 *1085:C 0.000395668
2 *1083:A 4.26408e-05
3 *1232:B1_N 0
4 *1081:Y 9.53785e-05
5 *128:12 0.000212154
6 *128:8 0.00066056
7 *1083:A *1232:A1 3.81946e-05
8 *1085:C *1084:C 5.50049e-05
9 *1085:C *1232:A2 0
10 *1085:C *129:10 0
11 *1085:C *130:10 0
12 *1085:C *335:12 0
13 *128:8 *129:10 0
14 *128:8 *335:12 0
15 *128:12 *1232:A1 0.00010655
16 *128:12 *1232:A2 1.76557e-05
17 *128:12 *257:6 6.17437e-06
18 *1084:A *1085:C 0.000267178
19 *1084:B *1085:C 0.00012239
20 *127:23 *1085:C 5.25848e-05
*RES
1 *1081:Y *128:8 39.5536 
2 *128:8 *128:12 18.48 
3 *128:12 *1232:B1_N 23 
4 *128:12 *1083:A 24.1186 
5 *128:8 *1085:C 46.7207 
*END

*D_NET *129 0.00143554
*CONN
*I *1232:A1 I *D sky130_fd_sc_hd__a21bo_1
*I *1083:B I *D sky130_fd_sc_hd__nand2_1
*I *1082:X O *D sky130_fd_sc_hd__or2_1
*CAP
1 *1232:A1 0.000102891
2 *1083:B 0
3 *1082:X 0.000306112
4 *129:12 0.000102891
5 *129:10 0.000306112
6 *1232:A1 *1232:A2 0.000230604
7 *1232:A1 *130:10 2.4754e-05
8 *129:10 *1081:A 0
9 *129:10 *336:51 0.000117249
10 *1083:A *1232:A1 3.81946e-05
11 *1085:C *129:10 0
12 *6:8 *129:10 0.00010018
13 *128:8 *129:10 0
14 *128:12 *1232:A1 0.00010655
*RES
1 *1082:X *129:10 43.8207 
2 *129:10 *129:12 15 
3 *129:12 *1083:B 23 
4 *129:12 *1232:A1 26.9771 
*END

*D_NET *130 0.00108692
*CONN
*I *1231:A I *D sky130_fd_sc_hd__xnor2_1
*I *1084:C I *D sky130_fd_sc_hd__or3_1
*I *1083:Y O *D sky130_fd_sc_hd__nand2_1
*CAP
1 *1231:A 0
2 *1084:C 0.000164873
3 *1083:Y 0.000240906
4 *130:12 0.000164873
5 *130:10 0.000240906
6 *130:10 *1232:A2 0.000187846
7 *130:10 *256:8 7.75329e-06
8 *1085:C *1084:C 5.50049e-05
9 *1085:C *130:10 0
10 *1232:A1 *130:10 2.4754e-05
*RES
1 *1083:Y *130:10 42.3086 
2 *130:10 *130:12 15 
3 *130:12 *1084:C 26.0036 
4 *130:12 *1231:A 23 
*END

*D_NET *131 0.00206818
*CONN
*I *1119:B1 I *D sky130_fd_sc_hd__a211oi_1
*I *1120:A1 I *D sky130_fd_sc_hd__o211ai_1
*I *1084:X O *D sky130_fd_sc_hd__or3_1
*CAP
1 *1119:B1 0.000513602
2 *1120:A1 0
3 *1084:X 0.000285544
4 *131:10 0.000799146
5 *1119:B1 *1119:C1 1.73399e-05
6 *1119:B1 *166:6 8.04127e-05
7 *1119:B1 *368:90 0
8 *131:10 *133:10 1.94522e-05
9 *131:10 *335:12 0.000300098
10 *131:10 *368:90 0
11 *1084:A *131:10 5.25848e-05
*RES
1 *1084:X *131:10 44.1729 
2 *131:10 *1120:A1 38 
3 *131:10 *1119:B1 46.6793 
*END

*D_NET *132 0.000865928
*CONN
*I *1120:C1 I *D sky130_fd_sc_hd__o211ai_1
*I *1085:X O *D sky130_fd_sc_hd__or3_1
*CAP
1 *1120:C1 0
2 *1085:X 0.000213082
3 *132:10 0.000213082
4 *132:10 *133:10 0.000354769
5 *132:10 *368:90 0
6 *1084:A *132:10 2.93747e-05
7 *124:32 *132:10 5.56203e-05
*RES
1 *1085:X *132:10 43.3443 
2 *132:10 *1120:C1 38 
*END

*D_NET *133 0.00186661
*CONN
*I *1120:B1 I *D sky130_fd_sc_hd__o211ai_1
*I *1086:X O *D sky130_fd_sc_hd__o21a_1
*CAP
1 *1120:B1 0
2 *1086:X 0.000385877
3 *133:10 0.000385877
4 *133:10 *1076:A 3.06338e-05
5 *133:10 *335:12 0.000365245
6 *133:10 *335:16 9.58714e-05
7 *123:8 *133:10 0.000164282
8 *124:10 *133:10 4.66036e-05
9 *124:32 *133:10 1.80023e-05
10 *131:10 *133:10 1.94522e-05
11 *132:10 *133:10 0.000354769
*RES
1 *1086:X *133:10 49.8071 
2 *133:10 *1120:B1 38 
*END

*D_NET *134 0.00227397
*CONN
*I *1089:A I *D sky130_fd_sc_hd__nand2_1
*I *1230:A I *D sky130_fd_sc_hd__nand2_1
*I *1120:A2 I *D sky130_fd_sc_hd__o211ai_1
*I *1087:Y O *D sky130_fd_sc_hd__nand2_1
*CAP
1 *1089:A 2.34823e-05
2 *1230:A 2.34823e-05
3 *1120:A2 0.000305638
4 *1087:Y 9.07631e-05
5 *134:14 0.000635342
6 *134:12 0.000620091
7 *134:8 0.00038115
8 *1120:A2 *335:8 6.17437e-06
9 *134:8 *366:8 0
10 *134:8 *368:138 4.58924e-05
11 *134:12 *1089:B 0.000141954
*RES
1 *1087:Y *134:8 39.9057 
2 *134:8 *134:12 20.3857 
3 *134:12 *134:14 5.38571 
4 *134:14 *1120:A2 28.3857 
5 *134:14 *1230:A 23.4971 
6 *134:12 *1089:A 23.4971 
*END

*D_NET *135 0.000537646
*CONN
*I *1089:B I *D sky130_fd_sc_hd__nand2_1
*I *1088:X O *D sky130_fd_sc_hd__or2_1
*CAP
1 *1089:B 6.1801e-05
2 *1088:X 0.00010974
3 *135:8 0.000171541
4 *135:8 *336:51 0
5 *135:8 *368:138 5.26101e-05
6 *134:12 *1089:B 0.000141954
*RES
1 *1088:X *135:8 40.2579 
2 *135:8 *1089:B 39.5743 
*END

*D_NET *136 0.00198189
*CONN
*I *1118:B1 I *D sky130_fd_sc_hd__a21o_1
*I *1119:C1 I *D sky130_fd_sc_hd__a211oi_1
*I *1228:A I *D sky130_fd_sc_hd__nand3_1
*I *1089:Y O *D sky130_fd_sc_hd__nand2_1
*CAP
1 *1118:B1 1.1655e-05
2 *1119:C1 0.000136897
3 *1228:A 0
4 *1089:Y 0.000243344
5 *136:23 0.000203526
6 *136:14 0.000138417
7 *136:8 0.000326786
8 *1118:B1 *1118:A2 4.00259e-06
9 *1118:B1 *1119:A2 4.00259e-06
10 *1119:C1 *1119:A1 0.000187129
11 *1119:C1 *1119:A2 5.83407e-05
12 *136:8 *1228:C 3.47781e-05
13 *136:8 *164:10 0.000111852
14 *136:8 *336:51 0
15 *136:8 *368:138 0
16 *136:14 *1118:A2 3.91386e-05
17 *136:14 *161:10 4.39488e-05
18 *136:14 *161:12 1.76557e-05
19 *136:14 *164:14 0.000141954
20 *136:23 *1119:A1 9.84794e-05
21 *136:23 *1119:A2 4.75206e-05
22 *136:23 *1228:B 1.14154e-05
23 *136:23 *161:12 8.60475e-05
24 *136:23 *164:14 1.76557e-05
25 *1119:B1 *1119:C1 1.73399e-05
*RES
1 *1089:Y *136:8 42.7229 
2 *136:8 *136:14 17.5479 
3 *136:14 *1228:A 23 
4 *136:14 *136:23 2.54786 
5 *136:23 *1119:C1 26.9771 
6 *136:23 *1118:B1 23.4971 
*END

*D_NET *137 0.00261095
*CONN
*I *1098:A I *D sky130_fd_sc_hd__nor3_2
*I *1248:A1 I *D sky130_fd_sc_hd__o21a_1
*I *1250:A I *D sky130_fd_sc_hd__nor2_1
*I *1099:B1 I *D sky130_fd_sc_hd__a21o_1
*I *1090:X O *D sky130_fd_sc_hd__and2_1
*CAP
1 *1098:A 0
2 *1248:A1 4.24511e-05
3 *1250:A 0.000148003
4 *1099:B1 0.000360884
5 *1090:X 0.000144932
6 *137:14 0.000632139
7 *137:12 0.00028537
8 *137:10 0.000264599
9 *1099:B1 *1100:B 6.88819e-05
10 *1099:B1 *145:10 9.48381e-06
11 *1099:B1 *145:12 0.000188323
12 *1099:B1 *324:43 6.07611e-06
13 *1250:A *1250:B 0.000141954
14 *137:10 *138:10 0.000133046
15 *137:12 *1248:A2 9.88575e-05
16 *137:12 *138:10 6.07611e-06
17 *137:12 *145:10 6.02277e-06
18 *137:14 *145:10 7.38527e-05
19 *72:10 *1099:B1 0
*RES
1 *1090:X *137:10 40.8793 
2 *137:10 *137:12 2.96214 
3 *137:12 *137:14 2.96214 
4 *137:14 *1099:B1 46.2443 
5 *137:14 *1250:A 41.0036 
6 *137:12 *1248:A1 38.6214 
7 *137:10 *1098:A 38 
*END

*D_NET *138 0.00144069
*CONN
*I *1098:B I *D sky130_fd_sc_hd__nor3_2
*I *1248:A2 I *D sky130_fd_sc_hd__o21a_1
*I *1091:Y O *D sky130_fd_sc_hd__nor2_1
*CAP
1 *1098:B 0
2 *1248:A2 6.93922e-05
3 *1091:Y 0.000273602
4 *138:10 0.000342994
5 *1248:A2 *1249:A 6.48142e-05
6 *1248:A2 *145:10 0.000141869
7 *138:10 *1090:B 2.4754e-05
8 *138:10 *1091:B 0.00010018
9 *138:10 *1249:A 0.000185104
10 *137:10 *138:10 0.000133046
11 *137:12 *1248:A2 9.88575e-05
12 *137:12 *138:10 6.07611e-06
*RES
1 *1091:Y *138:10 44.5664 
2 *138:10 *1248:A2 40.61 
3 *138:10 *1098:B 38 
*END

*D_NET *139 0.000929686
*CONN
*I *1093:A I *D sky130_fd_sc_hd__inv_2
*I *1097:B1 I *D sky130_fd_sc_hd__o21a_1
*I *1092:Y O *D sky130_fd_sc_hd__nand2_1
*CAP
1 *1093:A 2.34823e-05
2 *1097:B1 0
3 *1092:Y 8.10484e-05
4 *139:14 0.000239717
5 *139:6 0.000344248
6 *1093:A *1092:A 0
7 *139:6 *140:10 2.93747e-05
8 *139:6 *321:12 0.000102093
9 *139:14 *140:10 0
10 *139:14 *143:22 6.07611e-06
11 *139:14 *321:12 0.000103647
12 *139:14 *345:46 0
*RES
1 *1092:Y *139:6 25.0507 
2 *139:6 *139:14 35.0129 
3 *139:14 *1097:B1 23 
4 *139:6 *1093:A 23.4971 
*END

*D_NET *140 0.000444034
*CONN
*I *1095:A I *D sky130_fd_sc_hd__nor2_1
*I *1093:Y O *D sky130_fd_sc_hd__inv_2
*CAP
1 *1095:A 0
2 *1093:Y 0.000134735
3 *140:10 0.000134735
4 *140:10 *1262:CLK 6.07611e-06
5 *140:10 *143:22 0
6 *140:10 *345:46 0.000139114
7 *139:6 *140:10 2.93747e-05
8 *139:14 *140:10 0
*RES
1 *1093:Y *140:10 40.8793 
2 *140:10 *1095:A 38 
*END

*D_NET *141 0.000836038
*CONN
*I *1095:B I *D sky130_fd_sc_hd__nor2_1
*I *1097:A1 I *D sky130_fd_sc_hd__o21a_1
*I *1094:Y O *D sky130_fd_sc_hd__nor2_1
*CAP
1 *1095:B 0
2 *1097:A1 2.51383e-05
3 *1094:Y 0.000159756
4 *141:16 0.000128529
5 *141:10 0.000263146
6 *1097:A1 *142:10 2.18506e-05
7 *141:10 *1262:CLK 0.000111852
8 *141:10 *142:10 0
9 *141:10 *143:14 1.57571e-05
10 *141:10 *143:22 0
11 *141:10 *345:29 5.3304e-05
12 *141:16 *142:10 5.67058e-05
*RES
1 *1094:Y *141:10 40.6514 
2 *141:10 *141:16 17.0714 
3 *141:16 *1097:A1 23.6214 
4 *141:16 *1095:B 23 
*END

*D_NET *142 0.000517427
*CONN
*I *1247:A I *D sky130_fd_sc_hd__xnor2_1
*I *1095:Y O *D sky130_fd_sc_hd__nor2_1
*CAP
1 *1247:A 0
2 *1095:Y 0.00014738
3 *142:10 0.00014738
4 *142:10 *1262:CLK 0
5 *142:10 *143:22 0.00014411
6 *1097:A1 *142:10 2.18506e-05
7 *141:10 *142:10 0
8 *141:16 *142:10 5.67058e-05
*RES
1 *1095:Y *142:10 41.0036 
2 *142:10 *1247:A 38 
*END

*D_NET *143 0.00216571
*CONN
*I *1253:A I *D sky130_fd_sc_hd__and2_1
*I *1247:B I *D sky130_fd_sc_hd__xnor2_1
*I *1097:A2 I *D sky130_fd_sc_hd__o21a_1
*I *1096:Y O *D sky130_fd_sc_hd__nand2_1
*CAP
1 *1253:A 0
2 *1247:B 0
3 *1097:A2 0
4 *1096:Y 0.000200148
5 *143:22 0.000193085
6 *143:14 0.000476649
7 *143:12 0.000283564
8 *143:10 0.000200148
9 *143:10 *1096:A 6.79006e-05
10 *143:10 *345:29 7.03766e-05
11 *143:14 *1253:B 9.67842e-05
12 *143:14 *270:10 0.000182826
13 *143:14 *345:29 0.000173278
14 *143:14 *345:46 5.50106e-05
15 *143:22 *1262:CLK 0
16 *139:14 *143:22 6.07611e-06
17 *140:10 *143:22 0
18 *141:10 *143:14 1.57571e-05
19 *141:10 *143:22 0
20 *142:10 *143:22 0.00014411
*RES
1 *1096:Y *143:10 41.48 
2 *143:10 *143:12 15 
3 *143:12 *143:14 7.29143 
4 *143:14 *143:22 34.06 
5 *143:22 *1097:A2 23 
6 *143:14 *1247:B 23 
7 *143:12 *1253:A 23 
*END

*D_NET *144 0.00127739
*CONN
*I *1098:C I *D sky130_fd_sc_hd__nor3_2
*I *1248:B1 I *D sky130_fd_sc_hd__o21a_1
*I *1097:X O *D sky130_fd_sc_hd__o21a_1
*CAP
1 *1098:C 0
2 *1248:B1 0
3 *1097:X 0.000410543
4 *144:12 0.000107564
5 *144:6 0.000518106
6 *144:6 *145:8 1.59094e-05
7 *144:12 *1249:A 8.11552e-05
8 *144:12 *145:10 0.00014411
9 *144:12 *266:10 0
*RES
1 *1097:X *144:6 29.815 
2 *144:6 *144:12 32.9621 
3 *144:12 *1248:B1 23 
4 *144:6 *1098:C 23 
*END

*D_NET *145 0.00494825
*CONN
*I *1249:A I *D sky130_fd_sc_hd__nor2_1
*I *1250:B I *D sky130_fd_sc_hd__nor2_1
*I *1101:B1 I *D sky130_fd_sc_hd__o22ai_1
*I *1114:B1 I *D sky130_fd_sc_hd__o221ai_4
*I *1098:Y O *D sky130_fd_sc_hd__nor3_2
*CAP
1 *1249:A 0.000347712
2 *1250:B 0.000135538
3 *1101:B1 7.05904e-05
4 *1114:B1 7.55048e-05
5 *1098:Y 5.67095e-05
6 *145:12 0.000567842
7 *145:10 0.000753256
8 *145:8 0.000600392
9 *1101:B1 *1101:B2 4.9662e-05
10 *1114:B1 *1114:B2 0.000136486
11 *1114:B1 *303:14 0.000163352
12 *1114:B1 *324:43 0
13 *1249:A *266:10 0
14 *1249:A *271:10 2.30292e-05
15 *1250:B *267:10 5.50106e-05
16 *145:12 *1114:B2 6.25829e-05
17 *145:12 *1265:CLK 0.000379431
18 *145:12 *146:8 0.000128583
19 *145:12 *267:10 0
20 *145:12 *303:14 0.000289973
21 *145:12 *324:43 0
22 *1099:B1 *145:10 9.48381e-06
23 *1099:B1 *145:12 0.000188323
24 *1248:A2 *1249:A 6.48142e-05
25 *1248:A2 *145:10 0.000141869
26 *1250:A *1250:B 0.000141954
27 *137:12 *145:10 6.02277e-06
28 *137:14 *145:10 7.38527e-05
29 *138:10 *1249:A 0.000185104
30 *144:6 *145:8 1.59094e-05
31 *144:12 *1249:A 8.11552e-05
32 *144:12 *145:10 0.00014411
*RES
1 *1098:Y *145:8 38.6214 
2 *145:8 *145:10 5.42714 
3 *145:10 *145:12 11.4136 
4 *145:12 *1114:B1 40.2579 
5 *145:12 *1101:B1 39.0979 
6 *145:10 *1250:B 41.0243 
7 *145:8 *1249:A 45.6436 
*END

*D_NET *146 0.00149798
*CONN
*I *1101:B2 I *D sky130_fd_sc_hd__o22ai_1
*I *1114:B2 I *D sky130_fd_sc_hd__o221ai_4
*I *1099:X O *D sky130_fd_sc_hd__a21o_1
*CAP
1 *1101:B2 9.6812e-05
2 *1114:B2 0.000172184
3 *1099:X 8.57685e-05
4 *146:8 0.000354765
5 *1101:B2 *148:10 0.000223687
6 *1114:B2 *324:8 5.41385e-05
7 *1114:B2 *324:43 0
8 *1114:B2 *360:43 0.000133309
9 *146:8 *324:43 0
10 *1101:B1 *1101:B2 4.9662e-05
11 *1114:B1 *1114:B2 0.000136486
12 *145:12 *1114:B2 6.25829e-05
13 *145:12 *146:8 0.000128583
*RES
1 *1099:X *146:8 39.9057 
2 *146:8 *1114:B2 42.205 
3 *146:8 *1101:B2 40.5271 
*END

*D_NET *147 0.000281195
*CONN
*I *1251:A I *D sky130_fd_sc_hd__xnor2_1
*I *1100:X O *D sky130_fd_sc_hd__xor2_1
*CAP
1 *1251:A 0
2 *1100:X 0.000120977
3 *147:8 0.000120977
4 *147:8 *1265:CLK 0
5 *147:8 *267:10 3.92407e-05
*RES
1 *1100:X *147:8 40.2579 
2 *147:8 *1251:A 38 
*END

*D_NET *148 0.00212715
*CONN
*I *1237:A I *D sky130_fd_sc_hd__nand2_1
*I *1236:A I *D sky130_fd_sc_hd__or2_1
*I *1101:Y O *D sky130_fd_sc_hd__o22ai_1
*CAP
1 *1237:A 0.000173993
2 *1236:A 2.14194e-05
3 *1101:Y 0.000489532
4 *148:10 0.000684944
5 *1236:A *1238:A 5.90675e-06
6 *1237:A *1237:B 2.02517e-05
7 *1237:A *1238:A 7.36946e-05
8 *1237:A *1238:B 0.000122024
9 *1237:A *159:20 0.000221593
10 *148:10 *159:20 3.53115e-05
11 *148:10 *159:30 5.47927e-05
12 *1101:B2 *148:10 0.000223687
*RES
1 *1101:Y *148:10 31.7621 
2 *148:10 *1236:A 23.4971 
3 *148:10 *1237:A 28.4479 
*END

*D_NET *149 0.00203188
*CONN
*I *1106:A I *D sky130_fd_sc_hd__or3_1
*I *1243:A I *D sky130_fd_sc_hd__and3_1
*I *1242:B1 I *D sky130_fd_sc_hd__a21oi_1
*I *1102:Y O *D sky130_fd_sc_hd__xnor2_1
*CAP
1 *1106:A 0.000242554
2 *1243:A 0
3 *1242:B1 4.23011e-05
4 *1102:Y 0.000275944
5 *149:21 0.000331212
6 *149:10 0.000130959
7 *149:8 0.000275944
8 *1106:A *1242:A1 0
9 *1106:A *1242:A2 1.56665e-05
10 *1106:A *1243:C 9.42385e-05
11 *1106:A *151:29 0.000141052
12 *1106:A *154:18 0.000188851
13 *149:8 *1115:A1 4.08537e-05
14 *149:8 *162:10 0
15 *149:8 *263:8 0.000166522
16 *149:8 *263:18 0
17 *149:8 *264:8 0
18 *149:8 *364:14 0
19 *149:8 *369:36 0
20 *149:21 *1242:A1 2.90712e-05
21 *149:21 *1242:A2 5.67058e-05
22 *149:21 *1243:C 0
*RES
1 *1102:Y *149:8 43.075 
2 *149:8 *149:10 15 
3 *149:10 *1242:B1 23.6214 
4 *149:10 *149:21 2.07143 
5 *149:21 *1243:A 23 
6 *149:21 *1106:A 28.8 
*END

*D_NET *150 0.00171626
*CONN
*I *1105:A I *D sky130_fd_sc_hd__nor2_1
*I *1106:B I *D sky130_fd_sc_hd__or3_1
*I *1115:B1 I *D sky130_fd_sc_hd__a21oi_1
*I *1103:X O *D sky130_fd_sc_hd__and2_1
*CAP
1 *1105:A 0
2 *1106:B 0
3 *1115:B1 0.000245322
4 *1103:X 1.85561e-05
5 *150:23 9.94162e-05
6 *150:10 0.000571938
7 *150:6 0.000245757
8 *1115:B1 *1115:A1 5.50049e-05
9 *1115:B1 *1244:A 4.2573e-05
10 *1115:B1 *263:12 0.000141954
11 *1115:B1 *275:6 2.4754e-05
12 *150:6 *151:6 3.22879e-05
13 *150:10 *1105:B 5.90675e-06
14 *150:10 *151:6 3.53115e-05
15 *150:23 *264:8 0
16 *150:23 *303:38 0.000197479
*RES
1 *1103:X *150:6 23.6214 
2 *150:6 *150:10 3.97714 
3 *150:10 *1115:B1 27.9093 
4 *150:10 *150:23 32.61 
5 *150:23 *1106:B 23 
6 *150:6 *1105:A 23 
*END

*D_NET *151 0.00195801
*CONN
*I *1106:C I *D sky130_fd_sc_hd__or3_1
*I *1116:B2 I *D sky130_fd_sc_hd__o22a_1
*I *1105:B I *D sky130_fd_sc_hd__nor2_1
*I *1104:Y O *D sky130_fd_sc_hd__nor2_1
*CAP
1 *1106:C 0
2 *1116:B2 0
3 *1105:B 3.80527e-05
4 *1104:Y 0.00018368
5 *151:29 0.000173364
6 *151:21 0.000450055
7 *151:6 0.000498423
8 *151:6 *1103:A 5.67058e-05
9 *151:6 *1103:B 4.95081e-05
10 *151:21 *303:38 0
11 *151:29 *153:10 0.000171263
12 *151:29 *154:18 2.60152e-05
13 *151:29 *162:10 9.63815e-05
14 *1106:A *151:29 0.000141052
15 *150:6 *151:6 3.22879e-05
16 *150:10 *1105:B 5.90675e-06
17 *150:10 *151:6 3.53115e-05
*RES
1 *1104:Y *151:6 26.9564 
2 *151:6 *1105:B 23.8493 
3 *151:6 *151:21 34.6607 
4 *151:21 *151:29 34.6607 
5 *151:29 *1116:B2 23 
6 *151:21 *1106:C 23 
*END

*D_NET *152 0.000614684
*CONN
*I *1246:A I *D sky130_fd_sc_hd__xnor2_1
*I *1105:Y O *D sky130_fd_sc_hd__nor2_1
*CAP
1 *1246:A 0
2 *1105:Y 0.000238724
3 *152:8 0.000238724
4 *152:8 *1269:CLK 0
5 *152:8 *265:10 7.03663e-05
6 *152:8 *276:10 6.6869e-05
7 *152:8 *303:38 0
8 *152:8 *365:12 0
*RES
1 *1105:Y *152:8 43.075 
2 *152:8 *1246:A 38 
*END

*D_NET *153 0.00215073
*CONN
*I *1116:A1 I *D sky130_fd_sc_hd__o22a_1
*I *1117:A1 I *D sky130_fd_sc_hd__o31a_1
*I *1113:A I *D sky130_fd_sc_hd__nor3_1
*I *1106:X O *D sky130_fd_sc_hd__or3_1
*CAP
1 *1116:A1 6.74911e-05
2 *1117:A1 0.000149247
3 *1113:A 0
4 *1106:X 0.000107781
5 *153:20 0.000702439
6 *153:12 0.000620684
7 *153:10 0.000107781
8 *1116:A1 *154:10 2.93845e-05
9 *1117:A1 *1261:A 0
10 *1117:A1 *159:30 0
11 *1117:A1 *160:10 0
12 *1117:A1 *369:36 0
13 *153:10 *154:18 0.000139647
14 *153:20 *1116:B1 5.50106e-05
15 *153:20 *159:30 0
16 *153:20 *261:14 0
17 *153:20 *369:36 0
18 *151:29 *153:10 0.000171263
*RES
1 *1106:X *153:10 40.5271 
2 *153:10 *153:12 15 
3 *153:12 *153:20 25.15 
4 *153:20 *1113:A 38 
5 *153:20 *1117:A1 40.2579 
6 *153:12 *1116:A1 24.0979 
*END

*D_NET *154 0.00356063
*CONN
*I *1109:A I *D sky130_fd_sc_hd__nand2_1
*I *1116:A2 I *D sky130_fd_sc_hd__o22a_1
*I *1243:B I *D sky130_fd_sc_hd__and3_1
*I *1242:A1 I *D sky130_fd_sc_hd__a21oi_1
*I *1107:Y O *D sky130_fd_sc_hd__nand2_1
*CAP
1 *1109:A 0
2 *1116:A2 0
3 *1243:B 2.00578e-05
4 *1242:A1 0.000123957
5 *1107:Y 6.64827e-05
6 *154:45 0.000212113
7 *154:18 0.000430275
8 *154:10 0.000748631
9 *154:6 0.000740967
10 *1242:A1 *1242:A2 5.70419e-05
11 *1242:A1 *1243:C 2.16583e-05
12 *154:6 *1107:A 5.67058e-05
13 *154:6 *369:66 9.24795e-06
14 *154:10 *1107:A 1.14154e-05
15 *154:10 *369:56 0.000276925
16 *154:18 *1243:C 8.44405e-06
17 *154:18 *162:10 0
18 *154:18 *261:14 0
19 *154:18 *303:38 0.000145936
20 *154:45 *1364:A 0
21 *154:45 *363:10 4.58924e-05
22 *154:45 *369:20 0
23 *1106:A *1242:A1 0
24 *1106:A *154:18 0.000188851
25 *1116:A1 *154:10 2.93845e-05
26 *74:8 *154:45 0.000171906
27 *149:21 *1242:A1 2.90712e-05
28 *151:29 *154:18 2.60152e-05
29 *153:10 *154:18 0.000139647
*RES
1 *1107:Y *154:6 24.0979 
2 *154:6 *154:10 9.21786 
3 *154:10 *154:18 36.5457 
4 *154:18 *1242:A1 25.9 
5 *154:18 *1243:B 23.4971 
6 *154:10 *1116:A2 23 
7 *154:6 *154:45 34.7229 
8 *154:45 *1109:A 23 
*END

*D_NET *155 0.000573343
*CONN
*I *1109:B I *D sky130_fd_sc_hd__nand2_1
*I *1108:X O *D sky130_fd_sc_hd__or2_1
*CAP
1 *1109:B 0.000105142
2 *1108:X 5.46164e-05
3 *155:8 0.000159758
4 *1109:B *326:14 6.17437e-06
5 *155:8 *1364:A 0.000141879
6 *155:8 *326:14 7.97587e-05
7 *1326:A *155:8 2.60152e-05
*RES
1 *1108:X *155:8 39.9057 
2 *155:8 *1109:B 39.5743 
*END

*D_NET *156 0.00372834
*CONN
*I *1239:B1 I *D sky130_fd_sc_hd__a21o_1
*I *1240:A I *D sky130_fd_sc_hd__nand3_1
*I *1113:B I *D sky130_fd_sc_hd__nor3_1
*I *1117:A2 I *D sky130_fd_sc_hd__o31a_1
*I *1109:Y O *D sky130_fd_sc_hd__nand2_1
*CAP
1 *1239:B1 2.34823e-05
2 *1240:A 0
3 *1113:B 0.00022309
4 *1117:A2 0.000145703
5 *1109:Y 0.000586403
6 *156:23 0.000311966
7 *156:8 0.000249882
8 *156:6 0.000625188
9 *1113:B *159:30 0.000187129
10 *1117:A2 *1117:A3 1.32939e-05
11 *1117:A2 *1117:B1 0.000264553
12 *1117:A2 *1241:A 2.02872e-05
13 *1117:A2 *369:30 0.000392369
14 *156:6 *1241:A 9.76261e-05
15 *156:6 *369:30 0.000292194
16 *156:8 *1241:A 2.93845e-05
17 *156:8 *369:30 4.2573e-05
18 *156:23 *1240:B 5.67187e-05
19 *156:23 *163:8 0.000166504
*RES
1 *1109:Y *156:6 33.6264 
2 *156:6 *156:8 0.621429 
3 *156:8 *1117:A2 27.93 
4 *156:8 *156:23 32.2579 
5 *156:23 *1113:B 27.4536 
6 *156:23 *1240:A 23 
7 *156:6 *1239:B1 23.4971 
*END

*D_NET *157 0.0051406
*CONN
*I *1112:A I *D sky130_fd_sc_hd__nand2_1
*I *1117:A3 I *D sky130_fd_sc_hd__o31a_1
*I *1239:A1 I *D sky130_fd_sc_hd__a21o_1
*I *1240:B I *D sky130_fd_sc_hd__nand3_1
*I *1110:Y O *D sky130_fd_sc_hd__nand2_1
*CAP
1 *1112:A 0
2 *1117:A3 0.000395492
3 *1239:A1 0
4 *1240:B 0.000182784
5 *1110:Y 0.000253849
6 *157:22 0.00022923
7 *157:20 0.000557462
8 *157:16 0.000842869
9 *157:8 0.000981194
10 *1117:A3 *1117:B1 7.5463e-05
11 *1117:A3 *1241:A 0.000103637
12 *1117:A3 *261:6 0
13 *1117:A3 *261:14 2.93845e-05
14 *1240:B *1240:C 0.000160191
15 *1240:B *262:10 6.17437e-06
16 *1240:B *303:36 4.08376e-06
17 *157:8 *1110:B 2.18409e-05
18 *157:8 *1111:A 0.000141954
19 *157:8 *1112:B 0.00010018
20 *157:8 *159:6 3.7122e-06
21 *157:8 *362:14 2.18506e-05
22 *157:16 *324:6 0.000109137
23 *157:16 *360:18 0.000530627
24 *157:16 *362:10 0
25 *157:16 *362:20 0
26 *157:16 *369:10 1.01436e-05
27 *157:16 *369:20 0
28 *157:20 *159:30 0
29 *157:20 *259:8 0.000219882
30 *157:22 *1240:C 1.14452e-05
31 *157:22 *159:30 0
32 *157:22 *259:8 7.80035e-05
33 *1117:A2 *1117:A3 1.32939e-05
34 *156:23 *1240:B 5.67187e-05
*RES
1 *1110:Y *157:8 28.4064 
2 *157:8 *157:16 41.1029 
3 *157:16 *157:20 17.9621 
4 *157:20 *157:22 1.20143 
5 *157:22 *1240:B 41.9979 
6 *157:22 *1239:A1 38 
7 *157:20 *1117:A3 43.8829 
8 *157:8 *1112:A 23 
*END

*D_NET *158 0.000174545
*CONN
*I *1112:B I *D sky130_fd_sc_hd__nand2_1
*I *1111:X O *D sky130_fd_sc_hd__or2_1
*CAP
1 *1112:B 3.71825e-05
2 *1111:X 3.71825e-05
3 *157:8 *1112:B 0.00010018
*RES
1 *1111:X *1112:B 47.0979 
*END

*D_NET *159 0.00398903
*CONN
*I *1237:B I *D sky130_fd_sc_hd__nand2_1
*I *1236:B I *D sky130_fd_sc_hd__or2_1
*I *1113:C I *D sky130_fd_sc_hd__nor3_1
*I *1112:Y O *D sky130_fd_sc_hd__nand2_1
*CAP
1 *1237:B 3.3043e-05
2 *1236:B 0
3 *1113:C 0
4 *1112:Y 0.000317517
5 *159:30 0.000421926
6 *159:20 0.000837401
7 *159:6 0.000766035
8 *159:6 *369:16 0.000202663
9 *159:20 *1238:A 6.17437e-06
10 *159:20 *1238:B 1.5769e-05
11 *159:20 *259:8 1.14452e-05
12 *159:20 *303:36 5.02657e-05
13 *159:20 *360:43 0
14 *159:30 *160:10 0.000451725
15 *159:30 *259:8 0
16 *159:30 *261:14 0.000215791
17 *159:30 *324:43 2.24048e-05
18 *159:30 *360:43 0.000114083
19 *1113:B *159:30 0.000187129
20 *1117:A1 *159:30 0
21 *1237:A *1237:B 2.02517e-05
22 *1237:A *159:20 0.000221593
23 *148:10 *159:20 3.53115e-05
24 *148:10 *159:30 5.47927e-05
25 *153:20 *159:30 0
26 *157:8 *159:6 3.7122e-06
27 *157:20 *159:30 0
28 *157:22 *159:30 0
*RES
1 *1112:Y *159:6 27.9093 
2 *159:6 *159:20 37.1464 
3 *159:20 *159:30 41.5171 
4 *159:30 *1113:C 23 
5 *159:20 *1236:B 23 
6 *159:6 *1237:B 23.8493 
*END

*D_NET *160 0.0011057
*CONN
*I *1114:C1 I *D sky130_fd_sc_hd__o221ai_4
*I *1113:Y O *D sky130_fd_sc_hd__nor3_1
*CAP
1 *1114:C1 0
2 *1113:Y 0.000308477
3 *160:10 0.000308477
4 *160:10 *303:14 0
5 *160:10 *324:43 3.70187e-05
6 *1117:A1 *160:10 0
7 *159:30 *160:10 0.000451725
*RES
1 *1113:Y *160:10 44.6493 
2 *160:10 *1114:C1 38 
*END

*D_NET *161 0.00260734
*CONN
*I *1228:B I *D sky130_fd_sc_hd__nand3_1
*I *1118:A1 I *D sky130_fd_sc_hd__a21o_1
*I *1119:A1 I *D sky130_fd_sc_hd__a211oi_1
*I *1114:Y O *D sky130_fd_sc_hd__o221ai_4
*CAP
1 *1228:B 2.0995e-05
2 *1118:A1 0
3 *1119:A1 0.000177842
4 *1114:Y 0.000786767
5 *161:12 0.000273567
6 *161:10 0.000903487
7 *161:10 *360:43 0
8 *1119:C1 *1119:A1 0.000187129
9 *136:14 *161:10 4.39488e-05
10 *136:14 *161:12 1.76557e-05
11 *136:23 *1119:A1 9.84794e-05
12 *136:23 *1228:B 1.14154e-05
13 *136:23 *161:12 8.60475e-05
*RES
1 *1114:Y *161:10 34.3721 
2 *161:10 *161:12 1.57429 
3 *161:12 *1119:A1 26.0036 
4 *161:12 *1118:A1 23 
5 *161:10 *1228:B 23.4971 
*END

*D_NET *162 0.00132758
*CONN
*I *1116:B1 I *D sky130_fd_sc_hd__o22a_1
*I *1115:Y O *D sky130_fd_sc_hd__a21oi_1
*CAP
1 *1116:B1 2.95011e-05
2 *1115:Y 0.000403359
3 *162:10 0.00043286
4 *162:10 *261:14 9.28739e-05
5 *162:10 *264:8 8.62876e-05
6 *162:10 *275:6 0.000131304
7 *162:10 *303:38 0
8 *149:8 *162:10 0
9 *151:29 *162:10 9.63815e-05
10 *153:20 *1116:B1 5.50106e-05
11 *154:18 *162:10 0
*RES
1 *1115:Y *162:10 45.25 
2 *162:10 *1116:B1 38.6214 
*END

*D_NET *163 0.00146075
*CONN
*I *1117:B1 I *D sky130_fd_sc_hd__o31a_1
*I *1116:X O *D sky130_fd_sc_hd__o22a_1
*CAP
1 *1117:B1 9.67554e-05
2 *1116:X 0.000179483
3 *163:8 0.000276238
4 *1117:B1 *261:14 5.3304e-05
5 *163:8 *261:14 0.000348447
6 *163:8 *303:38 0
7 *1117:A2 *1117:B1 0.000264553
8 *1117:A3 *1117:B1 7.5463e-05
9 *156:23 *163:8 0.000166504
*RES
1 *1116:X *163:8 42.7229 
2 *163:8 *1117:B1 41.0036 
*END

*D_NET *164 0.00327209
*CONN
*I *1228:C I *D sky130_fd_sc_hd__nand3_1
*I *1118:A2 I *D sky130_fd_sc_hd__a21o_1
*I *1119:A2 I *D sky130_fd_sc_hd__a211oi_1
*I *1117:X O *D sky130_fd_sc_hd__o31a_1
*CAP
1 *1228:C 3.55534e-05
2 *1118:A2 1.31993e-05
3 *1119:A2 0.000167208
4 *1117:X 0.000686551
5 *164:14 0.00025312
6 *164:10 0.000185809
7 *164:8 0.000764094
8 *1119:A2 *255:10 9.5877e-05
9 *1228:C *336:51 0
10 *1228:C *368:138 0
11 *164:8 *303:14 0.000567963
12 *164:10 *336:51 0
13 *164:14 *255:10 4.34745e-05
14 *1118:B1 *1118:A2 4.00259e-06
15 *1118:B1 *1119:A2 4.00259e-06
16 *1119:C1 *1119:A2 5.83407e-05
17 *136:8 *1228:C 3.47781e-05
18 *136:8 *164:10 0.000111852
19 *136:14 *1118:A2 3.91386e-05
20 *136:14 *164:14 0.000141954
21 *136:23 *1119:A2 4.75206e-05
22 *136:23 *164:14 1.76557e-05
*RES
1 *1117:X *164:8 49.1029 
2 *164:8 *164:10 1.55357 
3 *164:10 *164:14 17.0507 
4 *164:14 *1119:A2 26.8529 
5 *164:14 *1118:A2 23.8493 
6 *164:10 *1228:C 38.8493 
*END

*D_NET *165 0.000633059
*CONN
*I *1229:A I *D sky130_fd_sc_hd__and2_1
*I *1230:B I *D sky130_fd_sc_hd__nand2_1
*I *1118:X O *D sky130_fd_sc_hd__a21o_1
*CAP
1 *1229:A 4.24211e-05
2 *1230:B 0.000154443
3 *1118:X 9.07291e-05
4 *165:8 0.000287593
5 *1230:B *255:10 1.19692e-05
6 *1230:B *336:51 0
7 *165:8 *255:10 4.59027e-05
*RES
1 *1118:X *165:8 39.9057 
2 *165:8 *1230:B 40.9621 
3 *165:8 *1229:A 38.6214 
*END

*D_NET *166 0.0023018
*CONN
*I *1121:A I *D sky130_fd_sc_hd__or2_1
*I *1137:A1 I *D sky130_fd_sc_hd__o211a_1
*I *1119:Y O *D sky130_fd_sc_hd__a211oi_1
*CAP
1 *1121:A 0
2 *1137:A1 0.000101134
3 *1119:Y 0.000608614
4 *166:6 0.000709747
5 *1137:A1 *1137:A2 0.000275175
6 *1137:A1 *168:16 0.000169393
7 *166:6 *1033:A 0.000228909
8 *166:6 *1137:A2 2.9938e-05
9 *166:6 *167:14 9.84794e-05
10 *1119:B1 *166:6 8.04127e-05
*RES
1 *1119:Y *166:6 35.0557 
2 *166:6 *1137:A1 27.495 
3 *166:6 *1121:A 23 
*END

*D_NET *167 0.00238579
*CONN
*I *1121:B I *D sky130_fd_sc_hd__or2_1
*I *1137:A2 I *D sky130_fd_sc_hd__o211a_1
*I *1120:Y O *D sky130_fd_sc_hd__o211ai_1
*CAP
1 *1121:B 0
2 *1137:A2 0.000247645
3 *1120:Y 0.000672768
4 *167:14 0.000286575
5 *167:10 0.000711698
6 *1137:A2 *1137:B1 3.91386e-05
7 *1137:A2 *168:16 1.76557e-05
8 *167:10 *302:16 0
9 *167:10 *335:8 6.71408e-06
10 *167:10 *368:90 0
11 *1137:A1 *1137:A2 0.000275175
12 *166:6 *1137:A2 2.9938e-05
13 *166:6 *167:14 9.84794e-05
*RES
1 *1120:Y *167:10 47.9843 
2 *167:10 *167:14 16.0979 
3 *167:14 *1137:A2 29.4214 
4 *167:14 *1121:B 23 
*END

*D_NET *168 0.00160418
*CONN
*I *1221:A I *D sky130_fd_sc_hd__xor2_1
*I *1222:A1 I *D sky130_fd_sc_hd__a21bo_1
*I *1121:X O *D sky130_fd_sc_hd__or2_1
*CAP
1 *1221:A 0
2 *1222:A1 0.000139744
3 *1121:X 0.000327148
4 *168:18 0.000139744
5 *168:16 0.000327148
6 *1222:A1 *1221:B 9.67842e-05
7 *1222:A1 *1222:A2 0.000272377
8 *168:16 *1137:B1 5.37348e-06
9 *168:16 *183:21 5.21024e-05
10 *168:16 *184:8 5.67058e-05
11 *1137:A1 *168:16 0.000169393
12 *1137:A2 *168:16 1.76557e-05
*RES
1 *1121:X *168:16 44.0486 
2 *168:16 *168:18 15 
3 *168:18 *1222:A1 26.9564 
4 *168:18 *1221:A 23 
*END

*D_NET *169 0.00226107
*CONN
*I *1124:A I *D sky130_fd_sc_hd__nand2_1
*I *1138:B2 I *D sky130_fd_sc_hd__o221ai_1
*I *1224:B1_N I *D sky130_fd_sc_hd__a21bo_1
*I *1122:Y O *D sky130_fd_sc_hd__nand2_1
*CAP
1 *1124:A 0
2 *1138:B2 0
3 *1224:B1_N 0
4 *1122:Y 0.000222644
5 *169:46 0.00025638
6 *169:27 0.000331885
7 *169:21 0.000639411
8 *169:14 0.000100817
9 *169:10 0.000272316
10 *169:10 *1122:B 5.50106e-05
11 *169:10 *1123:A 4.95081e-05
12 *169:10 *302:52 0
13 *169:27 *1133:A 0
14 *169:27 *1133:B 0
15 *169:27 *1223:A 0
16 *169:27 *170:10 2.22079e-05
17 *169:27 *179:10 0
18 *169:27 *302:52 0
19 *169:46 *1124:B 0.000153373
20 *169:46 *1224:A2 0.000102389
21 *169:46 *170:10 5.51242e-05
*RES
1 *1122:Y *169:10 41.2521 
2 *169:10 *169:14 15.6214 
3 *169:14 *1224:B1_N 23 
4 *169:14 *169:21 0.621429 
5 *169:21 *169:27 36.4836 
6 *169:27 *1138:B2 23 
7 *169:21 *169:46 34.7643 
8 *169:46 *1124:A 23 
*END

*D_NET *170 0.00124214
*CONN
*I *1124:B I *D sky130_fd_sc_hd__nand2_1
*I *1224:A1 I *D sky130_fd_sc_hd__a21bo_1
*I *1123:X O *D sky130_fd_sc_hd__or2_1
*CAP
1 *1124:B 0.000174317
2 *1224:A1 0
3 *1123:X 0.000294365
4 *170:12 0.000174317
5 *170:10 0.000294365
6 *1124:B *1224:A2 7.40718e-05
7 *169:27 *170:10 2.22079e-05
8 *169:46 *1124:B 0.000153373
9 *169:46 *170:10 5.51242e-05
*RES
1 *1123:X *170:10 41.9564 
2 *170:10 *170:12 15 
3 *170:12 *1224:A1 23 
4 *170:12 *1124:B 26.9979 
*END

*D_NET *171 0.00163831
*CONN
*I *1223:A I *D sky130_fd_sc_hd__xnor2_1
*I *1133:A I *D sky130_fd_sc_hd__nor2_1
*I *1124:Y O *D sky130_fd_sc_hd__nand2_1
*CAP
1 *1223:A 0.000280596
2 *1133:A 0.000132527
3 *1124:Y 7.28672e-05
4 *171:8 0.000485991
5 *1133:A *180:10 5.69373e-05
6 *1133:A *253:10 0.000167443
7 *1223:A *1223:B 0.000296474
8 *1223:A *252:10 1.12487e-05
9 *1223:A *253:10 3.47781e-05
10 *171:8 *253:8 9.94453e-05
11 *169:27 *1133:A 0
12 *169:27 *1223:A 0
*RES
1 *1124:Y *171:8 39.0979 
2 *171:8 *1133:A 41.3557 
3 *171:8 *1223:A 44.1936 
*END

*D_NET *172 0.00126952
*CONN
*I *1127:A I *D sky130_fd_sc_hd__nand2_1
*I *1226:A1 I *D sky130_fd_sc_hd__a21bo_1
*I *1125:X O *D sky130_fd_sc_hd__or2_1
*CAP
1 *1127:A 0
2 *1226:A1 9.0509e-05
3 *1125:X 9.83209e-05
4 *172:14 0.000175363
5 *172:8 0.000183175
6 *1226:A1 *1226:A2 0.000232734
7 *1226:A1 *1226:B1_N 2.46906e-05
8 *172:8 *1225:B 0.000138718
9 *172:14 *1226:A2 3.88133e-05
10 *172:14 *1226:B1_N 0.000193028
11 *172:14 *173:14 9.41704e-05
*RES
1 *1125:X *172:8 39.9057 
2 *172:8 *172:14 17.5479 
3 *172:14 *1226:A1 25.5271 
4 *172:14 *1127:A 23 
*END

*D_NET *173 0.00307938
*CONN
*I *1226:B1_N I *D sky130_fd_sc_hd__a21bo_1
*I *1127:B I *D sky130_fd_sc_hd__nand2_1
*I *1138:A1 I *D sky130_fd_sc_hd__o221ai_1
*I *1126:Y O *D sky130_fd_sc_hd__nand2_1
*CAP
1 *1226:B1_N 0.000227184
2 *1127:B 0
3 *1138:A1 0
4 *1126:Y 0.000137118
5 *173:22 0.000344636
6 *173:14 0.000409885
7 *173:12 0.000433198
8 *173:8 0.000277884
9 *173:14 *1226:A2 5.3304e-05
10 *173:22 *1132:A 5.11807e-05
11 *173:22 *1138:B1 5.50049e-05
12 *173:22 *1225:A 2.72882e-05
13 *173:22 *1225:B 3.47781e-05
14 *173:22 *185:6 0.000318039
15 *173:22 *253:10 0.000397994
16 *1226:A1 *1226:B1_N 2.46906e-05
17 *172:14 *1226:B1_N 0.000193028
18 *172:14 *173:14 9.41704e-05
*RES
1 *1126:Y *173:8 40.2579 
2 *173:8 *173:12 17.5271 
3 *173:12 *173:14 1.57429 
4 *173:14 *173:22 39.2593 
5 *173:22 *1138:A1 23 
6 *173:14 *1127:B 23 
7 *173:12 *1226:B1_N 27.35 
*END

*D_NET *174 0.0018119
*CONN
*I *1132:A I *D sky130_fd_sc_hd__or2_1
*I *1225:A I *D sky130_fd_sc_hd__xnor2_1
*I *1127:Y O *D sky130_fd_sc_hd__nand2_1
*CAP
1 *1132:A 0.000231131
2 *1225:A 0.000441208
3 *1127:Y 0
4 *174:6 0.000672339
5 *1132:A *179:10 1.41244e-05
6 *1225:A *1225:B 0.000374626
7 *173:22 *1132:A 5.11807e-05
8 *173:22 *1225:A 2.72882e-05
*RES
1 *1127:Y *174:6 38 
2 *174:6 *1225:A 45.7886 
3 *174:6 *1132:A 42.0807 
*END

*D_NET *175 0.00129177
*CONN
*I *1138:C1 I *D sky130_fd_sc_hd__o221ai_1
*I *1131:A I *D sky130_fd_sc_hd__nand2_1
*I *1128:Y O *D sky130_fd_sc_hd__nand2_1
*CAP
1 *1138:C1 0.000133909
2 *1131:A 2.0995e-05
3 *1128:Y 0.000175315
4 *175:6 0.000330218
5 *1131:A *1129:A 1.14154e-05
6 *1138:C1 *1129:A 2.93845e-05
7 *1138:C1 *1129:B 3.53115e-05
8 *1138:C1 *1138:B1 5.90675e-06
9 *1138:C1 *176:6 0.000184527
10 *1138:C1 *178:10 4.5051e-05
11 *175:6 *1129:A 9.6103e-05
12 *175:6 *1129:B 3.70363e-05
13 *175:6 *1131:B 0.00010018
14 *175:6 *178:10 2.93747e-05
15 *175:6 *340:28 5.70419e-05
*RES
1 *1128:Y *175:6 27.9093 
2 *175:6 *1131:A 23.4971 
3 *175:6 *1138:C1 26.9771 
*END

*D_NET *176 0.00075902
*CONN
*I *1138:A2 I *D sky130_fd_sc_hd__o221ai_1
*I *1129:Y O *D sky130_fd_sc_hd__nor2_1
*CAP
1 *1138:A2 0
2 *1129:Y 0.000193682
3 *176:6 0.000193682
4 *176:6 *185:6 0.000187129
5 *1138:C1 *176:6 0.000184527
*RES
1 *1129:Y *176:6 27.4329 
2 *176:6 *1138:A2 23 
*END

*D_NET *177 0.000224196
*CONN
*I *1131:B I *D sky130_fd_sc_hd__nand2_1
*I *1130:X O *D sky130_fd_sc_hd__or2_1
*CAP
1 *1131:B 1.19175e-05
2 *1130:X 1.19175e-05
3 *1131:B *1129:A 0.00010018
4 *175:6 *1131:B 0.00010018
*RES
1 *1130:X *1131:B 47.0979 
*END

*D_NET *178 0.00171725
*CONN
*I *1132:B I *D sky130_fd_sc_hd__or2_1
*I *1227:A I *D sky130_fd_sc_hd__xnor2_1
*I *1131:Y O *D sky130_fd_sc_hd__nand2_1
*CAP
1 *1132:B 0.000280104
2 *1227:A 0.000143125
3 *1131:Y 0.000191192
4 *178:10 0.000614421
5 *1227:A *284:10 0.000114083
6 *1227:A *302:37 8.26672e-05
7 *1227:A *368:59 2.60152e-05
8 *178:10 *302:37 1.83667e-05
9 *178:10 *302:52 7.90464e-05
10 *178:10 *368:59 9.38027e-05
11 *1138:C1 *178:10 4.5051e-05
12 *175:6 *178:10 2.93747e-05
*RES
1 *1131:Y *178:10 42.1843 
2 *178:10 *1227:A 41.3557 
3 *178:10 *1132:B 42.4329 
*END

*D_NET *179 0.00126296
*CONN
*I *1133:B I *D sky130_fd_sc_hd__nor2_1
*I *1138:B1 I *D sky130_fd_sc_hd__o221ai_1
*I *1132:X O *D sky130_fd_sc_hd__or2_1
*CAP
1 *1133:B 0.000193152
2 *1138:B1 0.000140618
3 *1132:X 0.000210686
4 *179:10 0.000544456
5 *1138:B1 *1129:B 0
6 *1138:B1 *185:6 9.90162e-05
7 *179:10 *302:52 0
8 *1132:A *179:10 1.41244e-05
9 *1138:C1 *1138:B1 5.90675e-06
10 *169:27 *1133:B 0
11 *169:27 *179:10 0
12 *173:22 *1138:B1 5.50049e-05
*RES
1 *1132:X *179:10 41.2314 
2 *179:10 *1138:B1 41.0243 
3 *179:10 *1133:B 41.3557 
*END

*D_NET *180 0.00247004
*CONN
*I *1139:A3 I *D sky130_fd_sc_hd__a31o_1
*I *1137:B1 I *D sky130_fd_sc_hd__o211a_1
*I *1133:Y O *D sky130_fd_sc_hd__nor2_1
*CAP
1 *1139:A3 0
2 *1137:B1 0.000253608
3 *1133:Y 0.000635944
4 *180:12 0.000253608
5 *180:10 0.000635944
6 *1137:B1 *1139:A1 0.000147861
7 *1137:B1 *1139:A2 0.000126262
8 *1137:B1 *336:29 9.84794e-05
9 *180:10 *1134:A 4.21594e-06
10 *180:10 *1136:A 0
11 *180:10 *186:12 8.4047e-05
12 *180:10 *252:10 0.00012862
13 *180:10 *253:10 0
14 *1133:A *180:10 5.69373e-05
15 *1137:A2 *1137:B1 3.91386e-05
16 *168:16 *1137:B1 5.37348e-06
*RES
1 *1133:Y *180:10 46.7207 
2 *180:10 *180:12 15 
3 *180:12 *1137:B1 28.9036 
4 *180:12 *1139:A3 23 
*END

*D_NET *181 0.00116628
*CONN
*I *1222:B1_N I *D sky130_fd_sc_hd__a21bo_1
*I *1136:A I *D sky130_fd_sc_hd__and2_1
*I *1134:Y O *D sky130_fd_sc_hd__nand2_1
*CAP
1 *1222:B1_N 0.000136512
2 *1136:A 0.000217672
3 *1134:Y 0
4 *181:6 0.000354184
5 *1136:A *1134:A 6.16531e-05
6 *1136:A *1135:B 8.06532e-05
7 *1136:A *336:10 1.69668e-05
8 *1136:A *339:18 0.00017475
9 *1222:B1_N *1222:A2 9.84851e-05
10 *1222:B1_N *336:10 2.54046e-05
11 *180:10 *1136:A 0
*RES
1 *1134:Y *181:6 38 
2 *181:6 *1136:A 42.785 
3 *181:6 *1222:B1_N 40.2993 
*END

*D_NET *182 0.000280298
*CONN
*I *1136:B I *D sky130_fd_sc_hd__and2_1
*I *1135:X O *D sky130_fd_sc_hd__or2_1
*CAP
1 *1136:B 6.05817e-05
2 *1135:X 6.05817e-05
3 *1136:B *183:10 7.73389e-05
4 *1136:B *339:18 8.1796e-05
*RES
1 *1135:X *1136:B 48.0714 
*END

*D_NET *183 0.00239353
*CONN
*I *1221:B I *D sky130_fd_sc_hd__xor2_1
*I *1222:A2 I *D sky130_fd_sc_hd__a21bo_1
*I *1137:C1 I *D sky130_fd_sc_hd__o211a_1
*I *1136:X O *D sky130_fd_sc_hd__and2_1
*CAP
1 *1221:B 8.46155e-05
2 *1222:A2 0.000141381
3 *1137:C1 0
4 *1136:X 0.000335887
5 *183:21 0.000308831
6 *183:10 0.000418722
7 *1221:B *336:10 0.00012692
8 *1222:A2 *336:10 5.3304e-05
9 *183:10 *1135:B 0.000167994
10 *183:10 *302:16 0
11 *183:10 *336:10 1.01436e-05
12 *183:10 *339:18 1.91451e-05
13 *183:21 *186:12 0
14 *183:21 *302:16 0
15 *183:21 *336:10 0.000129504
16 *1136:B *183:10 7.73389e-05
17 *1222:A1 *1221:B 9.67842e-05
18 *1222:A1 *1222:A2 0.000272377
19 *1222:B1_N *1222:A2 9.84851e-05
20 *168:16 *183:21 5.21024e-05
*RES
1 *1136:X *183:10 43.2614 
2 *183:10 *1137:C1 38 
3 *183:10 *183:21 17.2579 
4 *183:21 *1222:A2 26.9771 
5 *183:21 *1221:B 25.4236 
*END

*D_NET *184 0.003275
*CONN
*I *1140:A I *D sky130_fd_sc_hd__or2_1
*I *1151:A1 I *D sky130_fd_sc_hd__o211ai_1
*I *1137:X O *D sky130_fd_sc_hd__o211a_1
*CAP
1 *1140:A 0
2 *1151:A1 5.70999e-05
3 *1137:X 3.83793e-05
4 *184:14 0.00114722
5 *184:8 0.0011285
6 *1151:A1 *1140:B 0.000149562
7 *1151:A1 *187:6 5.67058e-05
8 *184:14 *1140:B 4.95081e-05
9 *184:14 *1275:CLK 0.000123428
10 *184:14 *302:10 0.000111148
11 *184:14 *302:16 6.93449e-05
12 *184:14 *302:95 9.74235e-05
13 *184:14 *368:75 0.000189966
14 *168:16 *184:8 5.67058e-05
*RES
1 *1137:X *184:8 38.6214 
2 *184:8 *184:14 38.5107 
3 *184:14 *1151:A1 25.0714 
4 *184:14 *1140:A 23 
*END

*D_NET *185 0.001496
*CONN
*I *1139:B1 I *D sky130_fd_sc_hd__a31o_1
*I *1138:Y O *D sky130_fd_sc_hd__o221ai_1
*CAP
1 *1139:B1 0
2 *1138:Y 0.000445908
3 *185:6 0.000445908
4 *1138:B1 *185:6 9.90162e-05
5 *173:22 *185:6 0.000318039
6 *176:6 *185:6 0.000187129
*RES
1 *1138:Y *185:6 32.6736 
2 *185:6 *1139:B1 23 
*END

*D_NET *186 0.00290322
*CONN
*I *1140:B I *D sky130_fd_sc_hd__or2_1
*I *1151:A2 I *D sky130_fd_sc_hd__o211ai_1
*I *1139:X O *D sky130_fd_sc_hd__a31o_1
*CAP
1 *1140:B 0.000141369
2 *1151:A2 4.57204e-05
3 *1139:X 0.000103537
4 *186:12 0.0009371
5 *186:8 0.000853547
6 *1140:B *194:25 1.11037e-05
7 *1151:A2 *187:6 1.14762e-05
8 *186:8 *1139:A2 0.000141052
9 *186:12 *1034:A 0.000161121
10 *186:12 *253:10 0
11 *186:12 *282:10 5.26204e-05
12 *186:12 *302:65 7.03869e-05
13 *186:12 *368:49 6.25829e-05
14 *1151:A1 *1140:B 0.000149562
15 *82:10 *186:12 2.84912e-05
16 *180:10 *186:12 8.4047e-05
17 *183:21 *186:12 0
18 *184:14 *1140:B 4.95081e-05
*RES
1 *1139:X *186:8 39.5743 
2 *186:8 *186:12 30.2871 
3 *186:12 *1151:A2 23.6214 
4 *186:12 *1140:B 26.8736 
*END

*D_NET *187 0.0011867
*CONN
*I *1213:A I *D sky130_fd_sc_hd__xor2_1
*I *1212:A I *D sky130_fd_sc_hd__nand2_1
*I *1140:X O *D sky130_fd_sc_hd__or2_1
*CAP
1 *1213:A 0
2 *1212:A 6.19689e-05
3 *1140:X 0.000238262
4 *187:21 0.000103811
5 *187:6 0.000404041
6 *1212:A *1151:C1 3.48229e-05
7 *187:6 *1151:C1 9.87624e-05
8 *187:6 *194:25 1.34914e-05
9 *187:21 *194:25 0.000163361
10 *1151:A1 *187:6 5.67058e-05
11 *1151:A2 *187:6 1.14762e-05
*RES
1 *1140:X *187:6 27.4329 
2 *187:6 *1212:A 24.1186 
3 *187:6 *187:21 32.2579 
4 *187:21 *1213:A 23 
*END

*D_NET *188 0.00160256
*CONN
*I *1147:A_N I *D sky130_fd_sc_hd__and2b_1
*I *1215:A I *D sky130_fd_sc_hd__and3_1
*I *1214:B1 I *D sky130_fd_sc_hd__a21oi_1
*I *1141:Y O *D sky130_fd_sc_hd__xnor2_1
*CAP
1 *1147:A_N 0.000156452
2 *1215:A 1.78517e-05
3 *1214:B1 2.34823e-05
4 *1141:Y 5.45698e-05
5 *188:21 0.000543035
6 *188:6 0.000446784
7 *1147:A_N *1153:C 0
8 *1147:A_N *1216:A 0
9 *1147:A_N *341:27 0
10 *1147:A_N *342:33 9.06643e-05
11 *1147:A_N *374:38 0.000191166
12 *1214:B1 *247:14 0
13 *1215:A *341:27 0
14 *188:21 *1214:A1 1.57571e-05
15 *188:21 *1214:A2 6.17437e-06
16 *188:21 *1216:A 1.70989e-05
17 *188:21 *249:8 1.01436e-05
18 *188:21 *374:38 0
19 *35:13 *1147:A_N 2.93845e-05
*RES
1 *1141:Y *188:6 23.6214 
2 *188:6 *1214:B1 23.4971 
3 *188:6 *188:21 19.7746 
4 *188:21 *1215:A 38.3211 
5 *188:21 *1147:A_N 41.7596 
*END

*D_NET *189 0.000817231
*CONN
*I *1219:A1 I *D sky130_fd_sc_hd__a21bo_1
*I *1144:A I *D sky130_fd_sc_hd__nand2_1
*I *1142:X O *D sky130_fd_sc_hd__or2_1
*CAP
1 *1219:A1 0
2 *1144:A 0
3 *1142:X 8.50371e-05
4 *189:18 0.000130997
5 *189:12 0.000180985
6 *189:8 0.000135026
7 *189:8 *1144:B 4.6318e-06
8 *189:8 *190:8 6.57551e-05
9 *189:8 *251:8 0
10 *189:12 *1219:A2 9.84851e-05
11 *189:18 *1144:B 0
12 *189:18 *1347:A 0
13 *189:18 *191:8 0.000116314
14 acc[18] *189:8 0
15 *35:9 *189:18 0
*RES
1 *1142:X *189:8 39.9057 
2 *189:8 *189:12 16.0979 
3 *189:12 *189:18 32.9621 
4 *189:18 *1144:A 23 
5 *189:12 *1219:A1 23 
*END

*D_NET *190 0.000742766
*CONN
*I *1219:B1_N I *D sky130_fd_sc_hd__a21bo_1
*I *1144:B I *D sky130_fd_sc_hd__nand2_1
*I *1143:Y O *D sky130_fd_sc_hd__nand2_1
*CAP
1 *1219:B1_N 0
2 *1144:B 0.000184418
3 *1143:Y 7.70815e-05
4 *190:8 0.000261499
5 *1144:B *191:8 3.56537e-05
6 *1144:B *250:8 0.000107651
7 *190:8 *1146:B 0
8 *190:8 *250:8 6.07611e-06
9 *189:8 *1144:B 4.6318e-06
10 *189:8 *190:8 6.57551e-05
11 *189:18 *1144:B 0
*RES
1 *1143:Y *190:8 39.9057 
2 *190:8 *1144:B 42.06 
3 *190:8 *1219:B1_N 38 
*END

*D_NET *191 0.00131428
*CONN
*I *1146:A I *D sky130_fd_sc_hd__nor2_1
*I *1218:A I *D sky130_fd_sc_hd__xnor2_1
*I *1144:Y O *D sky130_fd_sc_hd__nand2_1
*CAP
1 *1146:A 0.000190069
2 *1218:A 2.0995e-05
3 *1144:Y 5.0083e-05
4 *191:12 0.000372166
5 *191:8 0.000211186
6 *1146:A *287:8 8.1796e-05
7 *1218:A *1219:A2 1.14154e-05
8 *191:12 *1219:A2 0.000224605
9 *1144:B *191:8 3.56537e-05
10 *189:18 *191:8 0.000116314
*RES
1 *1144:Y *191:8 39.5536 
2 *191:8 *191:12 18.0036 
3 *191:12 *1218:A 23.4971 
4 *191:12 *1146:A 26.9771 
*END

*D_NET *192 0.00340233
*CONN
*I *1220:A I *D sky130_fd_sc_hd__xnor2_1
*I *1146:B I *D sky130_fd_sc_hd__nor2_1
*I *1145:Y O *D sky130_fd_sc_hd__xnor2_1
*CAP
1 *1220:A 0.000514089
2 *1146:B 0.000441881
3 *1145:Y 0.000438641
4 *192:8 0.00139461
5 *1146:B *201:12 0
6 *1146:B *250:8 0
7 *1146:B *344:34 4.66036e-05
8 *1146:B *344:45 0
9 *1220:A *288:10 0.000153145
10 *1220:A *304:80 0
11 *1220:A *307:10 5.41288e-05
12 *1220:A *344:34 1.69668e-05
13 *1220:A *344:45 0
14 *192:8 *344:8 6.9805e-05
15 *192:8 *344:10 0.000272458
16 *88:8 *1220:A 0
17 *190:8 *1146:B 0
*RES
1 *1145:Y *192:8 44.815 
2 *192:8 *1146:B 45.8921 
3 *192:8 *1220:A 48.4814 
*END

*D_NET *193 0.00149503
*CONN
*I *1147:B I *D sky130_fd_sc_hd__and2b_1
*I *1153:C I *D sky130_fd_sc_hd__and3_1
*I *1146:Y O *D sky130_fd_sc_hd__nor2_1
*CAP
1 *1147:B 0
2 *1153:C 0.000175326
3 *1146:Y 0.000387381
4 *193:8 0.000562707
5 *1153:C *1148:B 2.02517e-05
6 *1153:C *195:8 3.45438e-05
7 *1153:C *247:14 8.50588e-05
8 *1153:C *341:27 0
9 *1153:C *342:33 5.56203e-05
10 *1153:C *374:38 0
11 *193:8 *201:12 0.000174146
12 *193:8 *250:8 0
13 *193:8 *341:27 0
14 *193:8 *373:10 0
15 *193:8 *374:38 0
16 *1147:A_N *1153:C 0
*RES
1 *1146:Y *193:8 46.2443 
2 *193:8 *1153:C 42.0393 
3 *193:8 *1147:B 38 
*END

*D_NET *194 0.00297074
*CONN
*I *1151:B1 I *D sky130_fd_sc_hd__o211ai_1
*I *1154:A3 I *D sky130_fd_sc_hd__a31o_1
*I *1147:X O *D sky130_fd_sc_hd__and2b_1
*CAP
1 *1151:B1 0
2 *1154:A3 0
3 *1147:X 7.19989e-05
4 *194:25 0.000761021
5 *194:8 0.00083302
6 *194:25 *1151:C1 0.000233367
7 *194:25 *197:12 6.14492e-05
8 *194:25 *198:8 5.56279e-05
9 *194:25 *198:10 0
10 *194:25 *200:10 0
11 *194:25 *247:8 8.62783e-05
12 *194:25 *373:10 0
13 *194:25 *373:12 0
14 *1140:B *194:25 1.11037e-05
15 *35:13 *194:8 0.000143655
16 *35:13 *194:25 0.00053637
17 *187:6 *194:25 1.34914e-05
18 *187:21 *194:25 0.000163361
*RES
1 *1147:X *194:8 25.0714 
2 *194:8 *1154:A3 23 
3 *194:8 *194:25 45.8464 
4 *194:25 *1151:B1 23 
*END

*D_NET *195 0.00167429
*CONN
*I *1150:A I *D sky130_fd_sc_hd__and2_1
*I *1214:A1 I *D sky130_fd_sc_hd__a21oi_1
*I *1215:B I *D sky130_fd_sc_hd__and3_1
*I *1148:Y O *D sky130_fd_sc_hd__nand2_1
*CAP
1 *1150:A 8.97846e-05
2 *1214:A1 0.000114482
3 *1215:B 2.65791e-05
4 *1148:Y 0
5 *195:8 0.000356856
6 *195:4 0.000305579
7 *1150:A *1148:A 9.58714e-05
8 *1150:A *1148:B 2.4754e-05
9 *1150:A *200:10 9.00923e-05
10 *1150:A *341:10 2.93845e-05
11 *1150:A *341:12 2.02872e-05
12 *1214:A1 *1214:A2 0.000146213
13 *1214:A1 *374:38 4.10673e-06
14 *195:8 *1148:B 1.76557e-05
15 *195:8 *1214:A2 1.47986e-05
16 *195:8 *200:10 0.00014196
17 *195:8 *247:14 4.97077e-05
18 *195:8 *374:38 9.5877e-05
19 *1153:C *195:8 3.45438e-05
20 *188:21 *1214:A1 1.57571e-05
*RES
1 *1148:Y *195:4 23 
2 *195:4 *195:8 5.35982 
3 *195:8 *1215:B 23.6887 
4 *195:8 *1214:A1 26.0916 
5 *195:4 *1150:A 25.5271 
*END

*D_NET *196 0.000270945
*CONN
*I *1150:B I *D sky130_fd_sc_hd__and2_1
*I *1149:X O *D sky130_fd_sc_hd__or2_1
*CAP
1 *1150:B 0
2 *1149:X 0.000119411
3 *196:8 0.000119411
4 *196:8 *341:40 3.21223e-05
*RES
1 *1149:X *196:8 39.9057 
2 *196:8 *1150:B 38 
*END

*D_NET *197 0.00140188
*CONN
*I *1213:B I *D sky130_fd_sc_hd__xor2_1
*I *1212:B I *D sky130_fd_sc_hd__nand2_1
*I *1151:C1 I *D sky130_fd_sc_hd__o211ai_1
*I *1150:X O *D sky130_fd_sc_hd__and2_1
*CAP
1 *1213:B 5.60653e-05
2 *1212:B 0
3 *1151:C1 0.00012834
4 *1150:X 5.11342e-05
5 *197:12 0.000287484
6 *197:6 0.000266344
7 *1213:B *341:10 4.5051e-05
8 *197:6 *341:10 5.40241e-05
9 *197:12 *247:8 8.50366e-05
10 *197:12 *341:40 0
11 *1212:A *1151:C1 3.48229e-05
12 *187:6 *1151:C1 9.87624e-05
13 *194:25 *1151:C1 0.000233367
14 *194:25 *197:12 6.14492e-05
*RES
1 *1150:X *197:6 24.0979 
2 *197:6 *197:12 32.9621 
3 *197:12 *1151:C1 26.9771 
4 *197:12 *1212:B 23 
5 *197:6 *1213:B 24.0979 
*END

*D_NET *198 0.00381528
*CONN
*I *1156:A I *D sky130_fd_sc_hd__nand2_1
*I *1171:A1 I *D sky130_fd_sc_hd__a211o_1
*I *1151:Y O *D sky130_fd_sc_hd__o211ai_1
*CAP
1 *1156:A 0.000197906
2 *1171:A1 9.52479e-05
3 *1151:Y 4.07495e-05
4 *198:10 0.0013978
5 *198:8 0.00114539
6 *1156:A *1156:B 0.000139865
7 *1156:A *1171:A2 8.89816e-05
8 *1156:A *203:8 5.73288e-05
9 *1171:A1 *1171:A2 0.000185434
10 *1171:A1 *218:6 0.000143655
11 *1171:A1 *304:18 0
12 *198:10 *302:65 0.000267298
13 *194:25 *198:8 5.56279e-05
14 *194:25 *198:10 0
*RES
1 *1151:Y *198:8 38.6214 
2 *198:8 *198:10 20.2171 
3 *198:10 *1171:A1 41.0243 
4 *198:10 *1156:A 42.4329 
*END

*D_NET *199 0.00112623
*CONN
*I *1155:B1 I *D sky130_fd_sc_hd__a211oi_1
*I *1152:X O *D sky130_fd_sc_hd__o211a_1
*CAP
1 *1155:B1 0
2 *1152:X 0.000389946
3 *199:8 0.000389946
4 *199:8 *1152:A1 0.000323176
5 *199:8 *1155:A1 1.14154e-05
6 *199:8 *202:8 1.17505e-05
*RES
1 *1152:X *199:8 29.235 
2 *199:8 *1155:B1 23 
*END

*D_NET *200 0.00102288
*CONN
*I *1154:B1 I *D sky130_fd_sc_hd__a31o_1
*I *1153:X O *D sky130_fd_sc_hd__and3_1
*CAP
1 *1154:B1 0
2 *1153:X 0.00031875
3 *200:10 0.00031875
4 *200:10 *373:10 1.14452e-05
5 *200:10 *373:12 0.000141879
6 *1150:A *200:10 9.00923e-05
7 *194:25 *200:10 0
8 *195:8 *200:10 0.00014196
*RES
1 *1153:X *200:10 43.3857 
2 *200:10 *1154:B1 38 
*END

*D_NET *201 0.00169691
*CONN
*I *1155:C1 I *D sky130_fd_sc_hd__a211oi_1
*I *1154:X O *D sky130_fd_sc_hd__a31o_1
*CAP
1 *1155:C1 0
2 *1154:X 3.83793e-05
3 *201:12 0.000604597
4 *201:8 0.000642976
5 *201:12 *1152:C1 6.0093e-05
6 *201:12 *250:8 0
7 *201:12 *343:8 5.61311e-05
8 *201:12 *373:10 6.38844e-05
9 *1146:B *201:12 0
10 *35:13 *201:8 5.67058e-05
11 *193:8 *201:12 0.000174146
*RES
1 *1154:X *201:8 38.6214 
2 *201:8 *201:12 28.1743 
3 *201:12 *1155:C1 23 
*END

*D_NET *202 0.00237998
*CONN
*I *1156:B I *D sky130_fd_sc_hd__nand2_1
*I *1171:A2 I *D sky130_fd_sc_hd__a211o_1
*I *1155:Y O *D sky130_fd_sc_hd__a211oi_1
*CAP
1 *1156:B 0.000104017
2 *1171:A2 0.000156488
3 *1155:Y 0.000611645
4 *202:8 0.00087215
5 *202:8 *1152:A1 2.25149e-05
6 *202:8 *1152:B1 0.000187129
7 *1156:A *1156:B 0.000139865
8 *1156:A *1171:A2 8.89816e-05
9 *1171:A1 *1171:A2 0.000185434
10 *199:8 *202:8 1.17505e-05
*RES
1 *1155:Y *202:8 46.2443 
2 *202:8 *1171:A2 41.7286 
3 *202:8 *1156:B 40.2579 
*END

*D_NET *203 0.00122267
*CONN
*I *1206:A1 I *D sky130_fd_sc_hd__a21bo_1
*I *1205:A I *D sky130_fd_sc_hd__xnor2_1
*I *1156:Y O *D sky130_fd_sc_hd__nand2_1
*CAP
1 *1206:A1 0
2 *1205:A 0
3 *1156:Y 0.000120602
4 *203:21 0.000214572
5 *203:8 0.000335174
6 *203:8 *1205:B 2.4754e-05
7 *203:21 *1205:B 5.67058e-05
8 *203:21 *214:14 0.00041353
9 *1156:A *203:8 5.73288e-05
*RES
1 *1156:Y *203:8 25.5479 
2 *203:8 *1205:A 23 
3 *203:8 *203:21 36.0486 
4 *203:21 *1206:A1 23 
*END

*D_NET *204 0.00304909
*CONN
*I *1174:A I *D sky130_fd_sc_hd__or3_1
*I *1159:A I *D sky130_fd_sc_hd__nand2_1
*I *1208:B1_N I *D sky130_fd_sc_hd__a21bo_1
*I *1157:Y O *D sky130_fd_sc_hd__nand2_1
*CAP
1 *1174:A 0
2 *1159:A 0
3 *1208:B1_N 0
4 *1157:Y 3.88462e-05
5 *204:38 0.000499534
6 *204:19 0.000759369
7 *204:6 0.000298681
8 *204:6 *1157:A 3.22051e-05
9 *204:19 *1157:A 8.53131e-05
10 *204:19 *1166:A 5.50106e-05
11 *204:19 *205:20 1.12919e-05
12 *204:19 *206:10 8.4047e-05
13 *204:19 *245:10 0.000135557
14 *204:38 *1166:A 2.93845e-05
15 *204:38 *1166:C 0.000274078
16 *204:38 *1174:B 0.000315857
17 *204:38 *205:20 5.55371e-05
18 *204:38 *209:12 8.08615e-05
19 *204:38 *311:8 0.000100029
20 *204:38 *370:45 0.000193485
*RES
1 *1157:Y *204:6 23.6214 
2 *204:6 *1208:B1_N 23 
3 *204:6 *204:19 34.4329 
4 *204:19 *1159:A 23 
5 *204:19 *204:38 43.2986 
6 *204:38 *1174:A 23 
*END

*D_NET *205 0.00171341
*CONN
*I *1208:A1 I *D sky130_fd_sc_hd__a21bo_1
*I *1159:B I *D sky130_fd_sc_hd__nand2_1
*I *1158:X O *D sky130_fd_sc_hd__or2_1
*CAP
1 *1208:A1 0
2 *1159:B 0
3 *1158:X 0.000160713
4 *205:20 0.000277954
5 *205:8 0.000438667
6 *205:8 *1157:A 0.000178592
7 *205:8 *1157:B 0
8 *205:8 *1166:A 1.70513e-05
9 *205:8 *1208:A2 5.50049e-05
10 *205:8 *311:12 2.46906e-05
11 *205:8 *347:34 0.000182087
12 *205:20 *1157:A 5.3304e-05
13 *205:20 *1207:A 6.07397e-05
14 *205:20 *206:10 0.00015348
15 *205:20 *347:34 2.29272e-05
16 *205:20 *370:45 7.43025e-06
17 *205:20 *370:55 1.39431e-05
18 *204:19 *205:20 1.12919e-05
19 *204:38 *205:20 5.55371e-05
*RES
1 *1158:X *205:8 27.4536 
2 *205:8 *205:20 35.7793 
3 *205:20 *1159:B 23 
4 *205:8 *1208:A1 23 
*END

*D_NET *206 0.00195511
*CONN
*I *1166:A I *D sky130_fd_sc_hd__nor3_1
*I *1207:A I *D sky130_fd_sc_hd__xnor2_1
*I *1159:Y O *D sky130_fd_sc_hd__nand2_1
*CAP
1 *1166:A 0.000215895
2 *1207:A 0.000240161
3 *1159:Y 0.000109421
4 *206:10 0.000565477
5 *1166:A *1157:A 0.000205707
6 *1166:A *245:10 5.79559e-05
7 *1166:A *311:12 5.56279e-05
8 *1207:A *1208:A2 8.67875e-05
9 *1207:A *244:10 1.83667e-05
10 *204:19 *1166:A 5.50106e-05
11 *204:19 *206:10 8.4047e-05
12 *204:38 *1166:A 2.93845e-05
13 *205:8 *1166:A 1.70513e-05
14 *205:20 *1207:A 6.07397e-05
15 *205:20 *206:10 0.00015348
*RES
1 *1159:Y *206:10 40.175 
2 *206:10 *1207:A 42.2879 
3 *206:10 *1166:A 42.9093 
*END

*D_NET *207 0.00117039
*CONN
*I *1210:A1 I *D sky130_fd_sc_hd__a21bo_1
*I *1162:A I *D sky130_fd_sc_hd__nand2_1
*I *1160:X O *D sky130_fd_sc_hd__or2_1
*CAP
1 *1210:A1 0
2 *1162:A 0.000237952
3 *1160:X 0.000147531
4 *207:10 0.000385483
5 *1162:A *1162:B 0.000143518
6 *1162:A *208:12 3.70187e-05
7 *1162:A *212:18 0
8 *1162:A *370:45 5.50106e-05
9 *207:10 *208:10 0.000111852
10 *207:10 *208:12 2.55642e-05
11 *207:10 *348:8 2.64616e-05
*RES
1 *1160:X *207:10 40.5271 
2 *207:10 *1162:A 43.4686 
3 *207:10 *1210:A1 38 
*END

*D_NET *208 0.00301866
*CONN
*I *1173:A_N I *D sky130_fd_sc_hd__nand2b_1
*I *1210:B1_N I *D sky130_fd_sc_hd__a21bo_1
*I *1162:B I *D sky130_fd_sc_hd__nand2_1
*I *1161:Y O *D sky130_fd_sc_hd__nand2_1
*CAP
1 *1173:A_N 0.000355047
2 *1210:B1_N 6.67815e-05
3 *1162:B 0.000103626
4 *1161:Y 0.000247652
5 *208:12 0.000186986
6 *208:10 0.000619278
7 *1162:B *209:12 3.70094e-05
8 *1162:B *209:34 0.000188926
9 *1162:B *212:18 0
10 *1173:A_N *1173:B 0
11 *1173:A_N *1210:A2 2.79662e-05
12 *1173:A_N *1211:A 2.76769e-06
13 *1173:A_N *1211:B 8.1796e-05
14 *1173:A_N *212:10 9.60416e-05
15 *1173:A_N *212:18 1.32939e-05
16 *1210:B1_N *1210:A2 0.000139346
17 *208:10 *209:34 0.000209739
18 *208:10 *304:64 0.000269781
19 *208:12 *209:34 5.46706e-05
20 *1162:A *1162:B 0.000143518
21 *1162:A *208:12 3.70187e-05
22 *207:10 *208:10 0.000111852
23 *207:10 *208:12 2.55642e-05
*RES
1 *1161:Y *208:10 43.9657 
2 *208:10 *208:12 0.849286 
3 *208:12 *1162:B 40.9621 
4 *208:12 *1210:B1_N 39.5743 
5 *208:10 *1173:A_N 45.4571 
*END

*D_NET *209 0.00472193
*CONN
*I *1209:A I *D sky130_fd_sc_hd__xnor2_1
*I *1174:B I *D sky130_fd_sc_hd__or3_1
*I *1166:B I *D sky130_fd_sc_hd__nor3_1
*I *1162:Y O *D sky130_fd_sc_hd__nand2_1
*CAP
1 *1209:A 0
2 *1174:B 0.000126188
3 *1166:B 0
4 *1162:Y 5.53682e-05
5 *209:34 0.00121039
6 *209:12 0.000292906
7 *209:8 0.00143247
8 *1174:B *213:10 0.000141954
9 *209:8 *370:45 4.96717e-05
10 *209:12 *212:18 0
11 *209:34 *1284:D 9.52332e-06
12 *209:34 *304:64 0.000516398
13 *209:34 *348:14 0
14 *1162:B *209:12 3.70094e-05
15 *1162:B *209:34 0.000188926
16 *204:38 *1174:B 0.000315857
17 *204:38 *209:12 8.08615e-05
18 *208:10 *209:34 0.000209739
19 *208:12 *209:34 5.46706e-05
*RES
1 *1162:Y *209:8 39.0979 
2 *209:8 *209:12 18.6664 
3 *209:12 *1166:B 23 
4 *209:12 *1174:B 26.9771 
5 *209:8 *209:34 35.6936 
6 *209:34 *1209:A 23 
*END

*D_NET *210 0.00228667
*CONN
*I *1165:A I *D sky130_fd_sc_hd__nand2_1
*I *1175:A I *D sky130_fd_sc_hd__and4_1
*I *1163:Y O *D sky130_fd_sc_hd__nand2_1
*CAP
1 *1165:A 0
2 *1175:A 0.000270204
3 *1163:Y 0.000276714
4 *210:10 0.000546918
5 *1175:A *1175:B 9.5877e-05
6 *1175:A *220:8 0.000351617
7 *1175:A *221:10 2.18409e-05
8 *1175:A *310:14 0.000226437
9 *1175:A *346:25 4.70682e-05
10 *210:10 *1163:B 2.30292e-05
11 *210:10 *310:8 5.50049e-05
12 *210:10 *310:14 0.000180401
13 *210:10 *313:23 0
14 *210:10 *346:25 0.000191557
*RES
1 *1163:Y *210:10 45.6021 
2 *210:10 *1175:A 45.7057 
3 *210:10 *1165:A 38 
*END

*D_NET *211 0.00066927
*CONN
*I *1173:B I *D sky130_fd_sc_hd__nand2b_1
*I *1165:B I *D sky130_fd_sc_hd__nand2_1
*I *1164:X O *D sky130_fd_sc_hd__or2_1
*CAP
1 *1173:B 0.000205052
2 *1165:B 0
3 *1164:X 8.89173e-05
4 *211:6 0.00029397
5 *1173:B *212:10 8.13304e-05
6 *1173:A_N *1173:B 0
*RES
1 *1164:X *211:6 24.5743 
2 *211:6 *1165:B 23 
3 *211:6 *1173:B 26.8218 
*END

*D_NET *212 0.00229978
*CONN
*I *1211:A I *D sky130_fd_sc_hd__xnor2_1
*I *1174:C I *D sky130_fd_sc_hd__or3_1
*I *1166:C I *D sky130_fd_sc_hd__nor3_1
*I *1165:Y O *D sky130_fd_sc_hd__nand2_1
*CAP
1 *1211:A 5.54838e-05
2 *1174:C 0
3 *1166:C 0.000106077
4 *1165:Y 0.000391472
5 *212:18 0.000454487
6 *212:10 0.000795366
7 *1211:A *1210:A2 0
8 *212:18 *1211:B 2.93845e-05
9 *212:18 *304:62 0
10 *1162:A *212:18 0
11 *1162:B *212:18 0
12 *1173:A_N *1211:A 2.76769e-06
13 *1173:A_N *212:10 9.60416e-05
14 *1173:A_N *212:18 1.32939e-05
15 *1173:B *212:10 8.13304e-05
16 *204:38 *1166:C 0.000274078
17 *209:12 *212:18 0
*RES
1 *1165:Y *212:10 29.5043 
2 *212:10 *212:18 35.8207 
3 *212:18 *1166:C 26.0036 
4 *212:18 *1174:C 23 
5 *212:10 *1211:A 24.2014 
*END

*D_NET *213 0.000589015
*CONN
*I *1167:A I *D sky130_fd_sc_hd__inv_2
*I *1166:Y O *D sky130_fd_sc_hd__nor3_1
*CAP
1 *1167:A 0
2 *1166:Y 0.00022353
3 *213:10 0.00022353
4 *1174:B *213:10 0.000141954
*RES
1 *1166:Y *213:10 41.8321 
2 *213:10 *1167:A 38 
*END

*D_NET *214 0.00255189
*CONN
*I *1172:A I *D sky130_fd_sc_hd__or2_1
*I *1171:B1 I *D sky130_fd_sc_hd__a211o_1
*I *1167:Y O *D sky130_fd_sc_hd__inv_2
*CAP
1 *1172:A 0.000324003
2 *1171:B1 0
3 *1167:Y 0
4 *214:14 0.000647667
5 *214:4 0.000971671
6 *214:14 *1282:D 5.37348e-06
7 *214:14 *215:28 0
8 *214:14 *217:8 0
9 *214:14 *217:25 6.88398e-05
10 *214:14 *218:6 3.22879e-05
11 *214:14 *289:8 8.85189e-05
12 *203:21 *214:14 0.00041353
*RES
1 *1167:Y *214:4 23 
2 *214:4 *214:14 43.3814 
3 *214:14 *1171:B1 23 
4 *214:4 *1172:A 27.4536 
*END

*D_NET *215 0.00163746
*CONN
*I *1172:B I *D sky130_fd_sc_hd__or2_1
*I *1170:A I *D sky130_fd_sc_hd__nand2_1
*I *1206:B1_N I *D sky130_fd_sc_hd__a21bo_1
*I *1168:Y O *D sky130_fd_sc_hd__nand2_1
*CAP
1 *1172:B 0
2 *1170:A 0
3 *1206:B1_N 5.03625e-05
4 *1168:Y 0.000267887
5 *215:28 0.000106361
6 *215:10 0.000213242
7 *215:6 0.000537128
8 *1206:B1_N *1206:A2 0.000143655
9 *215:6 *1169:A 0.000138444
10 *215:6 *216:6 7.42621e-05
11 *215:6 *310:14 1.32314e-05
12 *215:10 *1206:A2 3.58447e-05
13 *215:10 *216:6 5.70419e-05
14 *215:28 *304:62 0
15 *214:14 *215:28 0
*RES
1 *1168:Y *215:6 26.9564 
2 *215:6 *215:10 2.9 
3 *215:10 *1206:B1_N 24.5743 
4 *215:10 *1170:A 23 
5 *215:6 *215:28 31.5536 
6 *215:28 *1172:B 23 
*END

*D_NET *216 0.00103811
*CONN
*I *1170:B I *D sky130_fd_sc_hd__nand2_1
*I *1206:A2 I *D sky130_fd_sc_hd__a21bo_1
*I *1169:X O *D sky130_fd_sc_hd__or2_1
*CAP
1 *1170:B 0
2 *1206:A2 0.000282812
3 *1169:X 8.08426e-05
4 *216:6 0.000363655
5 *1206:B1_N *1206:A2 0.000143655
6 *215:6 *216:6 7.42621e-05
7 *215:10 *1206:A2 3.58447e-05
8 *215:10 *216:6 5.70419e-05
*RES
1 *1169:X *216:6 25.5271 
2 *216:6 *1206:A2 29.0486 
3 *216:6 *1170:B 23 
*END

*D_NET *217 0.00162458
*CONN
*I *1171:C1 I *D sky130_fd_sc_hd__a211o_1
*I *1205:B I *D sky130_fd_sc_hd__xnor2_1
*I *1170:Y O *D sky130_fd_sc_hd__nand2_1
*CAP
1 *1171:C1 0
2 *1205:B 0.000144829
3 *1170:Y 0.000267162
4 *217:25 0.000132783
5 *217:12 0.000421113
6 *217:8 0.000410663
7 *217:8 *304:18 0
8 *217:8 *304:38 0
9 *217:8 *304:47 0
10 *217:25 *289:8 8.62876e-05
11 *217:25 *304:26 1.14452e-05
12 *203:8 *1205:B 2.4754e-05
13 *203:21 *1205:B 5.67058e-05
14 *214:14 *217:8 0
15 *214:14 *217:25 6.88398e-05
*RES
1 *1170:Y *217:8 43.075 
2 *217:8 *217:12 17.5271 
3 *217:12 *1205:B 25.5271 
4 *217:12 *217:25 32.9621 
5 *217:25 *1171:C1 23 
*END

*D_NET *218 0.00518323
*CONN
*I *1176:A1 I *D sky130_fd_sc_hd__a21oi_1
*I *1177:A1 I *D sky130_fd_sc_hd__a21o_1
*I *1196:B I *D sky130_fd_sc_hd__and3_1
*I *1171:X O *D sky130_fd_sc_hd__a211o_1
*CAP
1 *1176:A1 0
2 *1177:A1 0
3 *1196:B 0
4 *1171:X 0.00100994
5 *218:40 0.000233234
6 *218:27 7.36852e-05
7 *218:21 0.000470155
8 *218:14 0.000565698
9 *218:6 0.0014124
10 *218:6 *1282:D 7.9567e-06
11 *218:6 *304:18 0.000249006
12 *218:6 *346:10 7.83309e-07
13 *218:6 *370:126 6.88885e-05
14 *218:14 *222:14 0.000117244
15 *218:14 *239:8 0.000129984
16 *218:14 *346:10 0
17 *218:14 *370:132 0
18 *218:27 *222:14 0
19 *218:27 *224:10 0
20 *218:40 *224:10 8.9783e-05
21 *218:40 *305:29 8.94487e-05
22 *1171:A1 *218:6 0.000143655
23 *1196:A *218:14 2.64616e-05
24 *1196:A *218:21 0.000119313
25 *1196:A *218:40 4.79641e-05
26 *1282:RESET_B *218:6 0.000223988
27 *120:19 *218:40 7.1349e-05
28 *214:14 *218:6 3.22879e-05
*RES
1 *1171:X *218:6 38.8671 
2 *218:6 *218:14 38.1614 
3 *218:14 *1196:B 23 
4 *218:14 *218:21 2.52714 
5 *218:21 *218:27 31.2014 
6 *218:27 *1177:A1 23 
7 *218:21 *218:40 34.205 
8 *218:40 *1176:A1 23 
*END

*D_NET *219 0.00070595
*CONN
*I *1175:B I *D sky130_fd_sc_hd__and4_1
*I *1172:X O *D sky130_fd_sc_hd__or2_1
*CAP
1 *1175:B 7.5617e-05
2 *1172:X 9.67411e-05
3 *219:8 0.000172358
4 *1175:B *221:10 0.000180224
5 *219:8 *304:62 8.51329e-05
6 *1175:A *1175:B 9.5877e-05
*RES
1 *1172:X *219:8 40.2579 
2 *219:8 *1175:B 40.0507 
*END

*D_NET *220 0.00107623
*CONN
*I *1175:C I *D sky130_fd_sc_hd__and4_1
*I *1173:Y O *D sky130_fd_sc_hd__nand2b_1
*CAP
1 *1175:C 4.5791e-05
2 *1173:Y 0.000112091
3 *220:8 0.000157882
4 *1175:C *221:10 5.50049e-05
5 *220:8 *346:25 0.000353849
6 *1175:A *220:8 0.000351617
*RES
1 *1173:Y *220:8 42.7229 
2 *220:8 *1175:C 38.6214 
*END

*D_NET *221 0.00086486
*CONN
*I *1175:D I *D sky130_fd_sc_hd__and4_1
*I *1174:X O *D sky130_fd_sc_hd__or3_1
*CAP
1 *1175:D 0
2 *1174:X 0.000303895
3 *221:10 0.000303895
4 *1175:A *221:10 2.18409e-05
5 *1175:B *221:10 0.000180224
6 *1175:C *221:10 5.50049e-05
*RES
1 *1174:X *221:10 28.5514 
2 *221:10 *1175:D 23 
*END

*D_NET *222 0.00239017
*CONN
*I *1176:A2 I *D sky130_fd_sc_hd__a21oi_1
*I *1177:A2 I *D sky130_fd_sc_hd__a21o_1
*I *1196:C I *D sky130_fd_sc_hd__and3_1
*I *1175:X O *D sky130_fd_sc_hd__and4_1
*CAP
1 *1176:A2 0.00012888
2 *1177:A2 2.1727e-05
3 *1196:C 0
4 *1175:X 0.000303595
5 *222:21 0.000238793
6 *222:14 0.000538458
7 *222:8 0.000753867
8 *222:14 *1046:A 0
9 *222:14 *224:10 0
10 *222:14 *310:14 0
11 *1177:B1 *1176:A2 4.00259e-06
12 *1177:B1 *1177:A2 4.00259e-06
13 *1196:A *1176:A2 8.1796e-05
14 *1196:A *1177:A2 0
15 *1196:A *222:14 9.70259e-06
16 *1196:A *222:21 0.000100118
17 *94:10 *222:14 0
18 *120:19 *1176:A2 8.79853e-05
19 *218:14 *222:14 0.000117244
20 *218:27 *222:14 0
*RES
1 *1175:X *222:8 41.9564 
2 *222:8 *222:14 23.4721 
3 *222:14 *1196:C 23 
4 *222:14 *222:21 1.96786 
5 *222:21 *1177:A2 23.4971 
6 *222:21 *1176:A2 26.5007 
*END

*D_NET *223 0.00152468
*CONN
*I *1197:A I *D sky130_fd_sc_hd__nor2_1
*I *1176:Y O *D sky130_fd_sc_hd__a21oi_1
*CAP
1 *1197:A 0.000121992
2 *1176:Y 0.000345144
3 *223:8 0.000467136
4 *1197:A *370:126 0.000315852
5 *223:8 *293:8 0
6 *223:8 *305:29 0.000274553
*RES
1 *1176:Y *223:8 44.4836 
2 *223:8 *1197:A 41.48 
*END

*D_NET *224 0.00420513
*CONN
*I *1198:B I *D sky130_fd_sc_hd__nand2_1
*I *1201:A2 I *D sky130_fd_sc_hd__a21o_1
*I *1179:A3 I *D sky130_fd_sc_hd__a311o_1
*I *1178:A3 I *D sky130_fd_sc_hd__a31oi_1
*I *1177:X O *D sky130_fd_sc_hd__a21o_1
*CAP
1 *1198:B 0
2 *1201:A2 0.000210518
3 *1179:A3 0.000273951
4 *1178:A3 5.25932e-05
5 *1177:X 0.000138042
6 *224:22 0.000434758
7 *224:20 0.000629197
8 *224:14 0.000466003
9 *224:10 0.00029358
10 *1178:A3 *314:16 0
11 *1179:A3 *226:8 2.02517e-05
12 *1201:A2 *314:16 0
13 *224:10 *305:29 7.45175e-05
14 *224:14 *1287:D 0.000224605
15 *224:14 *240:10 0.000126847
16 *224:14 *352:10 2.93845e-05
17 *224:20 *240:10 1.76557e-05
18 *224:22 *314:16 0
19 *1178:A1 *1179:A3 0.000268873
20 *1179:A1 *1179:A3 2.02517e-05
21 *1179:A2 *1178:A3 4.21594e-06
22 *1198:A *224:20 0.000525417
23 *1201:A1 *1201:A2 4.31366e-05
24 *116:18 *1179:A3 5.50049e-05
25 *116:18 *1201:A2 0
26 *118:19 *1179:A3 5.50106e-05
27 *118:28 *1179:A3 1.72202e-05
28 *118:47 *1178:A3 1.4471e-05
29 *118:47 *1201:A2 9.48381e-06
30 *118:47 *224:22 5.3656e-05
31 *120:19 *224:10 5.67058e-05
32 *218:27 *224:10 0
33 *218:40 *224:10 8.9783e-05
34 *222:14 *224:10 0
*RES
1 *1177:X *224:10 41.2314 
2 *224:10 *224:14 19.4329 
3 *224:14 *224:20 22.3121 
4 *224:20 *224:22 2.25786 
5 *224:22 *1178:A3 38.8493 
6 *224:22 *1179:A3 43.7586 
7 *224:20 *1201:A2 42.06 
8 *224:14 *1198:B 23 
*END

*D_NET *225 0.00071062
*CONN
*I *1180:B I *D sky130_fd_sc_hd__xnor2_1
*I *1178:Y O *D sky130_fd_sc_hd__a31oi_1
*CAP
1 *1180:B 0
2 *1178:Y 0.00019073
3 *225:8 0.00019073
4 *225:8 *301:30 0
5 *1179:A2 *225:8 1.14452e-05
6 *1179:C1 *225:8 2.45318e-05
7 *1180:A *225:8 0.000293183
*RES
1 *1178:Y *225:8 42.7229 
2 *225:8 *1180:B 38 
*END

*D_NET *226 0.00254187
*CONN
*I *1189:A2 I *D sky130_fd_sc_hd__a31o_1
*I *1193:A1 I *D sky130_fd_sc_hd__a21oi_1
*I *1184:B I *D sky130_fd_sc_hd__nand2_1
*I *1179:X O *D sky130_fd_sc_hd__a311o_1
*CAP
1 *1189:A2 0
2 *1193:A1 1.31028e-05
3 *1184:B 2.14194e-05
4 *1179:X 0.000408916
5 *226:36 0.000321301
6 *226:17 0.00043122
7 *226:8 0.000527152
8 *1193:A1 *1195:A 0
9 *226:36 *1191:A1 0.000265466
10 *226:36 *1195:A 5.3304e-05
11 *226:36 *234:10 0.000183733
12 *226:36 *236:10 0.000163361
13 *226:36 *305:93 0
14 *1179:A3 *226:8 2.02517e-05
15 *1184:A *1184:B 5.90675e-06
16 *1184:A *1193:A1 5.90675e-06
17 *1184:A *226:17 5.70419e-05
18 *1189:A1 *226:36 4.34973e-05
19 *1191:C1 *226:36 2.02872e-05
*RES
1 *1179:X *226:8 30.7886 
2 *226:8 *1184:B 23.4971 
3 *226:8 *226:17 2.05071 
4 *226:17 *1193:A1 23.4971 
5 *226:17 *226:36 37.8093 
6 *226:36 *1189:A2 23 
*END

*D_NET *227 0.00303768
*CONN
*I *1192:A1 I *D sky130_fd_sc_hd__a21o_1
*I *1189:B1 I *D sky130_fd_sc_hd__a31o_1
*I *1183:A_N I *D sky130_fd_sc_hd__nand2b_1
*I *1181:Y O *D sky130_fd_sc_hd__nor2_1
*CAP
1 *1192:A1 0.000277318
2 *1189:B1 0
3 *1183:A_N 7.66646e-05
4 *1181:Y 0.000337395
5 *227:21 0.00081189
6 *227:10 0.000948632
7 *1183:A_N *1183:B 3.22879e-05
8 *1183:A_N *228:6 7.1349e-05
9 *1183:A_N *298:10 6.17437e-06
10 *1192:A1 *1192:A2 2.30292e-05
11 *1192:A1 *305:93 0
12 *1192:A1 *371:10 0
13 *227:10 *1182:A 3.17634e-05
14 *227:10 *1182:B 4.34876e-05
15 *227:10 *1183:B 0
16 *227:10 *1360:A 1.24376e-05
17 *227:10 *228:6 0.000116578
18 *227:21 *1189:A3 1.86973e-05
19 *227:21 *228:21 0.000229979
20 *227:21 *371:10 0
21 *227:21 *371:14 0
22 *101:40 *1192:A1 0
*RES
1 *1181:Y *227:10 29.8564 
2 *227:10 *1183:A_N 25.0507 
3 *227:10 *227:21 26.0614 
4 *227:21 *1189:B1 38 
5 *227:21 *1192:A1 42.3086 
*END

*D_NET *228 0.00395899
*CONN
*I *1189:A3 I *D sky130_fd_sc_hd__a31o_1
*I *1191:A1 I *D sky130_fd_sc_hd__o211a_1
*I *1183:B I *D sky130_fd_sc_hd__nand2b_1
*I *1182:Y O *D sky130_fd_sc_hd__nand2_1
*CAP
1 *1189:A3 2.90178e-05
2 *1191:A1 0.000419646
3 *1183:B 0.000114155
4 *1182:Y 0.000356702
5 *228:21 0.000898953
6 *228:6 0.000921146
7 *1183:B *298:10 1.52332e-05
8 *1191:A1 *1191:A2 4.00259e-06
9 *1191:A1 *234:10 9.67916e-05
10 *228:6 *1182:A 1.24376e-05
11 *228:21 *305:82 1.12487e-05
12 *1056:A *228:21 0
13 *1183:A_N *1183:B 3.22879e-05
14 *1183:A_N *228:6 7.1349e-05
15 *101:40 *1189:A3 5.15096e-05
16 *101:40 *228:21 0.000293785
17 *226:36 *1191:A1 0.000265466
18 *227:10 *1183:B 0
19 *227:10 *228:6 0.000116578
20 *227:21 *1189:A3 1.86973e-05
21 *227:21 *228:21 0.000229979
*RES
1 *1182:Y *228:6 28.3857 
2 *228:6 *1183:B 25.0973 
3 *228:6 *228:21 24.6529 
4 *228:21 *1191:A1 44.7321 
5 *228:21 *1189:A3 38.8493 
*END

*D_NET *229 0.000282822
*CONN
*I *1185:A I *D sky130_fd_sc_hd__xnor2_1
*I *1183:Y O *D sky130_fd_sc_hd__nand2b_1
*CAP
1 *1185:A 0.000125267
2 *1183:Y 0.000125267
3 *1185:A *298:10 3.22879e-05
*RES
1 *1183:Y *1185:A 48.5271 
*END

*D_NET *230 0.000932028
*CONN
*I *1185:B I *D sky130_fd_sc_hd__xnor2_1
*I *1184:Y O *D sky130_fd_sc_hd__nand2_1
*CAP
1 *1185:B 0
2 *1184:Y 0.000434333
3 *230:8 0.000434333
4 *230:8 *355:8 0
5 *1056:A *230:8 2.71291e-05
6 *1184:A *230:8 3.62323e-05
*RES
1 *1184:Y *230:8 45.8921 
2 *230:8 *1185:B 38 
*END

*D_NET *231 0.00285256
*CONN
*I *1188:A_N I *D sky130_fd_sc_hd__and2b_1
*I *1192:B1 I *D sky130_fd_sc_hd__a21o_1
*I *1191:A2 I *D sky130_fd_sc_hd__o211a_1
*I *1186:Y O *D sky130_fd_sc_hd__nor2_1
*CAP
1 *1188:A_N 0
2 *1192:B1 4.83145e-05
3 *1191:A2 0.000170315
4 *1186:Y 0.00056329
5 *231:10 0.000350458
6 *231:6 0.000695119
7 *1191:A2 *1191:B1 0.000196884
8 *1191:A2 *234:10 2.4754e-05
9 *1191:A2 *236:10 2.54046e-05
10 *1192:B1 *1192:A2 1.24376e-05
11 *231:6 *1051:A 5.50106e-05
12 *231:6 *1186:A 6.98147e-05
13 *231:6 *1186:B 5.3304e-05
14 *231:6 *1188:B 1.59094e-05
15 *231:6 *232:6 0.000276512
16 *231:10 *1191:B1 6.48142e-05
17 *231:10 *232:17 0.000130433
18 *231:10 *234:10 0
19 *231:10 *305:93 4.07715e-05
20 *1191:A1 *1191:A2 4.00259e-06
21 *99:10 *231:6 5.50106e-05
*RES
1 *1186:Y *231:6 34.1029 
2 *231:6 *231:10 18.6664 
3 *231:10 *1191:A2 41.9979 
4 *231:10 *1192:B1 38.6214 
5 *231:6 *1188:A_N 23 
*END

*D_NET *232 0.00319735
*CONN
*I *1192:A2 I *D sky130_fd_sc_hd__a21o_1
*I *1191:B1 I *D sky130_fd_sc_hd__o211a_1
*I *1188:B I *D sky130_fd_sc_hd__and2b_1
*I *1187:Y O *D sky130_fd_sc_hd__nand2_1
*CAP
1 *1192:A2 0.000136543
2 *1191:B1 0.000192219
3 *1188:B 0.00013555
4 *1187:Y 0.000463582
5 *232:17 0.00037458
6 *232:6 0.00064495
7 *1191:B1 *234:10 5.67058e-05
8 *1191:B1 *236:10 6.86023e-06
9 *1191:B1 *305:93 0.000240064
10 *232:6 *1051:A 2.93845e-05
11 *232:6 *1186:A 5.50106e-05
12 *232:17 *305:93 0.000141879
13 *1191:A2 *1191:B1 0.000196884
14 *1192:A1 *1192:A2 2.30292e-05
15 *1192:B1 *1192:A2 1.24376e-05
16 *231:6 *1188:B 1.59094e-05
17 *231:6 *232:6 0.000276512
18 *231:10 *1191:B1 6.48142e-05
19 *231:10 *232:17 0.000130433
*RES
1 *1187:Y *232:6 32.1971 
2 *232:6 *1188:B 25.0507 
3 *232:6 *232:17 16.9057 
4 *232:17 *1191:B1 42.7021 
5 *232:17 *1192:A2 40.5686 
*END

*D_NET *233 0.000287602
*CONN
*I *1190:A I *D sky130_fd_sc_hd__xnor2_1
*I *1188:X O *D sky130_fd_sc_hd__and2b_1
*CAP
1 *1190:A 0
2 *1188:X 7.17459e-05
3 *233:8 7.17459e-05
4 *233:8 *234:10 0.00014411
*RES
1 *1188:X *233:8 39.9057 
2 *233:8 *1190:A 38 
*END

*D_NET *234 0.00173122
*CONN
*I *1190:B I *D sky130_fd_sc_hd__xnor2_1
*I *1189:X O *D sky130_fd_sc_hd__a31o_1
*CAP
1 *1190:B 0
2 *1189:X 0.0005018
3 *234:10 0.0005018
4 *234:10 *236:10 0.000166522
5 *234:10 *305:93 0
6 *1191:A1 *234:10 9.67916e-05
7 *1191:A2 *234:10 2.4754e-05
8 *1191:B1 *234:10 5.67058e-05
9 *1191:C1 *234:10 5.50049e-05
10 *226:36 *234:10 0.000183733
11 *231:10 *234:10 0
12 *233:8 *234:10 0.00014411
*RES
1 *1189:X *234:10 49.9521 
2 *234:10 *1190:B 38 
*END

*D_NET *235 0.000299038
*CONN
*I *1193:A2 I *D sky130_fd_sc_hd__a21oi_1
*I *1191:X O *D sky130_fd_sc_hd__o211a_1
*CAP
1 *1193:A2 0
2 *1191:X 0.000121966
3 *235:8 0.000121966
4 *235:8 *236:10 5.51058e-05
*RES
1 *1191:X *235:8 40.2579 
2 *235:8 *1193:A2 38 
*END

*D_NET *236 0.00100409
*CONN
*I *1193:B1 I *D sky130_fd_sc_hd__a21oi_1
*I *1192:X O *D sky130_fd_sc_hd__a21o_1
*CAP
1 *1193:B1 0
2 *1192:X 0.00029342
3 *236:10 0.00029342
4 *236:10 *305:82 0
5 *236:10 *305:93 0
6 *1191:A2 *236:10 2.54046e-05
7 *1191:B1 *236:10 6.86023e-06
8 *226:36 *236:10 0.000163361
9 *234:10 *236:10 0.000166522
10 *235:8 *236:10 5.51058e-05
*RES
1 *1192:X *236:10 44.1729 
2 *236:10 *1193:B1 38 
*END

*D_NET *237 0.000330521
*CONN
*I *1195:A I *D sky130_fd_sc_hd__xnor2_1
*I *1193:Y O *D sky130_fd_sc_hd__a21oi_1
*CAP
1 *1195:A 0.000138609
2 *1193:Y 0.000138609
3 *1193:A1 *1195:A 0
4 *226:36 *1195:A 5.3304e-05
*RES
1 *1193:Y *1195:A 48.4236 
*END

*D_NET *238 0.00201944
*CONN
*I *1195:B I *D sky130_fd_sc_hd__xnor2_1
*I *1194:Y O *D sky130_fd_sc_hd__xnor2_1
*CAP
1 *1195:B 0.000527472
2 *1194:Y 9.26215e-05
3 *238:8 0.000620094
4 *1195:B *1293:CLK 0.000180218
5 *1195:B *1293:D 6.9805e-05
6 *238:8 *1194:B 2.84809e-05
7 *238:8 *332:28 0.0003055
8 *238:8 *355:44 0.000195248
*RES
1 *1194:Y *238:8 42.0186 
2 *238:8 *1195:B 47.1971 
*END

*D_NET *239 0.000799565
*CONN
*I *1197:B I *D sky130_fd_sc_hd__nor2_1
*I *1196:X O *D sky130_fd_sc_hd__and3_1
*CAP
1 *1197:B 4.12998e-05
2 *1196:X 0.000222578
3 *239:8 0.000263878
4 *1197:B *370:126 9.84851e-05
5 *239:8 *293:8 4.334e-05
6 *239:8 *305:29 0
7 *218:14 *239:8 0.000129984
*RES
1 *1196:X *239:8 43.075 
2 *239:8 *1197:B 39.0979 
*END

*D_NET *240 0.00205657
*CONN
*I *1200:A2 I *D sky130_fd_sc_hd__a21bo_1
*I *1199:B I *D sky130_fd_sc_hd__xnor2_1
*I *1198:Y O *D sky130_fd_sc_hd__nand2_1
*CAP
1 *1200:A2 0.000193916
2 *1199:B 0.000126487
3 *1198:Y 0.0002666
4 *240:10 0.000587004
5 *1200:A2 *1057:B 8.4047e-05
6 *1200:A2 *305:29 2.99692e-05
7 *1200:A2 *352:10 0.000269411
8 *1200:A2 *352:18 3.47879e-05
9 *240:10 *294:8 8.62876e-05
10 *240:10 *352:10 0.000169674
11 *1059:A *1200:A2 0
12 *105:14 *1200:A2 6.38845e-05
13 *106:12 *1200:A2 0
14 *106:12 *240:10 0
15 *224:14 *240:10 0.000126847
16 *224:20 *240:10 1.76557e-05
*RES
1 *1198:Y *240:10 43.2614 
2 *240:10 *1199:B 40.0507 
3 *240:10 *1200:A2 43.4271 
*END

*D_NET *241 0.000964387
*CONN
*I *1202:B I *D sky130_fd_sc_hd__xnor2_1
*I *1200:X O *D sky130_fd_sc_hd__a21bo_1
*CAP
1 *1202:B 0
2 *1200:X 0.00042953
3 *241:10 0.00042953
4 *241:10 *1044:A 0
5 *241:10 *1057:A 0.00010018
6 *241:10 *1057:B 5.14746e-06
7 *241:10 *1356:A 0
8 *241:10 *305:29 0
9 *241:10 *370:32 0
*RES
1 *1200:X *241:10 45.1257 
2 *241:10 *1202:B 38 
*END

*D_NET *242 0.000512412
*CONN
*I *1203:C I *D sky130_fd_sc_hd__and3_1
*I *1201:X O *D sky130_fd_sc_hd__a21o_1
*CAP
1 *1203:C 2.23567e-05
2 *1201:X 0.000212722
3 *242:8 0.000235078
4 *107:24 *242:8 0
5 *111:10 *242:8 4.08537e-05
6 *112:6 *1203:C 8.91468e-07
7 *112:19 *1203:C 5.0941e-07
*RES
1 *1201:X *242:8 42.0186 
2 *242:8 *1203:C 38.2279 
*END

*D_NET *243 0.000533438
*CONN
*I *1204:B I *D sky130_fd_sc_hd__xor2_1
*I *1203:X O *D sky130_fd_sc_hd__and3_1
*CAP
1 *1204:B 0.00010261
2 *1203:X 0.00010261
3 *107:24 *1204:B 5.41385e-05
4 *112:19 *1204:B 0.000274078
*RES
1 *1203:X *1204:B 49.5007 
*END

*D_NET *244 0.00129329
*CONN
*I *1208:A2 I *D sky130_fd_sc_hd__a21bo_1
*I *1207:B I *D sky130_fd_sc_hd__xnor2_1
*I *1206:X O *D sky130_fd_sc_hd__a21bo_1
*CAP
1 *1208:A2 0.000135888
2 *1207:B 0
3 *1206:X 0.000390635
4 *244:10 0.000526523
5 *1208:A2 *1157:A 5.50049e-05
6 *1208:A2 *347:34 2.50756e-05
7 *1207:A *1208:A2 8.67875e-05
8 *1207:A *244:10 1.83667e-05
9 *205:8 *1208:A2 5.50049e-05
*RES
1 *1206:X *244:10 43.7379 
2 *244:10 *1207:B 38 
3 *244:10 *1208:A2 41.2314 
*END

*D_NET *245 0.00327515
*CONN
*I *1210:A2 I *D sky130_fd_sc_hd__a21bo_1
*I *1209:B I *D sky130_fd_sc_hd__xnor2_1
*I *1208:X O *D sky130_fd_sc_hd__a21bo_1
*CAP
1 *1210:A2 0.000412274
2 *1209:B 0
3 *1208:X 0.000284587
4 *245:20 0.000682026
5 *245:12 0.0010943
6 *245:10 0.000284587
7 *245:10 *370:83 5.31444e-05
8 *245:20 *304:72 0
9 *245:20 *370:83 0.000103405
10 *1166:A *245:10 5.79559e-05
11 *1173:A_N *1210:A2 2.79662e-05
12 *1210:B1_N *1210:A2 0.000139346
13 *1211:A *1210:A2 0
14 *204:19 *245:10 0.000135557
*RES
1 *1208:X *245:10 42.9921 
2 *245:10 *245:12 15 
3 *245:12 *245:20 41.4343 
4 *245:20 *1209:B 23 
5 *245:12 *1210:A2 29.8357 
*END

*D_NET *246 0.000216443
*CONN
*I *1211:B I *D sky130_fd_sc_hd__xnor2_1
*I *1210:X O *D sky130_fd_sc_hd__a21bo_1
*CAP
1 *1211:B 5.26312e-05
2 *1210:X 5.26312e-05
3 *1173:A_N *1211:B 8.1796e-05
4 *212:18 *1211:B 2.93845e-05
*RES
1 *1210:X *1211:B 47.5743 
*END

*D_NET *247 0.00274371
*CONN
*I *1214:A2 I *D sky130_fd_sc_hd__a21oi_1
*I *1215:C I *D sky130_fd_sc_hd__and3_1
*I *1212:Y O *D sky130_fd_sc_hd__nand2_1
*CAP
1 *1214:A2 8.24122e-05
2 *1215:C 2.28577e-05
3 *1212:Y 4.05391e-05
4 *247:14 0.000774145
5 *247:8 0.000709414
6 *1214:A2 *374:38 3.02201e-05
7 *247:14 *1148:B 0.000143655
8 *247:14 *341:10 0.000343812
9 *247:14 *341:12 8.264e-05
10 *247:14 *374:38 4.07504e-05
11 *1153:C *247:14 8.50588e-05
12 *1214:A1 *1214:A2 0.000146213
13 *1214:B1 *247:14 0
14 *188:21 *1214:A2 6.17437e-06
15 *194:25 *247:8 8.62783e-05
16 *195:8 *1214:A2 1.47986e-05
17 *195:8 *247:14 4.97077e-05
18 *197:12 *247:8 8.50366e-05
*RES
1 *1212:Y *247:8 39.2014 
2 *247:8 *247:14 25.6471 
3 *247:14 *1215:C 23.7043 
4 *247:14 *1214:A2 25.5479 
*END

*D_NET *248 0.00126877
*CONN
*I *1217:B1 I *D sky130_fd_sc_hd__a21o_1
*I *1216:A I *D sky130_fd_sc_hd__nor2_1
*I *1214:Y O *D sky130_fd_sc_hd__a21oi_1
*CAP
1 *1217:B1 0.000173211
2 *1216:A 0.00024518
3 *1214:Y 0
4 *248:6 0.000418391
5 *1216:A *1346:A 0.00010018
6 *1216:A *249:8 0
7 *1216:A *342:10 0
8 *1216:A *342:19 0
9 *1216:A *374:38 0
10 *1217:B1 *1217:A2 5.50106e-05
11 *1217:B1 *342:19 0
12 *1217:B1 *342:33 0.000185434
13 *1217:B1 *374:38 0
14 *1147:A_N *1216:A 0
15 *35:13 *1217:B1 7.42621e-05
16 *188:21 *1216:A 1.70989e-05
*RES
1 *1214:Y *248:6 38 
2 *248:6 *1216:A 42.7643 
3 *248:6 *1217:B1 42.4536 
*END

*D_NET *249 0.000228649
*CONN
*I *1216:B I *D sky130_fd_sc_hd__nor2_1
*I *1215:X O *D sky130_fd_sc_hd__and3_1
*CAP
1 *1216:B 0
2 *1215:X 0.000109252
3 *249:8 0.000109252
4 *1216:A *249:8 0
5 *188:21 *249:8 1.01436e-05
*RES
1 *1215:X *249:8 39.9057 
2 *249:8 *1216:B 38 
*END

*D_NET *250 0.00166972
*CONN
*I *1218:B I *D sky130_fd_sc_hd__xnor2_1
*I *1219:A2 I *D sky130_fd_sc_hd__a21bo_1
*I *1217:X O *D sky130_fd_sc_hd__a21o_1
*CAP
1 *1218:B 0
2 *1219:A2 0.00017017
3 *1217:X 0.000435503
4 *250:10 0.00017017
5 *250:8 0.000435503
6 *1219:A2 *287:8 0
7 *250:8 *1347:A 0
8 *250:8 *374:38 1.01436e-05
9 *1144:B *250:8 0.000107651
10 *1146:B *250:8 0
11 *1218:A *1219:A2 1.14154e-05
12 *189:12 *1219:A2 9.84851e-05
13 *190:8 *250:8 6.07611e-06
14 *191:12 *1219:A2 0.000224605
15 *193:8 *250:8 0
16 *201:12 *250:8 0
*RES
1 *1217:X *250:8 45.8921 
2 *250:8 *250:10 15 
3 *250:10 *1219:A2 26.9771 
4 *250:10 *1218:B 23 
*END

*D_NET *251 0.00138306
*CONN
*I *1220:B I *D sky130_fd_sc_hd__xnor2_1
*I *1219:X O *D sky130_fd_sc_hd__a21bo_1
*CAP
1 *1220:B 0
2 *1219:X 0.00042267
3 *251:8 0.00042267
4 *251:8 *307:10 0.000102795
5 *251:8 *307:14 7.55832e-05
6 *251:8 *308:34 8.15327e-05
7 *251:8 *344:16 0.000249909
8 acc[18] *251:8 2.79004e-05
9 *35:9 *251:8 0
10 *189:8 *251:8 0
*RES
1 *1219:X *251:8 48.7093 
2 *251:8 *1220:B 38 
*END

*D_NET *252 0.00249907
*CONN
*I *1223:B I *D sky130_fd_sc_hd__xnor2_1
*I *1224:A2 I *D sky130_fd_sc_hd__a21bo_1
*I *1222:X O *D sky130_fd_sc_hd__a21bo_1
*CAP
1 *1223:B 0.000243872
2 *1224:A2 0.000142277
3 *1222:X 0.000285961
4 *252:10 0.000672111
5 *1223:B *282:10 0.000142577
6 *1224:A2 *253:8 0.000229793
7 *252:10 *253:10 0.000169674
8 *1124:B *1224:A2 7.40718e-05
9 *1223:A *1223:B 0.000296474
10 *1223:A *252:10 1.12487e-05
11 *169:46 *1224:A2 0.000102389
12 *180:10 *252:10 0.00012862
*RES
1 *1222:X *252:10 44.5664 
2 *252:10 *1224:A2 41.9564 
3 *252:10 *1223:B 44.3179 
*END

*D_NET *253 0.00398088
*CONN
*I *1226:A2 I *D sky130_fd_sc_hd__a21bo_1
*I *1225:B I *D sky130_fd_sc_hd__xnor2_1
*I *1224:X O *D sky130_fd_sc_hd__a21bo_1
*CAP
1 *1226:A2 0.000250072
2 *1225:B 0.000242626
3 *1224:X 9.46186e-05
4 *253:10 0.000909773
5 *253:8 0.000511694
6 *1133:A *253:10 0.000167443
7 *1223:A *253:10 3.47781e-05
8 *1224:A2 *253:8 0.000229793
9 *1225:A *1225:B 0.000374626
10 *1226:A1 *1226:A2 0.000232734
11 *171:8 *253:8 9.94453e-05
12 *172:8 *1225:B 0.000138718
13 *172:14 *1226:A2 3.88133e-05
14 *173:14 *1226:A2 5.3304e-05
15 *173:22 *1225:B 3.47781e-05
16 *173:22 *253:10 0.000397994
17 *180:10 *253:10 0
18 *186:12 *253:10 0
19 *252:10 *253:10 0.000169674
*RES
1 *1224:X *253:8 40.5271 
2 *253:8 *253:10 10.3571 
3 *253:10 *1225:B 43.8414 
4 *253:10 *1226:A2 42.93 
*END

*D_NET *254 0.000272078
*CONN
*I *1227:B I *D sky130_fd_sc_hd__xnor2_1
*I *1226:X O *D sky130_fd_sc_hd__a21bo_1
*CAP
1 *1227:B 0.000136039
2 *1226:X 0.000136039
*RES
1 *1226:X *1227:B 48.5271 
*END

*D_NET *255 0.000721815
*CONN
*I *1229:B I *D sky130_fd_sc_hd__and2_1
*I *1228:Y O *D sky130_fd_sc_hd__nand3_1
*CAP
1 *1229:B 0
2 *1228:Y 0.000177463
3 *255:10 0.000177463
4 *255:10 *336:51 0.000169665
5 *1119:A2 *255:10 9.5877e-05
6 *1230:B *255:10 1.19692e-05
7 *164:14 *255:10 4.34745e-05
8 *165:8 *255:10 4.59027e-05
*RES
1 *1228:Y *255:10 41.8321 
2 *255:10 *1229:B 38 
*END

*D_NET *256 0.0015541
*CONN
*I *1231:B I *D sky130_fd_sc_hd__xnor2_1
*I *1232:A2 I *D sky130_fd_sc_hd__a21bo_1
*I *1230:Y O *D sky130_fd_sc_hd__nand2_1
*CAP
1 *1231:B 6.56968e-05
2 *1232:A2 0.000223108
3 *1230:Y 0.000263227
4 *256:8 0.000552032
5 *1231:B *278:10 6.17437e-06
6 *1232:A2 *336:51 0
7 *256:8 *336:51 0
8 *1085:C *1232:A2 0
9 *1232:A1 *1232:A2 0.000230604
10 *128:12 *1232:A2 1.76557e-05
11 *130:10 *1232:A2 0.000187846
12 *130:10 *256:8 7.75329e-06
*RES
1 *1230:Y *256:8 43.075 
2 *256:8 *1232:A2 43.7586 
3 *256:8 *1231:B 39.0979 
*END

*D_NET *257 0.00301823
*CONN
*I *1234:A2 I *D sky130_fd_sc_hd__a21bo_1
*I *1233:B I *D sky130_fd_sc_hd__xnor2_1
*I *1232:X O *D sky130_fd_sc_hd__a21bo_1
*CAP
1 *1234:A2 0
2 *1233:B 0.000265001
3 *1232:X 0.000527754
4 *257:6 0.000792755
5 *1077:B *257:6 9.84794e-05
6 *1080:B *257:6 0.000226306
7 *1233:A *1233:B 0.000657541
8 *1233:A *257:6 0.00031495
9 *1234:B1_N *257:6 4.19743e-05
10 *124:10 *257:6 3.22879e-05
11 *125:14 *257:6 5.50049e-05
12 *128:12 *257:6 6.17437e-06
*RES
1 *1232:X *257:6 35.0557 
2 *257:6 *1233:B 30.2914 
3 *257:6 *1234:A2 23 
*END

*D_NET *258 0.00117509
*CONN
*I *1235:B I *D sky130_fd_sc_hd__xnor2_1
*I *1234:X O *D sky130_fd_sc_hd__a21bo_1
*CAP
1 *1235:B 0
2 *1234:X 0.000228278
3 *258:10 0.000228278
4 *258:10 *302:22 0.000192681
5 *258:10 *339:12 0.000384805
6 *1233:A *258:10 0.000141052
*RES
1 *1234:X *258:10 44.6493 
2 *258:10 *1235:B 38 
*END

*D_NET *259 0.00158571
*CONN
*I *1238:A I *D sky130_fd_sc_hd__and2_1
*I *1239:A2 I *D sky130_fd_sc_hd__a21o_1
*I *1240:C I *D sky130_fd_sc_hd__nand3_1
*I *1236:X O *D sky130_fd_sc_hd__or2_1
*CAP
1 *1238:A 6.61301e-05
2 *1239:A2 0
3 *1240:C 0.000118761
4 *1236:X 0
5 *259:8 0.000288357
6 *259:4 0.000235726
7 *1240:C *262:10 5.3304e-05
8 *1240:C *303:36 7.461e-05
9 *259:8 *303:36 0.000182076
10 *1236:A *1238:A 5.90675e-06
11 *1237:A *1238:A 7.36946e-05
12 *1240:B *1240:C 0.000160191
13 *157:20 *259:8 0.000219882
14 *157:22 *1240:C 1.14452e-05
15 *157:22 *259:8 7.80035e-05
16 *159:20 *1238:A 6.17437e-06
17 *159:20 *259:8 1.14452e-05
18 *159:30 *259:8 0
*RES
1 *1236:X *259:4 23 
2 *259:4 *259:8 20.075 
3 *259:8 *1240:C 40.8793 
4 *259:8 *1239:A2 38 
5 *259:4 *1238:A 24.4707 
*END

*D_NET *260 0.000346544
*CONN
*I *1238:B I *D sky130_fd_sc_hd__and2_1
*I *1237:Y O *D sky130_fd_sc_hd__nand2_1
*CAP
1 *1238:B 0.000104375
2 *1237:Y 0.000104375
3 *1237:A *1238:B 0.000122024
4 *159:20 *1238:B 1.5769e-05
*RES
1 *1237:Y *1238:B 48.5479 
*END

*D_NET *261 0.00243043
*CONN
*I *1241:A I *D sky130_fd_sc_hd__and2_1
*I *1243:C I *D sky130_fd_sc_hd__and3_1
*I *1242:A2 I *D sky130_fd_sc_hd__a21oi_1
*I *1239:X O *D sky130_fd_sc_hd__a21o_1
*CAP
1 *1241:A 0.000114493
2 *1243:C 2.84449e-05
3 *1242:A2 1.91994e-05
4 *1239:X 2.34823e-05
5 *261:14 0.000454997
6 *261:6 0.000545328
7 *261:14 *303:38 0
8 *1106:A *1242:A2 1.56665e-05
9 *1106:A *1243:C 9.42385e-05
10 *1117:A2 *1241:A 2.02872e-05
11 *1117:A3 *1241:A 0.000103637
12 *1117:A3 *261:6 0
13 *1117:A3 *261:14 2.93845e-05
14 *1117:B1 *261:14 5.3304e-05
15 *1242:A1 *1242:A2 5.70419e-05
16 *1242:A1 *1243:C 2.16583e-05
17 *149:21 *1242:A2 5.67058e-05
18 *149:21 *1243:C 0
19 *153:20 *261:14 0
20 *154:18 *1243:C 8.44405e-06
21 *154:18 *261:14 0
22 *156:6 *1241:A 9.76261e-05
23 *156:8 *1241:A 2.93845e-05
24 *159:30 *261:14 0.000215791
25 *162:10 *261:14 9.28739e-05
26 *163:8 *261:14 0.000348447
*RES
1 *1239:X *261:6 23.4971 
2 *261:6 *261:14 39.2179 
3 *261:14 *1242:A2 24.0979 
4 *261:14 *1243:C 24.2014 
5 *261:6 *1241:A 26.0036 
*END

*D_NET *262 0.000849809
*CONN
*I *1241:B I *D sky130_fd_sc_hd__and2_1
*I *1240:Y O *D sky130_fd_sc_hd__nand3_1
*CAP
1 *1241:B 0
2 *1240:Y 0.000286636
3 *262:10 0.000286636
4 *262:10 *274:8 3.3746e-05
5 *262:10 *303:36 0.000135557
6 *262:10 *369:20 0
7 *262:10 *369:30 4.77554e-05
8 *1240:B *262:10 6.17437e-06
9 *1240:C *262:10 5.3304e-05
*RES
1 *1240:Y *262:10 42.4329 
2 *262:10 *1241:B 38 
*END

*D_NET *263 0.00143171
*CONN
*I *1244:A I *D sky130_fd_sc_hd__nor2_1
*I *1245:B1 I *D sky130_fd_sc_hd__a21oi_1
*I *1242:Y O *D sky130_fd_sc_hd__a21oi_1
*CAP
1 *1244:A 1.22655e-05
2 *1245:B1 0
3 *1242:Y 9.66645e-05
4 *263:18 0.000174084
5 *263:12 0.000243477
6 *263:8 0.000153792
7 *1244:A *275:6 5.50106e-05
8 *263:8 *369:36 0
9 *263:12 *1115:A1 4.5051e-05
10 *263:12 *275:6 0.0002246
11 *263:18 *1115:A1 6.6869e-05
12 *263:18 *1269:CLK 0
13 *263:18 *264:8 2.76611e-06
14 *263:18 *303:38 0
15 *263:18 *327:8 6.07611e-06
16 *1115:B1 *1244:A 4.2573e-05
17 *1115:B1 *263:12 0.000141954
18 *149:8 *263:8 0.000166522
19 *149:8 *263:18 0
*RES
1 *1242:Y *263:8 40.2579 
2 *263:8 *263:12 17.5271 
3 *263:12 *263:18 32.61 
4 *263:18 *1245:B1 23 
5 *263:12 *1244:A 23.6214 
*END

*D_NET *264 0.000308162
*CONN
*I *1244:B I *D sky130_fd_sc_hd__nor2_1
*I *1243:X O *D sky130_fd_sc_hd__and3_1
*CAP
1 *1244:B 0
2 *1243:X 0.000109554
3 *264:8 0.000109554
4 *149:8 *264:8 0
5 *150:23 *264:8 0
6 *162:10 *264:8 8.62876e-05
7 *263:18 *264:8 2.76611e-06
*RES
1 *1243:X *264:8 40.2579 
2 *264:8 *1244:B 38 
*END

*D_NET *265 0.00148509
*CONN
*I *1246:B I *D sky130_fd_sc_hd__xnor2_1
*I *1245:Y O *D sky130_fd_sc_hd__a21oi_1
*CAP
1 *1246:B 3.78039e-05
2 *1245:Y 0.000646943
3 *265:10 0.000684747
4 *265:10 *303:55 4.52257e-05
5 *152:8 *265:10 7.03663e-05
*RES
1 *1245:Y *265:10 47.1971 
2 *265:10 *1246:B 38.6214 
*END

*D_NET *266 0.000730295
*CONN
*I *1249:B I *D sky130_fd_sc_hd__nor2_1
*I *1248:X O *D sky130_fd_sc_hd__o21a_1
*CAP
1 *1249:B 0
2 *1248:X 0.000365148
3 *266:10 0.000365148
4 *1249:A *266:10 0
5 *144:12 *266:10 0
*RES
1 *1248:X *266:10 44.1729 
2 *266:10 *1249:B 38 
*END

*D_NET *267 0.000415349
*CONN
*I *1251:B I *D sky130_fd_sc_hd__xnor2_1
*I *1250:Y O *D sky130_fd_sc_hd__nor2_1
*CAP
1 *1251:B 0
2 *1250:Y 0.000160549
3 *267:10 0.000160549
4 *267:10 *1265:CLK 0
5 *1250:B *267:10 5.50106e-05
6 *145:12 *267:10 0
7 *147:8 *267:10 3.92407e-05
*RES
1 *1250:Y *267:10 40.8793 
2 *267:10 *1251:B 38 
*END

*D_NET *268 0.000424541
*CONN
*I *1253:B I *D sky130_fd_sc_hd__and2_1
*I *1252:X O *D sky130_fd_sc_hd__or2_1
*CAP
1 *1253:B 0.000137226
2 *1252:X 0.000137226
3 *1253:B *1252:A 5.3304e-05
4 *143:14 *1253:B 9.67842e-05
*RES
1 *1252:X *1253:B 48.5271 
*END

*D_NET *269 0.000529437
*CONN
*I *1262:D I *D sky130_fd_sc_hd__dfrtp_1
*I *1253:X O *D sky130_fd_sc_hd__and2_1
*CAP
1 *1262:D 0
2 *1253:X 0.000163843
3 *269:10 0.000163843
4 *269:10 *306:10 0
5 *269:10 *309:21 5.80963e-05
6 *269:10 *345:29 0.000143655
*RES
1 *1253:X *269:10 41.1279 
2 *269:10 *1262:D 38 
*END

*D_NET *270 0.00126635
*CONN
*I *1263:D I *D sky130_fd_sc_hd__dfrtp_1
*I *1247:Y O *D sky130_fd_sc_hd__xnor2_1
*CAP
1 *1263:D 0
2 *1247:Y 0.000438468
3 *270:10 0.000438468
4 *270:10 *1262:CLK 0.000202376
5 *270:10 *303:97 4.21594e-06
6 *270:10 *345:10 0
7 *270:10 *345:29 0
8 *143:14 *270:10 0.000182826
*RES
1 *1247:Y *270:10 47.9429 
2 *270:10 *1263:D 38 
*END

*D_NET *271 0.000438396
*CONN
*I *1264:D I *D sky130_fd_sc_hd__dfrtp_1
*I *1249:Y O *D sky130_fd_sc_hd__nor2_1
*CAP
1 *1264:D 0
2 *1249:Y 0.000207683
3 *271:10 0.000207683
4 *1249:A *271:10 2.30292e-05
*RES
1 *1249:Y *271:10 41.1279 
2 *271:10 *1264:D 38 
*END

*D_NET *272 0.000354109
*CONN
*I *1265:D I *D sky130_fd_sc_hd__dfrtp_4
*I *1251:Y O *D sky130_fd_sc_hd__xnor2_1
*CAP
1 *1265:D 0.000136008
2 *1251:Y 0.000136008
3 *1265:D *368:18 8.20929e-05
*RES
1 *1251:Y *1265:D 48.5479 
*END

*D_NET *273 0.000309785
*CONN
*I *1266:D I *D sky130_fd_sc_hd__dfrtp_1
*I *1238:X O *D sky130_fd_sc_hd__and2_1
*CAP
1 *1266:D 0
2 *1238:X 6.19897e-05
3 *273:8 6.19897e-05
4 *273:8 *303:36 4.48568e-05
5 *273:8 *360:10 5.46706e-05
6 *273:8 *360:18 8.62783e-05
*RES
1 *1238:X *273:8 39.9057 
2 *273:8 *1266:D 38 
*END

*D_NET *274 0.00022749
*CONN
*I *1267:D I *D sky130_fd_sc_hd__dfrtp_1
*I *1241:X O *D sky130_fd_sc_hd__and2_1
*CAP
1 *1267:D 0
2 *1241:X 5.81506e-05
3 *274:8 5.81506e-05
4 *274:8 *303:36 9.20311e-06
5 *274:8 *369:30 1.01436e-05
6 *274:8 *369:56 5.80963e-05
7 *262:10 *274:8 3.3746e-05
*RES
1 *1241:X *274:8 39.5536 
2 *274:8 *1267:D 38 
*END

*D_NET *275 0.00204693
*CONN
*I *1268:D I *D sky130_fd_sc_hd__dfrtp_1
*I *1244:Y O *D sky130_fd_sc_hd__nor2_1
*CAP
1 *1268:D 0
2 *1244:Y 0.000685414
3 *275:6 0.000685414
4 *275:6 *1115:A2 0.00014196
5 *275:6 *364:8 9.84794e-05
6 *1115:B1 *275:6 2.4754e-05
7 *1244:A *275:6 5.50106e-05
8 *162:10 *275:6 0.000131304
9 *263:12 *275:6 0.0002246
*RES
1 *1244:Y *275:6 36.9614 
2 *275:6 *1268:D 23 
*END

*D_NET *276 0.000361099
*CONN
*I *1269:D I *D sky130_fd_sc_hd__dfrtp_1
*I *1246:Y O *D sky130_fd_sc_hd__xnor2_1
*CAP
1 *1269:D 0
2 *1246:Y 0.000147115
3 *276:10 0.000147115
4 *152:8 *276:10 6.6869e-05
*RES
1 *1246:Y *276:10 40.5271 
2 *276:10 *1269:D 38 
*END

*D_NET *277 0.000269698
*CONN
*I *1270:D I *D sky130_fd_sc_hd__dfrtp_1
*I *1229:X O *D sky130_fd_sc_hd__and2_1
*CAP
1 *1270:D 9.39508e-05
2 *1229:X 9.39508e-05
3 *1270:D *303:14 8.1796e-05
*RES
1 *1229:X *1270:D 48.0507 
*END

*D_NET *278 0.00137763
*CONN
*I *1271:D I *D sky130_fd_sc_hd__dfrtp_1
*I *1231:Y O *D sky130_fd_sc_hd__xnor2_1
*CAP
1 *1271:D 0
2 *1231:Y 0.000649303
3 *278:10 0.000649303
4 *278:10 *303:72 7.28526e-05
5 *278:10 *336:51 0
6 *278:10 *368:138 0
7 *1231:B *278:10 6.17437e-06
*RES
1 *1231:Y *278:10 47.7564 
2 *278:10 *1271:D 38 
*END

*D_NET *279 0.000635326
*CONN
*I *1272:D I *D sky130_fd_sc_hd__dfrtp_1
*I *1233:Y O *D sky130_fd_sc_hd__xnor2_1
*CAP
1 *1272:D 0
2 *1233:Y 0.000317663
3 *279:10 0.000317663
4 *279:10 *338:21 0
*RES
1 *1233:Y *279:10 42.0807 
2 *279:10 *1272:D 38 
*END

*D_NET *280 0.00049739
*CONN
*I *1273:D I *D sky130_fd_sc_hd__dfrtp_1
*I *1235:Y O *D sky130_fd_sc_hd__xnor2_1
*CAP
1 *1273:D 0
2 *1235:Y 0.000203375
3 *280:10 0.000203375
4 *280:10 *302:16 4.21594e-06
5 *280:10 *302:22 4.58924e-05
6 *80:10 *280:10 0
7 *124:32 *280:10 4.05309e-05
*RES
1 *1235:Y *280:10 41.48 
2 *280:10 *1273:D 38 
*END

*D_NET *281 0.000277275
*CONN
*I *1274:D I *D sky130_fd_sc_hd__dfrtp_1
*I *1221:X O *D sky130_fd_sc_hd__xor2_1
*CAP
1 *1274:D 0.000105137
2 *1221:X 0.000105137
3 *1274:D *336:10 6.70017e-05
*RES
1 *1221:X *1274:D 48.0507 
*END

*D_NET *282 0.00132294
*CONN
*I *1275:D I *D sky130_fd_sc_hd__dfrtp_1
*I *1223:Y O *D sky130_fd_sc_hd__xnor2_1
*CAP
1 *1275:D 0
2 *1223:Y 0.000523136
3 *282:10 0.000523136
4 *282:10 *1034:A 2.64616e-05
5 *1223:B *282:10 0.000142577
6 *82:10 *282:10 5.50049e-05
7 *186:12 *282:10 5.26204e-05
*RES
1 *1223:Y *282:10 47.0729 
2 *282:10 *1275:D 38 
*END

*D_NET *283 0.00159501
*CONN
*I *1276:D I *D sky130_fd_sc_hd__dfrtp_1
*I *1225:Y O *D sky130_fd_sc_hd__xnor2_1
*CAP
1 *1276:D 0.000323954
2 *1225:Y 0.000387214
3 *283:8 0.000711168
4 *1276:D *302:37 0.000172675
*RES
1 *1225:Y *283:8 42.9093 
2 *283:8 *1276:D 45.1879 
*END

*D_NET *284 0.000426502
*CONN
*I *1277:D I *D sky130_fd_sc_hd__dfrtp_1
*I *1227:Y O *D sky130_fd_sc_hd__xnor2_1
*CAP
1 *1277:D 0
2 *1227:Y 9.60809e-05
3 *284:10 9.60809e-05
4 *284:10 *368:59 0.000120258
5 *1227:A *284:10 0.000114083
*RES
1 *1227:Y *284:10 40.175 
2 *284:10 *1277:D 38 
*END

*D_NET *285 0.000328076
*CONN
*I *1278:D I *D sky130_fd_sc_hd__dfrtp_1
*I *1213:X O *D sky130_fd_sc_hd__xor2_1
*CAP
1 *1278:D 0.000123458
2 *1213:X 0.000123458
3 *1278:D *341:10 8.11598e-05
*RES
1 *1213:X *1278:D 48.5271 
*END

*D_NET *286 0.00083238
*CONN
*I *1279:D I *D sky130_fd_sc_hd__dfrtp_1
*I *1216:Y O *D sky130_fd_sc_hd__nor2_1
*CAP
1 *1279:D 0
2 *1216:Y 0.00032724
3 *286:10 0.00032724
4 *286:10 *1346:A 0.000177899
*RES
1 *1216:Y *286:10 43.3857 
2 *286:10 *1279:D 38 
*END

*D_NET *287 0.00139811
*CONN
*I *1280:D I *D sky130_fd_sc_hd__dfrtp_1
*I *1218:Y O *D sky130_fd_sc_hd__xnor2_1
*CAP
1 *1280:D 0
2 *1218:Y 0.000658159
3 *287:8 0.000658159
4 *1146:A *287:8 8.1796e-05
5 *1219:A2 *287:8 0
*RES
1 *1218:Y *287:8 35.0764 
2 *287:8 *1280:D 23 
*END

*D_NET *288 0.000726789
*CONN
*I *1281:D I *D sky130_fd_sc_hd__dfrtp_1
*I *1220:Y O *D sky130_fd_sc_hd__xnor2_1
*CAP
1 *1281:D 0
2 *1220:Y 0.000286822
3 *288:10 0.000286822
4 *288:10 *307:10 0
5 *1220:A *288:10 0.000153145
*RES
1 *1220:Y *288:10 42.5571 
2 *288:10 *1281:D 38 
*END

*D_NET *289 0.00066332
*CONN
*I *1282:D I *D sky130_fd_sc_hd__dfrtp_1
*I *1205:Y O *D sky130_fd_sc_hd__xnor2_1
*CAP
1 *1282:D 0.000163666
2 *1205:Y 3.55839e-05
3 *289:8 0.00019925
4 *1282:D *304:18 7.66837e-05
5 *214:14 *1282:D 5.37348e-06
6 *214:14 *289:8 8.85189e-05
7 *217:25 *289:8 8.62876e-05
8 *218:6 *1282:D 7.9567e-06
*RES
1 *1205:Y *289:8 39.2014 
2 *289:8 *1282:D 40.4287 
*END

*D_NET *290 0.00114615
*CONN
*I *1283:D I *D sky130_fd_sc_hd__dfrtp_1
*I *1207:Y O *D sky130_fd_sc_hd__xnor2_1
*CAP
1 *1283:D 0
2 *1207:Y 0.000491909
3 *290:10 0.000491909
4 *290:10 *1042:A 0.000119957
5 *290:10 *304:80 4.23714e-05
6 *90:10 *290:10 0
*RES
1 *1207:Y *290:10 45.2914 
2 *290:10 *1283:D 38 
*END

*D_NET *291 0.000464694
*CONN
*I *1284:D I *D sky130_fd_sc_hd__dfrtp_1
*I *1209:Y O *D sky130_fd_sc_hd__xnor2_1
*CAP
1 *1284:D 0.000200759
2 *1209:Y 0.000200759
3 *1284:D *304:64 5.36522e-05
4 *209:34 *1284:D 9.52332e-06
*RES
1 *1209:Y *1284:D 49.0243 
*END

*D_NET *292 0.000421359
*CONN
*I *1285:D I *D sky130_fd_sc_hd__dfrtp_1
*I *1211:Y O *D sky130_fd_sc_hd__xnor2_1
*CAP
1 *1285:D 7.58548e-05
2 *1211:Y 9.53785e-05
3 *292:8 0.000171233
4 *1285:D *304:62 7.27182e-05
5 *1285:D *304:64 6.17437e-06
6 *292:8 *304:62 0
*RES
1 *1211:Y *292:8 39.5536 
2 *292:8 *1285:D 39.5743 
*END

*D_NET *293 0.000431705
*CONN
*I *1286:D I *D sky130_fd_sc_hd__dfrtp_1
*I *1197:Y O *D sky130_fd_sc_hd__nor2_1
*CAP
1 *1286:D 9.603e-05
2 *1197:Y 6.12625e-05
3 *293:8 0.000157293
4 *1286:D *1286:CLK 7.37803e-05
5 *223:8 *293:8 0
6 *239:8 *293:8 4.334e-05
*RES
1 *1197:Y *293:8 39.2014 
2 *293:8 *1286:D 39.4759 
*END

*D_NET *294 0.00154322
*CONN
*I *1287:D I *D sky130_fd_sc_hd__dfrtp_1
*I *1199:Y O *D sky130_fd_sc_hd__xnor2_1
*CAP
1 *1287:D 0.000488776
2 *1199:Y 0.000115545
3 *294:8 0.00060432
4 *294:8 *305:29 2.36844e-05
5 *294:8 *370:118 0
6 *224:14 *1287:D 0.000224605
7 *240:10 *294:8 8.62876e-05
*RES
1 *1199:Y *294:8 40.2579 
2 *294:8 *1287:D 47.1971 
*END

*D_NET *295 0.000356074
*CONN
*I *1288:D I *D sky130_fd_sc_hd__dfrtp_1
*I *1202:Y O *D sky130_fd_sc_hd__xnor2_1
*CAP
1 *1288:D 0.000124142
2 *1202:Y 0.000124142
3 *1202:A *1288:D 0.00010779
*RES
1 *1202:Y *1288:D 48.5479 
*END

*D_NET *296 0.00136754
*CONN
*I *1289:D I *D sky130_fd_sc_hd__dfrtp_1
*I *1204:X O *D sky130_fd_sc_hd__xor2_1
*CAP
1 *1289:D 0.000219505
2 *1204:X 0.000184241
3 *296:8 0.000403746
4 *1289:D *1060:A 9.84851e-05
5 *1289:D *1289:CLK 8.1796e-05
6 *1289:D *354:6 4.91297e-05
7 *1289:D *354:12 1.32939e-05
8 *296:8 *353:32 6.7177e-06
9 *107:10 *296:8 0.000141869
10 *107:16 *296:8 0.000168754
*RES
1 *1204:X *296:8 42.3707 
2 *296:8 *1289:D 42.9093 
*END

*D_NET *297 0.000181348
*CONN
*I *1290:D I *D sky130_fd_sc_hd__dfrtp_1
*I *1180:Y O *D sky130_fd_sc_hd__xnor2_1
*CAP
1 *1290:D 0
2 *1180:Y 7.16044e-05
3 *297:8 7.16044e-05
4 *297:8 *305:45 3.81391e-05
5 *97:8 *297:8 0
*RES
1 *1180:Y *297:8 39.5536 
2 *297:8 *1290:D 38 
*END

*D_NET *298 0.000609569
*CONN
*I *1291:D I *D sky130_fd_sc_hd__dfrtp_1
*I *1185:Y O *D sky130_fd_sc_hd__xnor2_1
*CAP
1 *1291:D 0
2 *1185:Y 0.000277937
3 *298:10 0.000277937
4 *298:10 *371:20 0
5 *1183:A_N *298:10 6.17437e-06
6 *1183:B *298:10 1.52332e-05
7 *1185:A *298:10 3.22879e-05
*RES
1 *1185:Y *298:10 42.785 
2 *298:10 *1291:D 38 
*END

*D_NET *299 0.000417095
*CONN
*I *1292:D I *D sky130_fd_sc_hd__dfrtp_1
*I *1190:Y O *D sky130_fd_sc_hd__xnor2_1
*CAP
1 *1292:D 0.000208547
2 *1190:Y 0.000208547
*RES
1 *1190:Y *1292:D 49.6457 
*END

*D_NET *300 0.000468046
*CONN
*I *1293:D I *D sky130_fd_sc_hd__dfrtp_1
*I *1195:Y O *D sky130_fd_sc_hd__xnor2_1
*CAP
1 *1293:D 0.000149878
2 *1195:Y 0.000149878
3 *1293:D *1293:CLK 9.84851e-05
4 *1195:B *1293:D 6.9805e-05
*RES
1 *1195:Y *1293:D 49.0243 
*END

*D_NET *301 0.00852394
*CONN
*I *1298:A I *D sky130_fd_sc_hd__clkbuf_16
*I *1297:A I *D sky130_fd_sc_hd__clkbuf_16
*I *1296:A I *D sky130_fd_sc_hd__clkbuf_16
*I *1295:A I *D sky130_fd_sc_hd__clkbuf_16
*I *1294:X O *D sky130_fd_sc_hd__clkbuf_16
*CAP
1 *1298:A 0.000177897
2 *1297:A 0.000804355
3 *1296:A 0.000147445
4 *1295:A 0.00070471
5 *1294:X 0.00023883
6 *301:30 0.0018684
7 *301:12 0.00174438
8 *301:8 0.0020172
9 *1297:A *1286:CLK 0.000143059
10 *1297:A *305:8 4.67488e-05
11 *1297:A *305:12 0.000143411
12 *1298:A *305:8 0.000122226
13 *301:12 *368:138 0
14 *301:30 *351:12 8.94487e-05
15 *301:30 *370:118 9.70251e-05
16 *1180:A *301:30 0
17 *1286:RESET_B *1297:A 0.000178813
18 *225:8 *301:30 0
*RES
1 *1294:X *301:8 41.9564 
2 *301:8 *301:12 32.0479 
3 *301:12 *1295:A 35.0557 
4 *301:12 *1296:A 25.5271 
5 *301:8 *301:30 32.4 
6 *301:30 *1297:A 35.0764 
7 *301:30 *1298:A 26.0243 
*END

*D_NET *302 0.0142894
*CONN
*I *1275:CLK I *D sky130_fd_sc_hd__dfrtp_1
*I *1299:A I *D sky130_fd_sc_hd__clkbuf_4
*I *1274:CLK I *D sky130_fd_sc_hd__dfrtp_1
*I *1273:CLK I *D sky130_fd_sc_hd__dfrtp_1
*I *1272:CLK I *D sky130_fd_sc_hd__dfrtp_1
*I *1278:CLK I *D sky130_fd_sc_hd__dfrtp_1
*I *1279:CLK I *D sky130_fd_sc_hd__dfrtp_1
*I *1277:CLK I *D sky130_fd_sc_hd__dfrtp_1
*I *1276:CLK I *D sky130_fd_sc_hd__dfrtp_1
*I *1295:X O *D sky130_fd_sc_hd__clkbuf_16
*CAP
1 *1275:CLK 0.000305321
2 *1299:A 8.15719e-05
3 *1274:CLK 3.61159e-05
4 *1273:CLK 0
5 *1272:CLK 3.71244e-05
6 *1278:CLK 0
7 *1279:CLK 0
8 *1277:CLK 0
9 *1276:CLK 0.000272693
10 *1295:X 4.24211e-05
11 *302:95 0.000501846
12 *302:65 0.000840169
13 *302:52 0.00180586
14 *302:37 0.00157599
15 *302:24 0.00136216
16 *302:22 0.0018209
17 *302:16 0.00188666
18 *302:10 0.000748204
19 *302:8 0.000287406
20 *1275:CLK *368:28 0.000227407
21 *302:16 *1135:B 0
22 *302:16 *339:12 4.92812e-05
23 *302:22 *334:8 8.48502e-06
24 *302:22 *338:8 2.25208e-05
25 *302:22 *339:12 0.00013
26 *302:22 *368:100 5.41385e-05
27 *302:52 *337:12 0.000222113
28 *302:52 *350:10 0.000195248
29 *302:52 *368:59 0
30 *1227:A *302:37 8.26672e-05
31 *1272:RESET_B *302:22 0.000264463
32 *1276:D *302:37 0.000172675
33 *1276:RESET_B *1272:CLK 1.12349e-05
34 *1276:RESET_B *302:22 4.70543e-05
35 *1276:RESET_B *302:24 0.000118459
36 *86:8 *302:52 0
37 *126:8 *302:22 0
38 *167:10 *302:16 0
39 *169:10 *302:52 0
40 *169:27 *302:52 0
41 *178:10 *302:37 1.83667e-05
42 *178:10 *302:52 7.90464e-05
43 *179:10 *302:52 0
44 *183:10 *302:16 0
45 *183:21 *302:16 0
46 *184:14 *1275:CLK 0.000123428
47 *184:14 *302:10 0.000111148
48 *184:14 *302:16 6.93449e-05
49 *184:14 *302:95 9.74235e-05
50 *186:12 *302:65 7.03869e-05
51 *198:10 *302:65 0.000267298
52 *258:10 *302:22 0.000192681
53 *280:10 *302:16 4.21594e-06
54 *280:10 *302:22 4.58924e-05
*RES
1 *1295:X *302:8 38.6214 
2 *302:8 *302:10 2.96214 
3 *302:10 *302:16 9.83929 
4 *302:16 *302:22 37.4129 
5 *302:22 *302:24 6.815 
6 *302:24 *1276:CLK 26.8529 
7 *302:24 *302:37 28.1743 
8 *302:37 *1277:CLK 38 
9 *302:37 *302:52 33.6429 
10 *302:52 *1279:CLK 23 
11 *302:52 *302:65 46.0536 
12 *302:65 *1278:CLK 23 
13 *302:22 *1272:CLK 23.8493 
14 *302:16 *1273:CLK 38 
15 *302:10 *1274:CLK 38.6214 
16 *302:8 *302:95 2.61 
17 *302:95 *1299:A 39.0979 
18 *302:95 *1275:CLK 45.7471 
*END

*D_NET *303 0.0135924
*CONN
*I *1262:CLK I *D sky130_fd_sc_hd__dfrtp_1
*I *1263:CLK I *D sky130_fd_sc_hd__dfrtp_1
*I *1266:CLK I *D sky130_fd_sc_hd__dfrtp_1
*I *1267:CLK I *D sky130_fd_sc_hd__dfrtp_1
*I *1268:CLK I *D sky130_fd_sc_hd__dfrtp_1
*I *1271:CLK I *D sky130_fd_sc_hd__dfrtp_1
*I *1269:CLK I *D sky130_fd_sc_hd__dfrtp_1
*I *1265:CLK I *D sky130_fd_sc_hd__dfrtp_4
*I *1270:CLK I *D sky130_fd_sc_hd__dfrtp_1
*I *1296:X O *D sky130_fd_sc_hd__clkbuf_16
*CAP
1 *1262:CLK 0.000515079
2 *1263:CLK 0
3 *1266:CLK 0
4 *1267:CLK 0
5 *1268:CLK 0
6 *1271:CLK 2.34823e-05
7 *1269:CLK 4.93932e-05
8 *1265:CLK 0.000201434
9 *1270:CLK 0
10 *1296:X 0
11 *303:97 0.000849676
12 *303:72 0.000154681
13 *303:55 0.00124108
14 *303:38 0.0016269
15 *303:36 0.00108192
16 *303:32 0.000590805
17 *303:30 0.000793095
18 *303:14 0.000840687
19 *303:8 0.00109603
20 *303:4 0.000488929
21 *1262:CLK *345:46 0.000188916
22 *1262:CLK *360:10 7.55892e-05
23 *1265:CLK *1100:A 0
24 *303:14 *1100:A 0
25 *303:14 *324:14 0
26 *303:14 *324:43 0
27 *303:14 *360:49 0
28 *303:14 *369:30 9.01041e-05
29 *303:30 *360:31 0.00013018
30 *303:36 *1100:B 0
31 *303:36 *360:10 0
32 *303:36 *360:18 0
33 *303:36 *360:43 0
34 *303:36 *369:20 0
35 *303:36 *369:56 0
36 *303:38 *369:56 0
37 *303:55 *1102:A 6.97953e-05
38 *303:55 *1245:A2 0.00014196
39 *303:55 *364:20 1.76557e-05
40 *303:55 *369:36 0.000185428
41 *303:72 *368:138 0
42 *303:97 *360:10 9.21347e-06
43 *303:97 *360:31 4.27353e-05
44 *303:97 *369:86 0.000141879
45 *1114:B1 *303:14 0.000163352
46 *1240:B *303:36 4.08376e-06
47 *1240:C *303:36 7.461e-05
48 *1270:D *303:14 8.1796e-05
49 *1270:RESET_B *303:14 0.000127537
50 *1271:RESET_B *303:55 4.39278e-05
51 *1271:RESET_B *303:72 5.14746e-06
52 *140:10 *1262:CLK 6.07611e-06
53 *141:10 *1262:CLK 0.000111852
54 *142:10 *1262:CLK 0
55 *143:22 *1262:CLK 0
56 *145:12 *1265:CLK 0.000379431
57 *145:12 *303:14 0.000289973
58 *147:8 *1265:CLK 0
59 *150:23 *303:38 0.000197479
60 *151:21 *303:38 0
61 *152:8 *1269:CLK 0
62 *152:8 *303:38 0
63 *154:18 *303:38 0.000145936
64 *159:20 *303:36 5.02657e-05
65 *160:10 *303:14 0
66 *162:10 *303:38 0
67 *163:8 *303:38 0
68 *164:8 *303:14 0.000567963
69 *259:8 *303:36 0.000182076
70 *261:14 *303:38 0
71 *262:10 *303:36 0.000135557
72 *263:18 *1269:CLK 0
73 *263:18 *303:38 0
74 *265:10 *303:55 4.52257e-05
75 *267:10 *1265:CLK 0
76 *270:10 *1262:CLK 0.000202376
77 *270:10 *303:97 4.21594e-06
78 *273:8 *303:36 4.48568e-05
79 *274:8 *303:36 9.20311e-06
80 *278:10 *303:72 7.28526e-05
*RES
1 *1296:X *303:4 23 
2 *303:4 *303:8 15.6214 
3 *303:8 *303:14 36.9571 
4 *303:14 *1270:CLK 23 
5 *303:8 *1265:CLK 43.075 
6 *303:4 *303:30 7.76786 
7 *303:30 *303:32 0.497143 
8 *303:32 *303:36 26.4136 
9 *303:36 *303:38 10.7093 
10 *303:38 *1269:CLK 38.8493 
11 *303:38 *303:55 33.415 
12 *303:55 *1271:CLK 23.4971 
13 *303:55 *303:72 33.0243 
14 *303:72 *1268:CLK 23 
15 *303:36 *1267:CLK 38 
16 *303:32 *1266:CLK 23 
17 *303:30 *303:97 21.235 
18 *303:97 *1263:CLK 38 
19 *303:97 *1262:CLK 49.6829 
*END

*D_NET *304 0.0116597
*CONN
*I *1285:CLK I *D sky130_fd_sc_hd__dfrtp_1
*I *1284:CLK I *D sky130_fd_sc_hd__dfrtp_1
*I *1283:CLK I *D sky130_fd_sc_hd__dfrtp_1
*I *1281:CLK I *D sky130_fd_sc_hd__dfrtp_1
*I *1287:CLK I *D sky130_fd_sc_hd__dfrtp_1
*I *1300:A I *D sky130_fd_sc_hd__clkbuf_8
*I *1282:CLK I *D sky130_fd_sc_hd__dfrtp_1
*I *1280:CLK I *D sky130_fd_sc_hd__dfrtp_1
*I *1297:X O *D sky130_fd_sc_hd__clkbuf_16
*CAP
1 *1285:CLK 0
2 *1284:CLK 0
3 *1283:CLK 0
4 *1281:CLK 0
5 *1287:CLK 0.000165481
6 *1300:A 0
7 *1282:CLK 0
8 *1280:CLK 0
9 *1297:X 0
10 *304:80 0.00100534
11 *304:72 0.00149961
12 *304:64 0.00109142
13 *304:62 0.00126465
14 *304:47 0.000953549
15 *304:38 0.000210993
16 *304:26 0.00047201
17 *304:18 0.000914594
18 *304:6 0.000533003
19 *1287:CLK *1168:B 5.50106e-05
20 *1287:CLK *1169:A 5.41385e-05
21 *1287:CLK *310:14 4.04206e-05
22 *304:18 *346:10 7.07154e-05
23 *304:38 *346:10 5.86165e-05
24 *304:47 *346:10 7.66085e-05
25 *304:62 *312:10 0
26 *304:62 *346:10 7.76364e-06
27 *304:62 *346:25 0.00106421
28 *304:64 *1160:A 4.95081e-05
29 *304:64 *1161:B 5.50106e-05
30 *304:64 *348:8 0.000310641
31 *304:72 *370:55 4.21594e-06
32 *304:72 *370:83 0
33 *304:80 *1040:A 0
34 *304:80 *344:8 0.00015528
35 *304:80 *344:10 7.24365e-05
36 *304:80 *370:55 0
37 *1171:A1 *304:18 0
38 *1220:A *304:80 0
39 *1282:D *304:18 7.66837e-05
40 *1284:D *304:64 5.36522e-05
41 *1284:RESET_B *304:64 5.02764e-05
42 *1285:D *304:62 7.27182e-05
43 *1285:D *304:64 6.17437e-06
44 *88:8 *304:80 4.08641e-05
45 *90:10 *304:72 0
46 *91:8 *304:72 0
47 *208:10 *304:64 0.000269781
48 *209:34 *304:64 0.000516398
49 *212:18 *304:62 0
50 *215:28 *304:62 0
51 *217:8 *304:18 0
52 *217:8 *304:38 0
53 *217:8 *304:47 0
54 *217:25 *304:26 1.14452e-05
55 *218:6 *304:18 0.000249006
56 *219:8 *304:62 8.51329e-05
57 *245:20 *304:72 0
58 *290:10 *304:80 4.23714e-05
59 *292:8 *304:62 0
*RES
1 *1297:X *304:6 38 
2 *304:6 *304:18 26.3929 
3 *304:18 *304:26 38.4307 
4 *304:26 *1280:CLK 23 
5 *304:18 *1282:CLK 23 
6 *304:6 *304:38 2.25786 
7 *304:38 *1300:A 38 
8 *304:38 *304:47 2.96214 
9 *304:47 *1287:CLK 41.48 
10 *304:47 *304:62 31.6336 
11 *304:62 *304:64 16.3436 
12 *304:64 *304:72 24.715 
13 *304:72 *304:80 32.545 
14 *304:80 *1281:CLK 23 
15 *304:72 *1283:CLK 38 
16 *304:64 *1284:CLK 23 
17 *304:62 *1285:CLK 23 
*END

*D_NET *305 0.0155426
*CONN
*I *1289:CLK I *D sky130_fd_sc_hd__dfrtp_1
*I *1292:CLK I *D sky130_fd_sc_hd__dfrtp_1
*I *1293:CLK I *D sky130_fd_sc_hd__dfrtp_1
*I *1290:CLK I *D sky130_fd_sc_hd__dfrtp_1
*I *1291:CLK I *D sky130_fd_sc_hd__dfrtp_1
*I *1264:CLK I *D sky130_fd_sc_hd__dfrtp_1
*I *1301:A I *D sky130_fd_sc_hd__clkbuf_4
*I *1288:CLK I *D sky130_fd_sc_hd__dfrtp_1
*I *1286:CLK I *D sky130_fd_sc_hd__dfrtp_1
*I *1298:X O *D sky130_fd_sc_hd__clkbuf_16
*CAP
1 *1289:CLK 0.000439643
2 *1292:CLK 0
3 *1293:CLK 7.84374e-05
4 *1290:CLK 0
5 *1291:CLK 0
6 *1264:CLK 0.000345567
7 *1301:A 0
8 *1288:CLK 0
9 *1286:CLK 0.000133305
10 *1298:X 0
11 *305:93 0.000969781
12 *305:82 0.000988231
13 *305:62 0.000638295
14 *305:47 0.00114091
15 *305:45 0.000385762
16 *305:29 0.000882335
17 *305:12 0.00129131
18 *305:8 0.000602114
19 *305:6 0.000739212
20 *305:4 0.000563712
21 *1289:CLK *354:6 0.000276915
22 *1289:CLK *370:8 0.000219882
23 *305:8 *351:12 2.32101e-05
24 *305:12 *351:12 0.000107287
25 *305:29 *1046:A 0
26 *305:29 *1057:B 7.48331e-05
27 *305:29 *1356:A 0.000139224
28 *305:29 *352:10 0.000441317
29 *305:62 *1049:A 0.000533224
30 *305:62 *371:20 0.000177909
31 *305:82 *1055:A 0.000122226
32 *305:82 *319:14 4.79544e-05
33 *305:82 *355:25 3.17634e-05
34 *305:82 *355:44 0.000185434
35 *1056:B *305:82 5.50049e-05
36 *1180:A *305:45 0.000253061
37 *1184:A *305:82 0
38 *1191:B1 *305:93 0.000240064
39 *1192:A1 *305:93 0
40 *1195:B *1293:CLK 0.000180218
41 *1200:A2 *305:29 2.99692e-05
42 *1286:D *1286:CLK 7.37803e-05
43 *1286:RESET_B *305:12 9.987e-05
44 *1289:D *1289:CLK 8.1796e-05
45 *1293:D *1293:CLK 9.84851e-05
46 *1297:A *1286:CLK 0.000143059
47 *1297:A *305:8 4.67488e-05
48 *1297:A *305:12 0.000143411
49 *1298:A *305:8 0.000122226
50 *94:10 *305:29 0
51 *96:10 *1289:CLK 0.000114083
52 *101:8 *305:82 9.84851e-05
53 *101:40 *305:82 0.000355319
54 *101:40 *305:93 0.000238185
55 *103:6 *305:6 0.000269391
56 *103:6 *305:8 6.17437e-06
57 *103:6 *305:82 0.000619272
58 *218:40 *305:29 8.94487e-05
59 *223:8 *305:29 0.000274553
60 *224:10 *305:29 7.45175e-05
61 *226:36 *305:93 0
62 *228:21 *305:82 1.12487e-05
63 *231:10 *305:93 4.07715e-05
64 *232:17 *305:93 0.000141879
65 *234:10 *305:93 0
66 *236:10 *305:82 0
67 *236:10 *305:93 0
68 *239:8 *305:29 0
69 *241:10 *305:29 0
70 *294:8 *305:29 2.36844e-05
71 *297:8 *305:45 3.81391e-05
*RES
1 *1298:X *305:4 23 
2 *305:4 *305:6 5.38571 
3 *305:6 *305:8 6.33857 
4 *305:8 *305:12 6.83571 
5 *305:12 *1286:CLK 26.9564 
6 *305:12 *305:29 36.2529 
7 *305:29 *1288:CLK 38 
8 *305:8 *1301:A 23 
9 *305:6 *305:45 20.7793 
10 *305:45 *305:47 2.96214 
11 *305:47 *1264:CLK 44.4007 
12 *305:47 *305:62 29.9143 
13 *305:62 *1291:CLK 23 
14 *305:45 *1290:CLK 38 
15 *305:4 *305:82 28.3814 
16 *305:82 *1293:CLK 40.0507 
17 *305:82 *305:93 11.7657 
18 *305:93 *1292:CLK 38 
19 *305:93 *1289:CLK 49.165 
*END

*D_NET *306 0.00166643
*CONN
*I *1252:A I *D sky130_fd_sc_hd__or2_1
*I *1096:A I *D sky130_fd_sc_hd__nand2_1
*I *1306:X O *D sky130_fd_sc_hd__clkbuf_1
*CAP
1 *1252:A 0.000105129
2 *1096:A 0.000125257
3 *1306:X 0.000213507
4 *306:10 0.000443893
5 *1096:A *332:28 0.000274534
6 *1096:A *345:29 0
7 *306:10 *309:6 5.50049e-05
8 *306:10 *332:28 0.000327903
9 *1253:B *1252:A 5.3304e-05
10 *143:10 *1096:A 6.79006e-05
11 *269:10 *306:10 0
*RES
1 *1306:X *306:10 42.9921 
2 *306:10 *1096:A 41.6664 
3 *306:10 *1252:A 39.5743 
*END

*D_NET *307 0.00352188
*CONN
*I *1152:B1 I *D sky130_fd_sc_hd__o211a_1
*I *1142:A I *D sky130_fd_sc_hd__or2_1
*I *1143:A I *D sky130_fd_sc_hd__nand2_1
*I *1307:X O *D sky130_fd_sc_hd__buf_1
*CAP
1 *1152:B1 0.000431968
2 *1142:A 0
3 *1143:A 7.47377e-05
4 *1307:X 0.000415107
5 *307:14 0.000214411
6 *307:10 0.000986749
7 *1143:A *343:18 0.000149562
8 *1152:B1 *1152:A1 0.000214738
9 *1152:B1 *308:8 0.000614974
10 *307:10 *344:34 0
11 *307:14 *344:34 0
12 *1220:A *307:10 5.41288e-05
13 *202:8 *1152:B1 0.000187129
14 *251:8 *307:10 0.000102795
15 *251:8 *307:14 7.55832e-05
16 *288:10 *307:10 0
*RES
1 *1307:X *307:10 44.8979 
2 *307:10 *307:14 17.9621 
3 *307:14 *1143:A 25.0714 
4 *307:14 *1142:A 23 
5 *307:10 *1152:B1 48.9993 
*END

*D_NET *308 0.00276623
*CONN
*I *1145:A I *D sky130_fd_sc_hd__xnor2_1
*I *1152:A1 I *D sky130_fd_sc_hd__o211a_1
*I *1155:A1 I *D sky130_fd_sc_hd__a211oi_1
*I *1308:X O *D sky130_fd_sc_hd__buf_1
*CAP
1 *1145:A 0
2 *1152:A1 0.00013888
3 *1155:A1 1.67322e-05
4 *1308:X 0
5 *308:34 8.22047e-05
6 *308:8 0.000536596
7 *308:4 0.000463188
8 *308:8 *344:34 0.000140259
9 *308:34 *344:16 3.92407e-05
10 *1152:B1 *1152:A1 0.000214738
11 *1152:B1 *308:8 0.000614974
12 *35:9 *308:34 2.75666e-05
13 *45:11 *308:34 5.32119e-05
14 *199:8 *1152:A1 0.000323176
15 *199:8 *1155:A1 1.14154e-05
16 *202:8 *1152:A1 2.25149e-05
17 *251:8 *308:34 8.15327e-05
*RES
1 *1308:X *308:4 23 
2 *308:4 *308:8 9.69429 
3 *308:8 *1155:A1 23.4971 
4 *308:8 *1152:A1 28.9243 
5 *308:4 *308:34 32.61 
6 *308:34 *1145:A 23 
*END

*D_NET *309 0.00210265
*CONN
*I *1094:A I *D sky130_fd_sc_hd__nor2_1
*I *1092:A I *D sky130_fd_sc_hd__nand2_1
*I *1309:X O *D sky130_fd_sc_hd__clkbuf_1
*CAP
1 *1094:A 0
2 *1092:A 7.76402e-05
3 *1309:X 0.000352245
4 *309:21 0.000195221
5 *309:6 0.000625106
6 *1092:A *321:12 1.94693e-05
7 *309:6 *321:12 0.000171123
8 *309:21 *345:29 0
9 *309:21 *345:46 0.00027897
10 *1093:A *1092:A 0
11 *36:15 *309:6 0.000269775
12 *269:10 *309:21 5.80963e-05
13 *306:10 *309:6 5.50049e-05
*RES
1 *1309:X *309:6 30.7679 
2 *309:6 *1092:A 24.4707 
3 *309:6 *309:21 35.075 
4 *309:21 *1094:A 23 
*END

*D_NET *310 0.00264316
*CONN
*I *1168:A I *D sky130_fd_sc_hd__nand2_1
*I *1169:A I *D sky130_fd_sc_hd__or2_1
*I *1310:X O *D sky130_fd_sc_hd__clkbuf_1
*CAP
1 *1168:A 3.25721e-05
2 *1169:A 4.96069e-05
3 *1310:X 4.25104e-05
4 *310:14 0.000897528
5 *310:8 0.000857859
6 *310:14 *1168:B 5.50106e-05
7 *310:14 *313:23 0
8 *310:14 *346:25 0
9 *1175:A *310:14 0.000226437
10 *1287:CLK *1169:A 5.41385e-05
11 *1287:CLK *310:14 4.04206e-05
12 *210:10 *310:8 5.50049e-05
13 *210:10 *310:14 0.000180401
14 *215:6 *1169:A 0.000138444
15 *215:6 *310:14 1.32314e-05
16 *222:14 *310:14 0
*RES
1 *1310:X *310:8 38.6214 
2 *310:8 *310:14 32.2136 
3 *310:14 *1169:A 24.5743 
4 *310:14 *1168:A 23.4971 
*END

*D_NET *311 0.00241003
*CONN
*I *1158:A I *D sky130_fd_sc_hd__or2_1
*I *1157:A I *D sky130_fd_sc_hd__nand2_1
*I *1311:X O *D sky130_fd_sc_hd__clkbuf_1
*CAP
1 *1158:A 0
2 *1157:A 0.000169826
3 *1311:X 0.000595825
4 *311:12 0.000182613
5 *311:8 0.000608612
6 *1157:A *347:34 5.93167e-05
7 *311:8 *347:34 3.36312e-06
8 *311:8 *370:83 0
9 *1166:A *1157:A 0.000205707
10 *1166:A *311:12 5.56279e-05
11 *1208:A2 *1157:A 5.50049e-05
12 *204:6 *1157:A 3.22051e-05
13 *204:19 *1157:A 8.53131e-05
14 *204:38 *311:8 0.000100029
15 *205:8 *1157:A 0.000178592
16 *205:8 *311:12 2.46906e-05
17 *205:20 *1157:A 5.3304e-05
*RES
1 *1311:X *311:8 48.3571 
2 *311:8 *311:12 15.6214 
3 *311:12 *1157:A 29.525 
4 *311:12 *1158:A 23 
*END

*D_NET *312 0.000914295
*CONN
*I *1161:A I *D sky130_fd_sc_hd__nand2_1
*I *1160:A I *D sky130_fd_sc_hd__or2_1
*I *1312:X O *D sky130_fd_sc_hd__clkbuf_1
*CAP
1 *1161:A 0
2 *1160:A 0.000180767
3 *1312:X 0.00018333
4 *312:12 0.000180767
5 *312:10 0.00018333
6 *1160:A *1161:B 3.04516e-05
7 *1160:A *348:8 5.70419e-05
8 *312:10 *346:25 0
9 *312:10 *348:14 4.90994e-05
10 *304:62 *312:10 0
11 *304:64 *1160:A 4.95081e-05
*RES
1 *1312:X *312:10 40.8793 
2 *312:10 *312:12 15 
3 *312:12 *1160:A 27.1636 
4 *312:12 *1161:A 23 
*END

*D_NET *313 0.00111166
*CONN
*I *1164:A I *D sky130_fd_sc_hd__or2_1
*I *1163:A I *D sky130_fd_sc_hd__nand2_1
*I *1313:X O *D sky130_fd_sc_hd__clkbuf_1
*CAP
1 *1164:A 0
2 *1163:A 5.39914e-05
3 *1313:X 8.37701e-05
4 *313:23 0.000216348
5 *313:8 0.00035411
6 *1163:A *1044:A 0
7 *1163:A *1163:B 3.52815e-05
8 *313:8 *1044:A 6.81213e-05
9 *313:8 *1163:B 4.66047e-05
10 *313:23 *1044:A 0
11 *313:23 *346:25 0
12 *313:23 *349:12 8.15327e-05
13 *92:8 *313:23 0.000171906
14 *210:10 *313:23 0
15 *310:14 *313:23 0
*RES
1 *1313:X *313:8 25.0714 
2 *313:8 *1163:A 24.1186 
3 *313:8 *313:23 35.075 
4 *313:23 *1164:A 23 
*END

*D_NET *314 0.00371262
*CONN
*I *1072:A I *D sky130_fd_sc_hd__or2_1
*I *1071:A I *D sky130_fd_sc_hd__nand2_1
*I *1314:X O *D sky130_fd_sc_hd__clkbuf_1
*CAP
1 *1072:A 0
2 *1071:A 2.93734e-05
3 *1314:X 0.000196431
4 *314:16 0.000920632
5 *314:8 0.00108769
6 *1071:A *1071:B 7.27085e-05
7 *1071:A *1072:B 9.84794e-05
8 *314:16 *1071:B 9.67842e-05
9 *314:16 *1072:B 2.02872e-05
10 *314:16 *351:27 1.58805e-05
11 *314:16 *351:42 0.000382405
12 *1064:B *314:16 0.000141888
13 *1073:A *314:16 0
14 *1073:B *314:16 5.50106e-05
15 *1178:A3 *314:16 0
16 *1201:A2 *314:16 0
17 *1203:A *314:16 0
18 *19:10 *314:8 8.91468e-07
19 *109:10 *314:16 0
20 *110:8 *314:16 0
21 *110:27 *314:16 0.000490604
22 *111:10 *314:16 0
23 *118:8 *314:16 4.5051e-05
24 *120:10 *1071:A 3.04516e-05
25 *120:10 *314:16 2.80512e-05
26 *224:22 *314:16 0
*RES
1 *1314:X *314:8 40.5271 
2 *314:8 *314:16 36.3564 
3 *314:16 *1071:A 24.5743 
4 *314:16 *1072:A 23 
*END

*D_NET *315 0.00217489
*CONN
*I *1057:A I *D sky130_fd_sc_hd__nand2_1
*I *1058:A I *D sky130_fd_sc_hd__or2_1
*I *1315:X O *D sky130_fd_sc_hd__clkbuf_1
*CAP
1 *1057:A 0.000319594
2 *1058:A 0.000104374
3 *1315:X 0.000371318
4 *315:8 0.000795287
5 *1057:A *1057:B 7.33848e-06
6 *1057:A *1058:B 6.9805e-05
7 *1058:A *1356:A 0
8 *1058:A *370:118 1.21668e-05
9 *315:8 *1356:A 0
10 *315:8 *351:42 0
11 *315:8 *370:118 0
12 *1059:A *1058:A 2.76611e-06
13 *1065:A *1057:A 0.000140259
14 *95:10 *315:8 0.000116314
15 *104:8 *1057:A 0.000119287
16 *104:21 *1058:A 1.62015e-05
17 *241:10 *1057:A 0.00010018
*RES
1 *1315:X *315:8 45.1879 
2 *315:8 *1058:A 39.2014 
3 *315:8 *1057:A 45.2811 
*END

*D_NET *316 0.00138023
*CONN
*I *1067:B1 I *D sky130_fd_sc_hd__o211a_1
*I *1061:A I *D sky130_fd_sc_hd__nand2_1
*I *1062:A I *D sky130_fd_sc_hd__or2_1
*I *1316:X O *D sky130_fd_sc_hd__buf_1
*CAP
1 *1067:B1 0.000172406
2 *1061:A 0
3 *1062:A 4.6409e-05
4 *1316:X 0.000128574
5 *316:14 0.000138173
6 *316:10 0.00026417
7 *316:8 0.000128574
8 *1062:A *353:8 0.00010018
9 *1062:A *353:17 5.67058e-05
10 *1067:B1 *1060:A 4.26495e-05
11 *1067:B1 *353:32 5.69383e-05
12 *1067:B1 *354:12 5.50106e-05
13 *316:8 *318:10 4.23817e-05
14 *316:14 *353:17 4.7881e-05
15 *316:14 *353:32 0.00010018
*RES
1 *1316:X *316:8 39.9057 
2 *316:8 *316:10 15 
3 *316:10 *316:14 2.54786 
4 *316:14 *1062:A 24.5743 
5 *316:14 *1061:A 23 
6 *316:10 *1067:B1 26.8891 
*END

*D_NET *317 0.000923345
*CONN
*I *1079:A I *D sky130_fd_sc_hd__or2_1
*I *1078:A I *D sky130_fd_sc_hd__nand2_1
*I *1317:X O *D sky130_fd_sc_hd__clkbuf_1
*CAP
1 *1079:A 0.000146349
2 *1078:A 0
3 *1317:X 0.000137523
4 *317:12 0.000146349
5 *317:10 0.000137523
6 *1079:A *1074:B 3.91386e-05
7 *1079:A *1078:B 5.50106e-05
8 *1079:A *334:8 1.96691e-05
9 *1079:A *368:100 5.50049e-05
10 *317:10 *1074:A 4.98718e-06
11 *317:10 *328:10 2.5415e-05
12 *317:10 *334:14 5.26101e-05
13 *1317:A *317:10 1.94812e-05
14 *125:6 *1079:A 1.94693e-05
15 *125:14 *317:10 6.48142e-05
*RES
1 *1317:X *317:10 40.8793 
2 *317:10 *317:12 15 
3 *317:12 *1078:A 23 
4 *317:12 *1079:A 26.0243 
*END

*D_NET *318 0.00199296
*CONN
*I *1067:A1 I *D sky130_fd_sc_hd__o211a_1
*I *1060:A I *D sky130_fd_sc_hd__xnor2_1
*I *1068:A1 I *D sky130_fd_sc_hd__a211o_1
*I *1318:X O *D sky130_fd_sc_hd__buf_1
*CAP
1 *1067:A1 0
2 *1060:A 0.000169477
3 *1068:A1 0.000121563
4 *1318:X 0.000265704
5 *318:21 0.000169477
6 *318:10 0.000387267
7 *1060:A *353:32 0.000220264
8 *1060:A *354:12 0.000106618
9 *1068:A1 *1068:A2 0.000190227
10 *318:10 *1068:A2 1.14452e-05
11 *318:10 *1357:A 3.7122e-06
12 *318:10 *354:12 8.02348e-05
13 *1067:B1 *1060:A 4.26495e-05
14 *1289:D *1060:A 9.84851e-05
15 *107:10 *1060:A 3.50723e-05
16 *114:8 *1068:A1 4.83778e-05
17 *316:8 *318:10 4.23817e-05
*RES
1 *1318:X *318:10 42.3086 
2 *318:10 *1068:A1 40.61 
3 *318:10 *318:21 15 
4 *318:21 *1060:A 28.5721 
5 *318:21 *1067:A1 23 
*END

*D_NET *319 0.00269011
*CONN
*I *1054:A I *D sky130_fd_sc_hd__nand2_1
*I *1055:A I *D sky130_fd_sc_hd__or2_1
*I *1319:X O *D sky130_fd_sc_hd__clkbuf_1
*CAP
1 *1054:A 1.17411e-05
2 *1055:A 6.86633e-05
3 *1319:X 0.0001572
4 *319:14 0.000502038
5 *319:10 0.000578834
6 *1054:A *355:44 0
7 *1055:A *1055:B 2.02517e-05
8 *1055:A *355:25 0.000271476
9 *319:10 *332:28 0.000139647
10 *319:10 *371:14 4.58924e-05
11 *319:14 *355:25 8.52481e-05
12 *319:14 *355:44 0.000583935
13 *1056:B *1055:A 5.50049e-05
14 *305:82 *1055:A 0.000122226
15 *305:82 *319:14 4.79544e-05
*RES
1 *1319:X *319:10 41.0036 
2 *319:10 *319:14 25.6264 
3 *319:14 *1055:A 26.5007 
4 *319:14 *1054:A 23.4971 
*END

*D_NET *320 0.00104798
*CONN
*I *1182:A I *D sky130_fd_sc_hd__nand2_1
*I *1181:A I *D sky130_fd_sc_hd__nor2_1
*I *1320:X O *D sky130_fd_sc_hd__clkbuf_1
*CAP
1 *1182:A 0.000189192
2 *1181:A 0
3 *1320:X 0.000209996
4 *320:12 0.000189192
5 *320:10 0.000209996
6 *1182:A *1182:B 9.58714e-05
7 *1182:A *1360:A 6.52863e-05
8 *320:10 *332:28 3.96156e-05
9 *320:10 *356:8 4.6318e-06
10 *1320:A *320:10 0
11 *227:10 *1182:A 3.17634e-05
12 *228:6 *1182:A 1.24376e-05
*RES
1 *1320:X *320:10 41.0036 
2 *320:10 *320:12 15 
3 *320:12 *1181:A 23 
4 *320:12 *1182:A 26.9979 
*END

*D_NET *321 0.00244861
*CONN
*I *1091:A I *D sky130_fd_sc_hd__nor2_1
*I *1090:A I *D sky130_fd_sc_hd__and2_1
*I *1321:X O *D sky130_fd_sc_hd__clkbuf_1
*CAP
1 *1091:A 1.31028e-05
2 *1090:A 9.57773e-05
3 *1321:X 9.0976e-05
4 *321:12 0.000823937
5 *321:8 0.000806033
6 *1090:A *1091:B 5.51187e-05
7 *1091:A *1091:B 5.90675e-06
8 *321:8 *371:48 0
9 *1092:A *321:12 1.94693e-05
10 *1321:A *321:8 1.27424e-05
11 *36:15 *321:12 0.000148688
12 *139:6 *321:12 0.000102093
13 *139:14 *321:12 0.000103647
14 *309:6 *321:12 0.000171123
*RES
1 *1321:X *321:8 39.5536 
2 *321:8 *321:12 29.4379 
3 *321:12 *1090:A 25.0714 
4 *321:12 *1091:A 23.4971 
*END

*D_NET *322 0.00103308
*CONN
*I *1187:A I *D sky130_fd_sc_hd__nand2_1
*I *1186:A I *D sky130_fd_sc_hd__nor2_1
*I *1322:X O *D sky130_fd_sc_hd__clkbuf_1
*CAP
1 *1187:A 0
2 *1186:A 0.000149817
3 *1322:X 0.000160355
4 *322:12 0.000149817
5 *322:10 0.000160355
6 *1186:A *1186:B 5.50049e-05
7 *322:10 *332:28 0.000168754
8 *322:10 *355:44 5.80738e-05
9 *322:10 *358:10 6.07611e-06
10 *231:6 *1186:A 6.98147e-05
11 *232:6 *1186:A 5.50106e-05
*RES
1 *1322:X *322:10 40.8793 
2 *322:10 *322:12 15 
3 *322:12 *1186:A 26.5214 
4 *322:12 *1187:A 23 
*END

*D_NET *323 0.0012065
*CONN
*I *1194:A I *D sky130_fd_sc_hd__xnor2_1
*I *1323:X O *D sky130_fd_sc_hd__clkbuf_1
*CAP
1 *1194:A 0
2 *1323:X 0.000220537
3 *323:8 0.000220537
4 *323:8 *1194:B 0.000280856
5 *323:8 *1363:A 0.000169674
6 *323:8 *355:44 6.67764e-05
7 acc[31] *323:8 0.000182642
8 *1323:A *323:8 6.54744e-05
*RES
1 *1323:X *323:8 45.54 
2 *323:8 *1194:A 38 
*END

*D_NET *324 0.00526836
*CONN
*I *1099:A1 I *D sky130_fd_sc_hd__a21o_1
*I *1114:A1 I *D sky130_fd_sc_hd__o221ai_4
*I *1100:A I *D sky130_fd_sc_hd__xor2_1
*I *1101:A1 I *D sky130_fd_sc_hd__o22ai_1
*I *1324:X O *D sky130_fd_sc_hd__clkbuf_2
*CAP
1 *1099:A1 0
2 *1114:A1 0
3 *1100:A 0.00038041
4 *1101:A1 0
5 *1324:X 0.00082676
6 *324:43 0.000248404
7 *324:14 0.000545253
8 *324:8 0.00034535
9 *324:6 0.00125567
10 *1100:A *1100:B 0.000141954
11 *1100:A *360:49 6.70363e-05
12 *324:6 *360:18 0.000396228
13 *324:6 *360:43 1.59094e-05
14 *324:8 *360:43 0.000177627
15 *324:14 *360:43 5.67058e-05
16 *324:14 *360:49 0.000199701
17 *324:43 *1100:B 8.33866e-05
18 *324:43 *360:43 0.000299187
19 *1099:B1 *324:43 6.07611e-06
20 *1114:B1 *324:43 0
21 *1114:B2 *324:8 5.41385e-05
22 *1114:B2 *324:43 0
23 *1265:CLK *1100:A 0
24 *145:12 *324:43 0
25 *146:8 *324:43 0
26 *157:16 *324:6 0.000109137
27 *159:30 *324:43 2.24048e-05
28 *160:10 *324:43 3.70187e-05
29 *303:14 *1100:A 0
30 *303:14 *324:14 0
31 *303:14 *324:43 0
*RES
1 *1324:X *324:6 39.82 
2 *324:6 *324:8 4.43286 
3 *324:8 *324:14 19.06 
4 *324:14 *1101:A1 38 
5 *324:14 *1100:A 45.83 
6 *324:8 *1114:A1 23 
7 *324:6 *324:43 36.1314 
8 *324:43 *1099:A1 23 
*END

*D_NET *325 0.0006533
*CONN
*I *1110:A I *D sky130_fd_sc_hd__nand2_1
*I *1111:A I *D sky130_fd_sc_hd__or2_1
*I *1325:X O *D sky130_fd_sc_hd__clkbuf_1
*CAP
1 *1110:A 0
2 *1111:A 3.02557e-05
3 *1325:X 0.000124795
4 *325:10 3.02557e-05
5 *325:8 0.000124795
6 *1111:A *1110:B 5.50106e-05
7 *1111:A *362:14 9.84794e-05
8 *325:8 *362:10 0
9 *1324:A *325:8 4.77554e-05
10 *157:8 *1111:A 0.000141954
*RES
1 *1325:X *325:8 40.2579 
2 *325:8 *325:10 15 
3 *325:10 *1111:A 24.5743 
4 *325:10 *1110:A 23 
*END

*D_NET *326 0.00142269
*CONN
*I *1108:A I *D sky130_fd_sc_hd__or2_1
*I *1107:A I *D sky130_fd_sc_hd__nand2_1
*I *1326:X O *D sky130_fd_sc_hd__clkbuf_1
*CAP
1 *1108:A 0
2 *1107:A 0.00028953
3 *1326:X 0.000164783
4 *326:14 0.000454313
5 *1107:A *1364:A 6.28695e-05
6 *1107:A *1366:A 0.000203078
7 *1107:A *369:66 4.67269e-05
8 *326:14 *1364:A 1.62615e-05
9 acc[5] *1107:A 8.61037e-06
10 *1109:B *326:14 6.17437e-06
11 *1326:A *326:14 2.24608e-05
12 *154:6 *1107:A 5.67058e-05
13 *154:10 *1107:A 1.14154e-05
14 *155:8 *326:14 7.97587e-05
*RES
1 *1326:X *326:14 41.2936 
2 *326:14 *1107:A 44.4629 
3 *326:14 *1108:A 38 
*END

*D_NET *327 0.00150528
*CONN
*I *1115:A1 I *D sky130_fd_sc_hd__a21oi_1
*I *1245:A1 I *D sky130_fd_sc_hd__a21oi_1
*I *1102:A I *D sky130_fd_sc_hd__xnor2_1
*I *1327:X O *D sky130_fd_sc_hd__buf_1
*CAP
1 *1115:A1 0.000192149
2 *1245:A1 0
3 *1102:A 0.000136355
4 *1327:X 0.000156386
5 *327:10 0.000136355
6 *327:8 0.000348535
7 *1102:A *1245:A2 0.00014196
8 *1102:A *364:20 0.000109895
9 *1115:A1 *364:14 0
10 *327:8 *1367:A 0
11 *1115:B1 *1115:A1 5.50049e-05
12 *149:8 *1115:A1 4.08537e-05
13 *263:12 *1115:A1 4.5051e-05
14 *263:18 *1115:A1 6.6869e-05
15 *263:18 *327:8 6.07611e-06
16 *303:55 *1102:A 6.97953e-05
*RES
1 *1327:X *327:8 40.2579 
2 *327:8 *327:10 15 
3 *327:10 *1102:A 26.9979 
4 *327:10 *1245:A1 23 
5 *327:8 *1115:A1 41.48 
*END

*D_NET *328 0.00180567
*CONN
*I *1075:A I *D sky130_fd_sc_hd__nor2_1
*I *1074:A I *D sky130_fd_sc_hd__nand2_1
*I *1076:A I *D sky130_fd_sc_hd__or2_1
*I *1328:X O *D sky130_fd_sc_hd__clkbuf_1
*CAP
1 *1075:A 0.000174836
2 *1074:A 4.13132e-05
3 *1076:A 0.000365809
4 *1328:X 0
5 *328:10 0.000518826
6 *328:4 0.000286541
7 *1074:A *335:31 0
8 *1075:A *1075:B 5.3304e-05
9 *1075:A *1341:A 3.61695e-05
10 *1076:A *1081:A 0
11 *1076:A *335:16 7.96152e-06
12 *1086:A1 *1076:A 2.18409e-05
13 *1086:A2 *1076:A 9.84851e-05
14 *1086:B1 *1076:A 2.71422e-05
15 *1317:A *328:10 5.37348e-06
16 *122:10 *1074:A 1.86973e-05
17 *122:10 *1075:A 3.22879e-05
18 *122:10 *328:10 2.29192e-05
19 *125:14 *1074:A 3.3123e-05
20 *133:10 *1076:A 3.06338e-05
21 *317:10 *1074:A 4.98718e-06
22 *317:10 *328:10 2.5415e-05
*RES
1 *1328:X *328:4 23 
2 *328:4 *328:10 16.8229 
3 *328:10 *1076:A 43.6343 
4 *328:10 *1074:A 39.2014 
5 *328:4 *1075:A 26.8736 
*END

*D_NET *329 0.000962396
*CONN
*I *1103:A I *D sky130_fd_sc_hd__and2_1
*I *1104:A I *D sky130_fd_sc_hd__nor2_1
*I *1329:X O *D sky130_fd_sc_hd__clkbuf_1
*CAP
1 *1103:A 8.44339e-05
2 *1104:A 0
3 *1329:X 0.000340909
4 *329:8 0.000425342
5 *1103:A *1103:B 5.50049e-05
6 *151:6 *1103:A 5.67058e-05
*RES
1 *1329:X *329:8 29.235 
2 *329:8 *1104:A 23 
3 *329:8 *1103:A 25.0714 
*END

*D_NET *330 0.00159296
*CONN
*I *1087:A I *D sky130_fd_sc_hd__nand2_1
*I *1088:A I *D sky130_fd_sc_hd__or2_1
*I *1330:X O *D sky130_fd_sc_hd__clkbuf_1
*CAP
1 *1087:A 0
2 *1088:A 9.29914e-05
3 *1330:X 0.000321987
4 *330:10 9.29914e-05
5 *330:8 0.000321987
6 *1088:A *1088:B 5.50049e-05
7 *330:8 *366:29 0.00039301
8 *330:8 *368:138 0.000314985
*RES
1 *1330:X *330:8 48.3571 
2 *330:8 *330:10 15 
3 *330:10 *1088:A 24.5743 
4 *330:10 *1087:A 23 
*END

*D_NET *331 0.00157501
*CONN
*I *1081:A I *D sky130_fd_sc_hd__nand2_1
*I *1082:A I *D sky130_fd_sc_hd__or2_1
*I *1331:X O *D sky130_fd_sc_hd__clkbuf_1
*CAP
1 *1081:A 0.000344291
2 *1082:A 0.000160531
3 *1331:X 4.99221e-05
4 *331:8 0.000554744
5 *1081:A *1081:B 6.07084e-05
6 *1081:A *335:16 0
7 *1081:A *367:25 9.7083e-05
8 *1082:A *336:51 0
9 *1082:A *367:25 8.12631e-05
10 acc[12] *1082:A 2.95125e-05
11 *1076:A *1081:A 0
12 *1331:A *1082:A 0.000143655
13 *6:8 *331:8 5.3304e-05
14 *129:10 *1081:A 0
*RES
1 *1331:X *331:8 38.6214 
2 *331:8 *1082:A 41.6043 
3 *331:8 *1081:A 44.4007 
*END

*D_NET *332 0.00952176
*CONN
*I *1304:A I *D sky130_fd_sc_hd__buf_4
*I *1305:A I *D sky130_fd_sc_hd__buf_2
*I *1302:A I *D sky130_fd_sc_hd__buf_4
*I *1303:A I *D sky130_fd_sc_hd__buf_2
*I *1332:X O *D sky130_fd_sc_hd__buf_1
*CAP
1 *1304:A 0.000350365
2 *1305:A 0
3 *1302:A 6.22175e-05
4 *1303:A 0
5 *1332:X 0.000228589
6 *332:38 0.000284888
7 *332:32 0.000423271
8 *332:28 0.00188864
9 *332:10 0.00207586
10 *332:6 0.000842339
11 *332:10 *354:41 0
12 *332:10 *355:44 0
13 *332:28 *333:14 0
14 *332:28 *345:29 0
15 *332:28 *355:44 0.000239589
16 *332:28 *356:8 0.000166522
17 *332:28 *358:10 4.06512e-05
18 *332:28 *371:8 0.000100291
19 *332:28 *371:10 6.79785e-05
20 *332:28 *371:14 0.000125576
21 *332:28 *371:48 0.000647913
22 *332:32 *368:8 0.00010018
23 acc[0] *332:28 0
24 acc[29] *332:28 0
25 *1096:A *332:28 0.000274534
26 *1309:A *332:28 0
27 *1319:A *332:28 3.46181e-05
28 *1320:A *332:28 0
29 *1325:A *332:38 2.90878e-05
30 *1332:A *332:10 0
31 *14:12 *332:28 6.48049e-05
32 *14:12 *332:38 0
33 *22:8 *1304:A 4.06849e-05
34 *36:15 *332:28 9.11986e-05
35 *69:8 *332:28 0.000199701
36 *70:10 *332:38 6.70723e-05
37 *73:8 *332:38 0
38 *99:10 *332:28 5.56203e-05
39 *100:8 *332:28 3.81391e-05
40 *238:8 *332:28 0.0003055
41 *306:10 *332:28 0.000327903
42 *319:10 *332:28 0.000139647
43 *320:10 *332:28 3.96156e-05
44 *322:10 *332:28 0.000168754
*RES
1 *1332:X *332:6 26.0036 
2 *332:6 *332:10 19.7229 
3 *332:10 *332:28 48.285 
4 *332:28 *332:32 16.5743 
5 *332:32 *332:38 35.7793 
6 *332:38 *1303:A 23 
7 *332:32 *1302:A 24.0979 
8 *332:10 *1305:A 38 
9 *332:6 *1304:A 29.7321 
*END

*D_NET *333 0.00105237
*CONN
*I *1252:B I *D sky130_fd_sc_hd__or2_1
*I *1339:A I *D sky130_fd_sc_hd__buf_2
*I *1096:B I *D sky130_fd_sc_hd__nand2_1
*I *1262:Q O *D sky130_fd_sc_hd__dfrtp_1
*CAP
1 *1252:B 7.27021e-05
2 *1339:A 0
3 *1096:B 5.90989e-05
4 *1262:Q 9.26439e-05
5 *333:14 0.000360838
6 *333:8 0.000467085
7 *36:15 *333:8 0
8 *332:28 *333:14 0
*RES
1 *1262:Q *333:8 39.5536 
2 *333:8 *333:14 20.2407 
3 *333:14 *1096:B 24.0979 
4 *333:14 *1339:A 23 
5 *333:8 *1252:B 39.0979 
*END

*D_NET *334 0.00166083
*CONN
*I *1078:B I *D sky130_fd_sc_hd__nand2_1
*I *1079:B I *D sky130_fd_sc_hd__or2_1
*I *1340:A I *D sky130_fd_sc_hd__buf_2
*I *1272:Q O *D sky130_fd_sc_hd__dfrtp_1
*CAP
1 *1078:B 2.34074e-05
2 *1079:B 0
3 *1340:A 0
4 *1272:Q 0.000296439
5 *334:14 0.000194655
6 *334:8 0.000514502
7 *334:8 *368:100 0.000402806
8 *334:14 *368:100 1.01436e-05
9 *334:14 *368:110 0
10 *1079:A *1078:B 5.50106e-05
11 *1079:A *334:8 1.96691e-05
12 *1272:RESET_B *334:8 7.88828e-05
13 *1317:A *334:14 4.21594e-06
14 *302:22 *334:8 8.48502e-06
15 *317:10 *334:14 5.26101e-05
*RES
1 *1272:Q *334:8 30.3121 
2 *334:8 *334:14 33.3143 
3 *334:14 *1340:A 23 
4 *334:8 *1079:B 23 
5 *334:8 *1078:B 23.6214 
*END

*D_NET *335 0.00468932
*CONN
*I *1076:B I *D sky130_fd_sc_hd__or2_1
*I *1341:A I *D sky130_fd_sc_hd__buf_2
*I *1075:B I *D sky130_fd_sc_hd__nor2_1
*I *1074:B I *D sky130_fd_sc_hd__nand2_1
*I *1273:Q O *D sky130_fd_sc_hd__dfrtp_1
*CAP
1 *1076:B 3.47015e-05
2 *1341:A 0.000216582
3 *1075:B 2.95221e-05
4 *1074:B 0.000266693
5 *1273:Q 0.00021687
6 *335:31 0.000492597
7 *335:16 0.000725921
8 *335:12 0.000672738
9 *335:8 0.000642171
10 acc[11] *1341:A 5.50106e-05
11 *1074:A *335:31 0
12 *1075:A *1075:B 5.3304e-05
13 *1075:A *1341:A 3.61695e-05
14 *1076:A *335:16 7.96152e-06
15 *1079:A *1074:B 3.91386e-05
16 *1081:A *335:16 0
17 *1085:C *335:12 0
18 *1086:A2 *1074:B 9.8971e-06
19 *1086:B1 *1074:B 9.67842e-05
20 *1086:B1 *335:16 0
21 *1120:A2 *335:8 6.17437e-06
22 *1328:A *335:31 1.01436e-05
23 *121:6 *1074:B 0.000185428
24 *121:12 *335:31 1.58805e-05
25 *122:10 *335:31 6.4393e-05
26 *123:8 *335:31 4.08537e-05
27 *125:6 *1074:B 2.45549e-06
28 *125:14 *335:31 0
29 *128:8 *335:12 0
30 *131:10 *335:12 0.000300098
31 *133:10 *335:12 0.000365245
32 *133:10 *335:16 9.58714e-05
33 *167:10 *335:8 6.71408e-06
*RES
1 *1273:Q *335:8 40.5271 
2 *335:8 *335:12 25.005 
3 *335:12 *335:16 3.02429 
4 *335:16 *1074:B 27.3293 
5 *335:16 *335:31 34.0186 
6 *335:31 *1075:B 23.6214 
7 *335:31 *1341:A 27.4743 
8 *335:12 *1076:B 23.6214 
*END

*D_NET *336 0.00819352
*CONN
*I *1342:A I *D sky130_fd_sc_hd__buf_2
*I *1139:A2 I *D sky130_fd_sc_hd__a31o_1
*I *1134:B I *D sky130_fd_sc_hd__nand2_1
*I *1135:B I *D sky130_fd_sc_hd__or2_1
*I *1274:Q O *D sky130_fd_sc_hd__dfrtp_1
*CAP
1 *1342:A 0
2 *1139:A2 0.000146804
3 *1134:B 0
4 *1135:B 0.000239168
5 *1274:Q 0
6 *336:51 0.00189333
7 *336:29 0.000189132
8 *336:10 0.00132848
9 *336:4 0.00294032
10 *1135:B *339:18 5.50049e-05
11 *1139:A2 *1139:A1 1.76557e-05
12 *1082:A *336:51 0
13 *1136:A *1135:B 8.06532e-05
14 *1136:A *336:10 1.69668e-05
15 *1137:B1 *1139:A2 0.000126262
16 *1137:B1 *336:29 9.84794e-05
17 *1221:B *336:10 0.00012692
18 *1222:A2 *336:10 5.3304e-05
19 *1222:B1_N *336:10 2.54046e-05
20 *1228:C *336:51 0
21 *1230:B *336:51 0
22 *1232:A2 *336:51 0
23 *1274:D *336:10 6.70017e-05
24 *1274:RESET_B *336:10 4.83893e-05
25 *1331:A *336:51 4.6318e-06
26 *129:10 *336:51 0.000117249
27 *135:8 *336:51 0
28 *136:8 *336:51 0
29 *164:10 *336:51 0
30 *183:10 *1135:B 0.000167994
31 *183:10 *336:10 1.01436e-05
32 *183:21 *336:10 0.000129504
33 *186:8 *1139:A2 0.000141052
34 *255:10 *336:51 0.000169665
35 *256:8 *336:51 0
36 *278:10 *336:51 0
37 *302:16 *1135:B 0
*RES
1 *1274:Q *336:4 23 
2 *336:4 *336:10 29.9143 
3 *336:10 *1135:B 43.655 
4 *336:10 *336:29 16.0979 
5 *336:29 *1134:B 23 
6 *336:29 *1139:A2 26.9979 
7 *336:4 *336:51 46.175 
8 *336:51 *1342:A 38 
*END

*D_NET *337 0.00308048
*CONN
*I *1343:A I *D sky130_fd_sc_hd__buf_2
*I *1123:B I *D sky130_fd_sc_hd__or2_1
*I *1122:B I *D sky130_fd_sc_hd__nand2_1
*I *1275:Q O *D sky130_fd_sc_hd__dfrtp_1
*CAP
1 *1343:A 0.000344436
2 *1123:B 0
3 *1122:B 9.34777e-05
4 *1275:Q 0.000259798
5 *337:12 0.000223411
6 *337:6 0.000734166
7 *1122:B *1123:A 4.08664e-05
8 *1122:B *350:14 5.50049e-05
9 *1343:A *350:10 0.000530622
10 *1343:A *368:49 0.000171296
11 *1343:A *368:59 5.50106e-05
12 *337:6 *368:49 0.000295273
13 *169:10 *1122:B 5.50106e-05
14 *302:52 *337:12 0.000222113
*RES
1 *1275:Q *337:6 28.8621 
2 *337:6 *337:12 32.9621 
3 *337:12 *1122:B 25.0714 
4 *337:12 *1123:B 23 
5 *337:6 *1343:A 32.2386 
*END

*D_NET *338 0.0022817
*CONN
*I *1126:B I *D sky130_fd_sc_hd__nand2_1
*I *1125:B I *D sky130_fd_sc_hd__or2_1
*I *1344:A I *D sky130_fd_sc_hd__buf_2
*I *1276:Q O *D sky130_fd_sc_hd__dfrtp_1
*CAP
1 *1126:B 0
2 *1125:B 3.01115e-05
3 *1344:A 0.000141069
4 *1276:Q 0.000366859
5 *338:21 0.000543306
6 *338:8 0.00102112
7 *1125:B *1125:A 5.56279e-05
8 *1276:RESET_B *338:8 0.00010108
9 *83:10 *338:21 0
10 *279:10 *338:21 0
11 *302:22 *338:8 2.25208e-05
*RES
1 *1276:Q *338:8 42.9093 
2 *338:8 *1344:A 40.2579 
3 *338:8 *338:21 24.3007 
4 *338:21 *1125:B 23.6214 
5 *338:21 *1126:B 23 
*END

*D_NET *339 0.00372172
*CONN
*I *1135:A I *D sky130_fd_sc_hd__or2_1
*I *1134:A I *D sky130_fd_sc_hd__nand2_1
*I *1139:A1 I *D sky130_fd_sc_hd__a31o_1
*I *1333:X O *D sky130_fd_sc_hd__buf_1
*CAP
1 *1135:A 0
2 *1134:A 4.18011e-05
3 *1139:A1 0.000140384
4 *1333:X 4.88336e-05
5 *339:18 0.000453139
6 *339:12 0.000968808
7 *339:8 0.000746688
8 *339:8 *368:110 2.93747e-05
9 *339:12 *361:8 0
10 *339:12 *368:100 0
11 *339:12 *368:110 0.000166522
12 *1135:B *339:18 5.50049e-05
13 *1136:A *1134:A 6.16531e-05
14 *1136:A *339:18 0.00017475
15 *1136:B *339:18 8.1796e-05
16 *1137:B1 *1139:A1 0.000147861
17 *1139:A2 *1139:A1 1.76557e-05
18 *180:10 *1134:A 4.21594e-06
19 *183:10 *339:18 1.91451e-05
20 *258:10 *339:12 0.000384805
21 *302:16 *339:12 4.92812e-05
22 *302:22 *339:12 0.00013
*RES
1 *1333:X *339:8 38.6214 
2 *339:8 *339:12 30.6393 
3 *339:12 *339:18 20.9657 
4 *339:18 *1139:A1 41.0243 
5 *339:18 *1134:A 38.8493 
6 *339:12 *1135:A 23 
*END

*D_NET *340 0.00193904
*CONN
*I *1129:B I *D sky130_fd_sc_hd__nor2_1
*I *1130:B I *D sky130_fd_sc_hd__or2_1
*I *1128:B I *D sky130_fd_sc_hd__nand2_1
*I *1345:A I *D sky130_fd_sc_hd__buf_2
*I *1277:Q O *D sky130_fd_sc_hd__dfrtp_1
*CAP
1 *1129:B 0.00037763
2 *1130:B 0
3 *1128:B 0
4 *1345:A 0
5 *1277:Q 0.000137664
6 *340:28 0.000475703
7 *340:19 0.000124507
8 *340:12 0.000112008
9 *340:8 0.000223239
10 *1129:B *1129:A 0.000333507
11 *340:28 *1128:A 5.90675e-06
12 *1138:B1 *1129:B 0
13 *1138:C1 *1129:B 3.53115e-05
14 *9:14 *340:12 1.94812e-05
15 *175:6 *1129:B 3.70363e-05
16 *175:6 *340:28 5.70419e-05
*RES
1 *1277:Q *340:8 40.2579 
2 *340:8 *340:12 16.5743 
3 *340:12 *1345:A 23 
4 *340:12 *340:19 0.621429 
5 *340:19 *1128:B 23 
6 *340:19 *340:28 2.07143 
7 *340:28 *1130:B 23 
8 *340:28 *1129:B 29.8771 
*END

*D_NET *341 0.0059629
*CONN
*I *1149:B I *D sky130_fd_sc_hd__or2_1
*I *1346:A I *D sky130_fd_sc_hd__buf_2
*I *1154:A2 I *D sky130_fd_sc_hd__a31o_1
*I *1148:B I *D sky130_fd_sc_hd__nand2_1
*I *1278:Q O *D sky130_fd_sc_hd__dfrtp_1
*CAP
1 *1149:B 0
2 *1346:A 0.00056571
3 *1154:A2 0
4 *1148:B 4.10184e-05
5 *1278:Q 0.00111646
6 *341:40 0.000716158
7 *341:27 0.000154346
8 *341:12 0.00023497
9 *341:10 0.00130651
10 *1148:B *1148:A 5.50049e-05
11 *341:12 *1148:A 5.3304e-05
12 *341:27 *1149:A 3.47781e-05
13 *341:27 *373:12 0.000208809
14 *341:40 *1149:A 0.000165918
15 *1147:A_N *341:27 0
16 *1150:A *1148:B 2.4754e-05
17 *1150:A *341:10 2.93845e-05
18 *1150:A *341:12 2.02872e-05
19 *1153:C *1148:B 2.02517e-05
20 *1153:C *341:27 0
21 *1213:B *341:10 4.5051e-05
22 *1215:A *341:27 0
23 *1216:A *1346:A 0.00010018
24 *1278:D *341:10 8.11598e-05
25 *1278:RESET_B *341:10 0.000137039
26 *193:8 *341:27 0
27 *195:8 *1148:B 1.76557e-05
28 *196:8 *341:40 3.21223e-05
29 *197:6 *341:10 5.40241e-05
30 *197:12 *341:40 0
31 *247:14 *1148:B 0.000143655
32 *247:14 *341:10 0.000343812
33 *247:14 *341:12 8.264e-05
34 *286:10 *1346:A 0.000177899
*RES
1 *1278:Q *341:10 40.4621 
2 *341:10 *341:12 1.09786 
3 *341:12 *1148:B 25.0714 
4 *341:12 *341:27 33.3143 
5 *341:27 *1154:A2 23 
6 *341:10 *341:40 32.8793 
7 *341:40 *1346:A 35.0971 
8 *341:40 *1149:B 23 
*END

*D_NET *342 0.00351032
*CONN
*I *1347:A I *D sky130_fd_sc_hd__buf_2
*I *1217:A2 I *D sky130_fd_sc_hd__a21o_1
*I *1153:B I *D sky130_fd_sc_hd__and3_1
*I *1141:B I *D sky130_fd_sc_hd__xnor2_1
*I *1279:Q O *D sky130_fd_sc_hd__dfrtp_1
*CAP
1 *1347:A 0.000305167
2 *1217:A2 1.55938e-05
3 *1153:B 0
4 *1141:B 0
5 *1279:Q 0.000357034
6 *342:33 0.000395871
7 *342:23 0.000465049
8 *342:19 0.00046214
9 *342:10 0.000460423
10 *1347:A *374:10 5.01986e-05
11 *342:10 *374:10 3.92407e-05
12 *342:19 *374:10 0.000216051
13 *1147:A_N *342:33 9.06643e-05
14 *1153:C *342:33 5.56203e-05
15 *1216:A *342:10 0
16 *1216:A *342:19 0
17 *1217:B1 *1217:A2 5.50106e-05
18 *1217:B1 *342:19 0
19 *1217:B1 *342:33 0.000185434
20 *1337:A *1347:A 2.50347e-05
21 *35:9 *1347:A 0
22 *35:13 *1217:A2 0.00010018
23 *35:13 *342:23 0.00014196
24 *35:13 *342:33 8.96439e-05
25 *189:18 *1347:A 0
26 *250:8 *1347:A 0
*RES
1 *1279:Q *342:10 43.6964 
2 *342:10 *1141:B 38 
3 *342:10 *342:19 2.96214 
4 *342:19 *342:23 16.5743 
5 *342:23 *342:33 38.265 
6 *342:33 *1153:B 23 
7 *342:23 *1217:A2 24.0979 
8 *342:19 *1347:A 43.7793 
*END

*D_NET *343 0.00205832
*CONN
*I *1152:C1 I *D sky130_fd_sc_hd__o211a_1
*I *1143:B I *D sky130_fd_sc_hd__nand2_1
*I *1142:B I *D sky130_fd_sc_hd__or2_1
*I *1348:A I *D sky130_fd_sc_hd__buf_2
*I *1280:Q O *D sky130_fd_sc_hd__dfrtp_1
*CAP
1 *1152:C1 0.000123483
2 *1143:B 0
3 *1142:B 0
4 *1348:A 6.91856e-05
5 *1280:Q 0.000101759
6 *343:18 0.000269203
7 *343:12 0.00059973
8 *343:8 0.000624955
9 *1152:C1 *344:45 4.21594e-06
10 *1143:A *343:18 0.000149562
11 *201:12 *1152:C1 6.0093e-05
12 *201:12 *343:8 5.61311e-05
*RES
1 *1280:Q *343:8 40.2579 
2 *343:8 *343:12 21.815 
3 *343:12 *343:18 4.47429 
4 *343:18 *1348:A 24.0979 
5 *343:18 *1142:B 23 
6 *343:12 *1143:B 23 
7 *343:8 *1152:C1 40.61 
*END

*D_NET *344 0.0036481
*CONN
*I *1152:A2 I *D sky130_fd_sc_hd__o211a_1
*I *1155:A2 I *D sky130_fd_sc_hd__a211oi_1
*I *1145:B I *D sky130_fd_sc_hd__xnor2_1
*I *1349:A I *D sky130_fd_sc_hd__buf_2
*I *1281:Q O *D sky130_fd_sc_hd__dfrtp_1
*CAP
1 *1152:A2 0
2 *1155:A2 0
3 *1145:B 0
4 *1349:A 0
5 *1281:Q 7.2678e-05
6 *344:45 0.000198563
7 *344:34 0.00023418
8 *344:16 0.000232756
9 *344:10 0.000478114
10 *344:8 0.000754148
11 *344:6 0.000545852
12 *1146:B *344:34 4.66036e-05
13 *1146:B *344:45 0
14 *1152:C1 *344:45 4.21594e-06
15 *1220:A *344:34 1.69668e-05
16 *1220:A *344:45 0
17 *35:9 *344:16 0
18 *45:11 *344:16 6.46393e-05
19 *192:8 *344:8 6.9805e-05
20 *192:8 *344:10 0.000272458
21 *251:8 *344:16 0.000249909
22 *304:80 *344:8 0.00015528
23 *304:80 *344:10 7.24365e-05
24 *307:10 *344:34 0
25 *307:14 *344:34 0
26 *308:8 *344:34 0.000140259
27 *308:34 *344:16 3.92407e-05
*RES
1 *1281:Q *344:6 24.0979 
2 *344:6 *344:8 6.33857 
3 *344:8 *344:10 6.33857 
4 *344:10 *344:16 36.1314 
5 *344:16 *1349:A 23 
6 *344:10 *1145:B 23 
7 *344:8 *344:34 34.5364 
8 *344:34 *1155:A2 23 
9 *344:6 *344:45 32.9621 
10 *344:45 *1152:A2 23 
*END

*D_NET *345 0.00363566
*CONN
*I *1092:B I *D sky130_fd_sc_hd__nand2_1
*I *1094:B I *D sky130_fd_sc_hd__nor2_1
*I *1350:A I *D sky130_fd_sc_hd__buf_2
*I *1263:Q O *D sky130_fd_sc_hd__dfrtp_1
*CAP
1 *1092:B 0
2 *1094:B 0
3 *1350:A 0
4 *1263:Q 0.000523687
5 *345:46 0.00025262
6 *345:29 0.00074283
7 *345:10 0.0010139
8 *1096:A *345:29 0
9 *1262:CLK *345:46 0.000188916
10 *14:12 *345:10 0
11 *14:12 *345:29 0
12 *139:14 *345:46 0
13 *140:10 *345:46 0.000139114
14 *141:10 *345:29 5.3304e-05
15 *143:10 *345:29 7.03766e-05
16 *143:14 *345:29 0.000173278
17 *143:14 *345:46 5.50106e-05
18 *269:10 *345:29 0.000143655
19 *270:10 *345:10 0
20 *270:10 *345:29 0
21 *309:21 *345:29 0
22 *309:21 *345:46 0.00027897
23 *332:28 *345:29 0
*RES
1 *1263:Q *345:10 45.1671 
2 *345:10 *1350:A 38 
3 *345:10 *345:29 26.3514 
4 *345:29 *1094:B 23 
5 *345:29 *345:46 37.6436 
6 *345:46 *1092:B 23 
*END

*D_NET *346 0.00431195
*CONN
*I *1168:B I *D sky130_fd_sc_hd__nand2_1
*I *1351:A I *D sky130_fd_sc_hd__buf_2
*I *1169:B I *D sky130_fd_sc_hd__or2_1
*I *1282:Q O *D sky130_fd_sc_hd__dfrtp_1
*CAP
1 *1168:B 1.49804e-05
2 *1351:A 0
3 *1169:B 0
4 *1282:Q 0.000441712
5 *346:25 0.000608831
6 *346:12 0.000687732
7 *346:10 0.000535593
8 *1175:A *346:25 4.70682e-05
9 *1282:RESET_B *346:10 4.19048e-05
10 *1287:CLK *1168:B 5.50106e-05
11 *1312:A *346:25 0
12 *210:10 *346:25 0.000191557
13 *218:6 *346:10 7.83309e-07
14 *218:14 *346:10 0
15 *220:8 *346:25 0.000353849
16 *304:18 *346:10 7.07154e-05
17 *304:38 *346:10 5.86165e-05
18 *304:47 *346:10 7.66085e-05
19 *304:62 *346:10 7.76364e-06
20 *304:62 *346:25 0.00106421
21 *310:14 *1168:B 5.50106e-05
22 *310:14 *346:25 0
23 *312:10 *346:25 0
24 *313:23 *346:25 0
*RES
1 *1282:Q *346:10 47.4664 
2 *346:10 *346:12 1.09786 
3 *346:12 *1169:B 38 
4 *346:12 *346:25 32.6693 
5 *346:25 *1351:A 23 
6 *346:10 *1168:B 38.6214 
*END

*D_NET *347 0.00349195
*CONN
*I *1158:B I *D sky130_fd_sc_hd__or2_1
*I *1157:B I *D sky130_fd_sc_hd__nand2_1
*I *1352:A I *D sky130_fd_sc_hd__buf_2
*I *1283:Q O *D sky130_fd_sc_hd__dfrtp_1
*CAP
1 *1158:B 0
2 *1157:B 5.67488e-05
3 *1352:A 0
4 *1283:Q 0
5 *347:34 0.000470909
6 *347:19 0.00135122
7 *347:12 0.000248368
8 *347:4 0.00107193
9 *1157:A *347:34 5.93167e-05
10 *1208:A2 *347:34 2.50756e-05
11 *35:9 *347:12 0
12 *205:8 *1157:B 0
13 *205:8 *347:34 0.000182087
14 *205:20 *347:34 2.29272e-05
15 *311:8 *347:34 3.36312e-06
*RES
1 *1283:Q *347:4 23 
2 *347:4 *347:12 33.8321 
3 *347:12 *1352:A 23 
4 *347:4 *347:19 10.6264 
5 *347:19 *1157:B 24.2014 
6 *347:19 *347:34 36.5871 
7 *347:34 *1158:B 23 
*END

*D_NET *348 0.00122517
*CONN
*I *1161:B I *D sky130_fd_sc_hd__nand2_1
*I *1160:B I *D sky130_fd_sc_hd__or2_1
*I *1353:A I *D sky130_fd_sc_hd__buf_2
*I *1284:Q O *D sky130_fd_sc_hd__dfrtp_1
*CAP
1 *1161:B 1.09472e-05
2 *1160:B 0
3 *1353:A 0
4 *1284:Q 0.000162096
5 *348:14 0.000175187
6 *348:8 0.00034823
7 *1160:A *1161:B 3.04516e-05
8 *1160:A *348:8 5.70419e-05
9 *1311:A *348:14 0
10 *1312:A *348:14 0
11 *207:10 *348:8 2.64616e-05
12 *209:34 *348:14 0
13 *304:64 *1161:B 5.50106e-05
14 *304:64 *348:8 0.000310641
15 *312:10 *348:14 4.90994e-05
*RES
1 *1284:Q *348:8 27.3293 
2 *348:8 *348:14 33.3143 
3 *348:14 *1353:A 23 
4 *348:8 *1160:B 23 
5 *348:8 *1161:B 23.6214 
*END

*D_NET *349 0.00238586
*CONN
*I *1163:B I *D sky130_fd_sc_hd__nand2_1
*I *1354:A I *D sky130_fd_sc_hd__buf_2
*I *1164:B I *D sky130_fd_sc_hd__or2_1
*I *1285:Q O *D sky130_fd_sc_hd__dfrtp_1
*CAP
1 *1163:B 0.000361931
2 *1354:A 0
3 *1164:B 0
4 *1285:Q 0
5 *349:25 0.000673498
6 *349:12 0.000246702
7 *349:4 0.000558269
8 *1163:B *1044:A 0.000196283
9 *349:12 *1044:A 0
10 *349:25 *1044:A 6.79006e-05
11 *349:25 *1356:A 0
12 *1163:A *1163:B 3.52815e-05
13 *1313:A *349:25 0
14 *92:8 *349:12 9.48318e-05
15 *210:10 *1163:B 2.30292e-05
16 *313:8 *1163:B 4.66047e-05
17 *313:23 *349:12 8.15327e-05
*RES
1 *1285:Q *349:4 23 
2 *349:4 *349:12 34.8886 
3 *349:12 *1164:B 23 
4 *349:4 *349:25 34.785 
5 *349:25 *1354:A 23 
6 *349:25 *1163:B 30.3329 
*END

*D_NET *350 0.00179898
*CONN
*I *1123:A I *D sky130_fd_sc_hd__or2_1
*I *1122:A I *D sky130_fd_sc_hd__nand2_1
*I *1334:X O *D sky130_fd_sc_hd__clkbuf_1
*CAP
1 *1123:A 6.8326e-05
2 *1122:A 0
3 *1334:X 0.000329775
4 *350:14 0.000100903
5 *350:10 0.000362352
6 *350:10 *368:59 6.63698e-05
7 *1122:B *1123:A 4.08664e-05
8 *1122:B *350:14 5.50049e-05
9 *1343:A *350:10 0.000530622
10 *169:10 *1123:A 4.95081e-05
11 *302:52 *350:10 0.000195248
*RES
1 *1334:X *350:10 46.4721 
2 *350:10 *350:14 15.6214 
3 *350:14 *1122:A 23 
4 *350:14 *1123:A 24.5743 
*END

*D_NET *351 0.00503677
*CONN
*I *1355:A I *D sky130_fd_sc_hd__buf_2
*I *1071:B I *D sky130_fd_sc_hd__nand2_1
*I *1072:B I *D sky130_fd_sc_hd__or2_1
*I *1286:Q O *D sky130_fd_sc_hd__dfrtp_1
*CAP
1 *1355:A 0
2 *1071:B 0.000121205
3 *1072:B 4.14331e-05
4 *1286:Q 0.000225437
5 *351:42 0.000615786
6 *351:27 0.000843737
7 *351:12 0.000373616
8 *351:12 *370:118 0.000185755
9 *351:27 *370:118 4.04389e-05
10 *351:42 *370:118 0.000615169
11 *1064:B *351:42 0.00014411
12 *1071:A *1071:B 7.27085e-05
13 *1071:A *1072:B 9.84794e-05
14 *1179:A2 *351:27 0
15 *1314:A *351:42 0
16 *1315:A *351:42 0
17 *95:10 *351:42 0
18 *110:27 *351:42 0.000479159
19 *118:8 *1071:B 0.000269775
20 *120:10 *1071:B 3.53115e-05
21 *120:10 *1072:B 0.000139346
22 *120:19 *1071:B 0
23 *301:30 *351:12 8.94487e-05
24 *305:8 *351:12 2.32101e-05
25 *305:12 *351:12 0.000107287
26 *314:16 *1071:B 9.67842e-05
27 *314:16 *1072:B 2.02872e-05
28 *314:16 *351:27 1.58805e-05
29 *314:16 *351:42 0.000382405
30 *315:8 *351:42 0
*RES
1 *1286:Q *351:12 42.6814 
2 *351:12 *1072:B 39.5743 
3 *351:12 *351:27 1.96786 
4 *351:27 *1071:B 42.3293 
5 *351:27 *351:42 34.5129 
6 *351:42 *1355:A 23 
*END

*D_NET *352 0.00396772
*CONN
*I *1057:B I *D sky130_fd_sc_hd__nand2_1
*I *1356:A I *D sky130_fd_sc_hd__buf_2
*I *1058:B I *D sky130_fd_sc_hd__or2_1
*I *1287:Q O *D sky130_fd_sc_hd__dfrtp_1
*CAP
1 *1057:B 0.000221037
2 *1356:A 0.000423736
3 *1058:B 5.10486e-05
4 *1287:Q 0.000159951
5 *352:18 0.000706481
6 *352:10 0.000612685
7 *1057:A *1057:B 7.33848e-06
8 *1057:A *1058:B 6.9805e-05
9 *1058:A *1356:A 0
10 *1059:A *352:18 2.96369e-05
11 *1065:A *1058:B 5.50106e-05
12 *1200:A2 *1057:B 8.4047e-05
13 *1200:A2 *352:10 0.000269411
14 *1200:A2 *352:18 3.47879e-05
15 *1315:A *1356:A 0
16 *104:8 *1057:B 0.000139346
17 *104:8 *1058:B 0.000140259
18 *104:21 *1356:A 1.19796e-05
19 *104:21 *352:18 6.7177e-06
20 *105:14 *1058:B 2.32101e-05
21 *105:14 *352:18 6.16531e-05
22 *224:14 *352:10 2.93845e-05
23 *240:10 *352:10 0.000169674
24 *241:10 *1057:B 5.14746e-06
25 *241:10 *1356:A 0
26 *305:29 *1057:B 7.48331e-05
27 *305:29 *1356:A 0.000139224
28 *305:29 *352:10 0.000441317
29 *315:8 *1356:A 0
30 *349:25 *1356:A 0
*RES
1 *1287:Q *352:10 44.4007 
2 *352:10 *352:18 33.48 
3 *352:18 *1058:B 40.0507 
4 *352:18 *1356:A 46.9486 
5 *352:10 *1057:B 42.1014 
*END

*D_NET *353 0.00257081
*CONN
*I *1357:A I *D sky130_fd_sc_hd__buf_2
*I *1067:C1 I *D sky130_fd_sc_hd__o211a_1
*I *1061:B I *D sky130_fd_sc_hd__nand2_1
*I *1062:B I *D sky130_fd_sc_hd__or2_1
*I *1288:Q O *D sky130_fd_sc_hd__dfrtp_1
*CAP
1 *1357:A 0.000321618
2 *1067:C1 0
3 *1061:B 0
4 *1062:B 0
5 *1288:Q 0.000190512
6 *353:32 0.000627892
7 *353:17 0.000393255
8 *353:8 0.000277493
9 *1357:A *354:12 2.47097e-05
10 *353:32 *1068:A2 1.86973e-05
11 *353:32 *354:12 4.21594e-06
12 *1060:A *353:32 0.000220264
13 *1062:A *353:8 0.00010018
14 *1062:A *353:17 5.67058e-05
15 *1067:B1 *353:32 5.69383e-05
16 *1318:A *1357:A 6.07611e-06
17 *107:10 *353:32 4.6318e-06
18 *109:10 *353:8 5.50049e-05
19 *110:12 *353:8 5.41288e-05
20 *296:8 *353:32 6.7177e-06
21 *316:14 *353:17 4.7881e-05
22 *316:14 *353:32 0.00010018
23 *318:10 *1357:A 3.7122e-06
*RES
1 *1288:Q *353:8 26.9771 
2 *353:8 *1062:B 23 
3 *353:8 *353:17 2.07143 
4 *353:17 *1061:B 23 
5 *353:17 *353:32 21.2764 
6 *353:32 *1067:C1 38 
7 *353:32 *1357:A 43.8414 
*END

*D_NET *354 0.0035747
*CONN
*I *1358:A I *D sky130_fd_sc_hd__buf_2
*I *1060:B I *D sky130_fd_sc_hd__xnor2_1
*I *1067:A2 I *D sky130_fd_sc_hd__o211a_1
*I *1068:A2 I *D sky130_fd_sc_hd__a211o_1
*I *1289:Q O *D sky130_fd_sc_hd__dfrtp_1
*CAP
1 *1358:A 0
2 *1060:B 4.01155e-05
3 *1067:A2 0
4 *1068:A2 0.000111282
5 *1289:Q 0
6 *354:41 0.000132741
7 *354:12 0.000452837
8 *354:6 0.00112597
9 *354:4 0.000877042
10 *354:41 *370:8 0
11 *1060:A *354:12 0.000106618
12 *1067:B1 *354:12 5.50106e-05
13 *1068:A1 *1068:A2 0.000190227
14 *1289:CLK *354:6 0.000276915
15 *1289:D *354:6 4.91297e-05
16 *1289:D *354:12 1.32939e-05
17 *1357:A *354:12 2.47097e-05
18 *107:10 *1068:A2 0
19 *112:19 *1068:A2 4.21594e-06
20 *318:10 *1068:A2 1.14452e-05
21 *318:10 *354:12 8.02348e-05
22 *332:10 *354:41 0
23 *353:32 *1068:A2 1.86973e-05
24 *353:32 *354:12 4.21594e-06
*RES
1 *1289:Q *354:4 23 
2 *354:4 *354:6 11.1029 
3 *354:6 *354:12 20.6343 
4 *354:12 *1068:A2 40.61 
5 *354:12 *1067:A2 38 
6 *354:6 *1060:B 23.8493 
7 *354:4 *354:41 32.2579 
8 *354:41 *1358:A 23 
*END

*D_NET *355 0.00594069
*CONN
*I *1359:A I *D sky130_fd_sc_hd__buf_2
*I *1054:B I *D sky130_fd_sc_hd__nand2_1
*I *1055:B I *D sky130_fd_sc_hd__or2_1
*I *1290:Q O *D sky130_fd_sc_hd__dfrtp_1
*CAP
1 *1359:A 0
2 *1054:B 0
3 *1055:B 3.3043e-05
4 *1290:Q 0.000243457
5 *355:44 0.00117864
6 *355:25 0.00146435
7 *355:10 0.000318753
8 *355:8 0.000243457
9 *355:44 *1194:B 0.00025307
10 *355:44 *1363:A 0.00016046
11 *355:44 *358:10 0.000138727
12 acc[28] *355:44 1.34542e-05
13 acc[30] *355:44 1.27424e-05
14 *1054:A *355:44 0
15 *1055:A *1055:B 2.02517e-05
16 *1055:A *355:25 0.000271476
17 *1056:A *355:25 4.21594e-06
18 *1322:A *355:44 0.000108079
19 *1323:A *355:44 0
20 *101:40 *355:44 3.04516e-05
21 *230:8 *355:8 0
22 *238:8 *355:44 0.000195248
23 *305:82 *355:25 3.17634e-05
24 *305:82 *355:44 0.000185434
25 *319:14 *355:25 8.52481e-05
26 *319:14 *355:44 0.000583935
27 *322:10 *355:44 5.80738e-05
28 *323:8 *355:44 6.67764e-05
29 *332:10 *355:44 0
30 *332:28 *355:44 0.000239589
*RES
1 *1290:Q *355:8 42.3707 
2 *355:8 *355:10 15 
3 *355:10 *1055:B 23.8493 
4 *355:10 *355:25 35.7586 
5 *355:25 *1054:B 23 
6 *355:25 *355:44 44.2071 
7 *355:44 *1359:A 38 
*END

*D_NET *356 0.000921466
*CONN
*I *1181:B I *D sky130_fd_sc_hd__nor2_1
*I *1360:A I *D sky130_fd_sc_hd__buf_2
*I *1182:B I *D sky130_fd_sc_hd__nand2_1
*I *1291:Q O *D sky130_fd_sc_hd__dfrtp_1
*CAP
1 *1181:B 0
2 *1360:A 9.95727e-05
3 *1182:B 3.69077e-05
4 *1291:Q 0.000130134
5 *356:10 0.00013648
6 *356:8 0.000130134
7 acc[29] *356:8 0
8 *1182:A *1182:B 9.58714e-05
9 *1182:A *1360:A 6.52863e-05
10 *227:10 *1182:B 4.34876e-05
11 *227:10 *1360:A 1.24376e-05
12 *320:10 *356:8 4.6318e-06
13 *332:28 *356:8 0.000166522
*RES
1 *1291:Q *356:8 40.2579 
2 *356:8 *356:10 15 
3 *356:10 *1182:B 24.0979 
4 *356:10 *1360:A 25.5686 
5 *356:10 *1181:B 23 
*END

*D_NET *357 0.00280649
*CONN
*I *1361:A I *D sky130_fd_sc_hd__buf_2
*I *1091:B I *D sky130_fd_sc_hd__nor2_1
*I *1090:B I *D sky130_fd_sc_hd__and2_1
*I *1264:Q O *D sky130_fd_sc_hd__dfrtp_1
*CAP
1 *1361:A 0
2 *1091:B 4.6768e-05
3 *1090:B 2.58636e-05
4 *1264:Q 0
5 *357:34 0.00103068
6 *357:10 0.000279585
7 *357:6 0.00123763
8 *357:10 *1255:A 0
9 *357:34 *1255:A 0
10 *1090:A *1091:B 5.51187e-05
11 *1091:A *1091:B 5.90675e-06
12 *138:10 *1090:B 2.4754e-05
13 *138:10 *1091:B 0.00010018
*RES
1 *1264:Q *357:6 38 
2 *357:6 *357:10 18.6664 
3 *357:10 *1090:B 23.6214 
4 *357:10 *1091:B 25.0921 
5 *357:6 *357:34 33.125 
6 *357:34 *1361:A 23 
*END

*D_NET *358 0.000654034
*CONN
*I *1362:A I *D sky130_fd_sc_hd__buf_2
*I *1186:B I *D sky130_fd_sc_hd__nor2_1
*I *1187:B I *D sky130_fd_sc_hd__nand2_1
*I *1292:Q O *D sky130_fd_sc_hd__dfrtp_1
*CAP
1 *1362:A 8.69183e-05
2 *1186:B 1.9139e-05
3 *1187:B 0
4 *1292:Q 0
5 *358:10 9.3217e-05
6 *358:4 0.000160996
7 *1186:A *1186:B 5.50049e-05
8 *231:6 *1186:B 5.3304e-05
9 *322:10 *358:10 6.07611e-06
10 *332:28 *358:10 4.06512e-05
11 *355:44 *358:10 0.000138727
*RES
1 *1292:Q *358:4 23 
2 *358:4 *358:10 31.9057 
3 *358:10 *1187:B 23 
4 *358:10 *1186:B 23.6214 
5 *358:4 *1362:A 24.4707 
*END

*D_NET *359 0.0014288
*CONN
*I *1363:A I *D sky130_fd_sc_hd__buf_2
*I *1194:B I *D sky130_fd_sc_hd__xnor2_1
*I *1293:Q O *D sky130_fd_sc_hd__dfrtp_1
*CAP
1 *1363:A 4.62432e-05
2 *1194:B 7.86393e-05
3 *1293:Q 0.000143247
4 *359:8 0.000268129
5 *238:8 *1194:B 2.84809e-05
6 *323:8 *1194:B 0.000280856
7 *323:8 *1363:A 0.000169674
8 *355:44 *1194:B 0.00025307
9 *355:44 *1363:A 0.00016046
*RES
1 *1293:Q *359:8 39.5743 
2 *359:8 *1194:B 42.0186 
3 *359:8 *1363:A 40.2579 
*END

*D_NET *360 0.00947102
*CONN
*I *1099:A2 I *D sky130_fd_sc_hd__a21o_1
*I *1100:B I *D sky130_fd_sc_hd__xor2_1
*I *1114:A2 I *D sky130_fd_sc_hd__o221ai_4
*I *1101:A2 I *D sky130_fd_sc_hd__o22ai_1
*I *1364:A I *D sky130_fd_sc_hd__buf_2
*I *1265:Q O *D sky130_fd_sc_hd__dfrtp_4
*CAP
1 *1099:A2 5.67488e-05
2 *1100:B 0.000649728
3 *1114:A2 0
4 *1101:A2 0
5 *1364:A 0.000408932
6 *1265:Q 0.000368802
7 *360:49 0.000119804
8 *360:43 0.000655007
9 *360:33 0.00118493
10 *360:31 0.000531369
11 *360:18 0.000833298
12 *360:10 0.00126779
13 *1364:A *362:20 0
14 *1364:A *363:10 0.000218952
15 *360:10 *368:18 5.50106e-05
16 *360:10 *369:86 0.000122374
17 *360:18 *369:20 4.55681e-05
18 *360:18 *369:86 4.83941e-05
19 *1099:B1 *1100:B 6.88819e-05
20 *1100:A *1100:B 0.000141954
21 *1100:A *360:49 6.70363e-05
22 *1107:A *1364:A 6.28695e-05
23 *1114:B2 *360:43 0.000133309
24 *1262:CLK *360:10 7.55892e-05
25 *72:10 *360:10 0
26 *154:45 *1364:A 0
27 *155:8 *1364:A 0.000141879
28 *157:16 *360:18 0.000530627
29 *159:20 *360:43 0
30 *159:30 *360:43 0.000114083
31 *161:10 *360:43 0
32 *273:8 *360:10 5.46706e-05
33 *273:8 *360:18 8.62783e-05
34 *303:14 *360:49 0
35 *303:30 *360:31 0.00013018
36 *303:36 *1100:B 0
37 *303:36 *360:10 0
38 *303:36 *360:18 0
39 *303:36 *360:43 0
40 *303:97 *360:10 9.21347e-06
41 *303:97 *360:31 4.27353e-05
42 *324:6 *360:18 0.000396228
43 *324:6 *360:43 1.59094e-05
44 *324:8 *360:43 0.000177627
45 *324:14 *360:43 5.67058e-05
46 *324:14 *360:49 0.000199701
47 *324:43 *1100:B 8.33866e-05
48 *324:43 *360:43 0.000299187
49 *326:14 *1364:A 1.62615e-05
*RES
1 *1265:Q *360:10 45.8093 
2 *360:10 *360:18 42.1386 
3 *360:18 *1364:A 47.3007 
4 *360:10 *360:31 21.815 
5 *360:31 *360:33 15 
6 *360:33 *360:43 25.3986 
7 *360:43 *360:49 33.3143 
8 *360:49 *1101:A2 23 
9 *360:43 *1114:A2 23 
10 *360:33 *1100:B 49.31 
11 *360:31 *1099:A2 24.2014 
*END

*D_NET *361 0.00182739
*CONN
*I *1125:A I *D sky130_fd_sc_hd__or2_1
*I *1126:A I *D sky130_fd_sc_hd__nand2_1
*I *1335:X O *D sky130_fd_sc_hd__clkbuf_1
*CAP
1 *1125:A 0.000163177
2 *1126:A 0
3 *1335:X 0.000580559
4 *361:12 0.00030532
5 *361:8 0.000722702
6 *1125:B *1125:A 5.56279e-05
7 *339:12 *361:8 0
*RES
1 *1335:X *361:8 48.3571 
2 *361:8 *361:12 17.5271 
3 *361:12 *1126:A 23 
4 *361:12 *1125:A 26.5214 
*END

*D_NET *362 0.0017579
*CONN
*I *1110:B I *D sky130_fd_sc_hd__nand2_1
*I *1111:B I *D sky130_fd_sc_hd__or2_1
*I *1365:A I *D sky130_fd_sc_hd__buf_2
*I *1266:Q O *D sky130_fd_sc_hd__dfrtp_1
*CAP
1 *1110:B 0.000111434
2 *1111:B 0
3 *1365:A 0
4 *1266:Q 0.000214344
5 *362:20 0.000254941
6 *362:14 0.000443489
7 *362:10 0.000291458
8 *362:10 *369:10 9.84794e-05
9 acc[4] *362:20 6.47523e-05
10 *1111:A *1110:B 5.50106e-05
11 *1111:A *362:14 9.84794e-05
12 *1324:A *362:10 0
13 *1324:A *362:20 7.03766e-05
14 *1326:A *362:20 1.14452e-05
15 *1364:A *362:20 0
16 *157:8 *1110:B 2.18409e-05
17 *157:8 *362:14 2.18506e-05
18 *157:16 *362:10 0
19 *157:16 *362:20 0
20 *325:8 *362:10 0
*RES
1 *1266:Q *362:10 41.7079 
2 *362:10 *362:14 16.5743 
3 *362:14 *362:20 35.4271 
4 *362:20 *1365:A 23 
5 *362:14 *1111:B 23 
6 *362:14 *1110:B 25.0714 
*END

*D_NET *363 0.00149584
*CONN
*I *1108:B I *D sky130_fd_sc_hd__or2_1
*I *1366:A I *D sky130_fd_sc_hd__buf_2
*I *1107:B I *D sky130_fd_sc_hd__nand2_1
*I *1267:Q O *D sky130_fd_sc_hd__dfrtp_1
*CAP
1 *1108:B 0.000221704
2 *1366:A 0.000123547
3 *1107:B 0
4 *1267:Q 0
5 *363:10 0.000265189
6 *363:4 0.000363346
7 *1366:A *369:66 5.41288e-05
8 *1107:A *1366:A 0.000203078
9 *1364:A *363:10 0.000218952
10 *154:45 *363:10 4.58924e-05
*RES
1 *1267:Q *363:4 23 
2 *363:4 *363:10 32.9621 
3 *363:10 *1107:B 23 
4 *363:10 *1366:A 26.5214 
5 *363:4 *1108:B 26.5007 
*END

*D_NET *364 0.00208437
*CONN
*I *1115:A2 I *D sky130_fd_sc_hd__a21oi_1
*I *1102:B I *D sky130_fd_sc_hd__xnor2_1
*I *1245:A2 I *D sky130_fd_sc_hd__a21oi_1
*I *1367:A I *D sky130_fd_sc_hd__buf_2
*I *1268:Q O *D sky130_fd_sc_hd__dfrtp_1
*CAP
1 *1115:A2 5.56181e-05
2 *1102:B 0
3 *1245:A2 7.15787e-05
4 *1367:A 0.000211899
5 *1268:Q 8.57808e-05
6 *364:20 0.000376949
7 *364:14 0.000286281
8 *364:8 0.000334208
9 *364:14 *369:36 0
10 *1102:A *1245:A2 0.00014196
11 *1102:A *364:20 0.000109895
12 *1115:A1 *364:14 0
13 *1327:A *1367:A 1.01436e-05
14 *149:8 *364:14 0
15 *275:6 *1115:A2 0.00014196
16 *275:6 *364:8 9.84794e-05
17 *303:55 *1245:A2 0.00014196
18 *303:55 *364:20 1.76557e-05
19 *327:8 *1367:A 0
*RES
1 *1268:Q *364:8 24.9471 
2 *364:8 *364:14 32.9621 
3 *364:14 *364:20 17.0714 
4 *364:20 *1367:A 41.7079 
5 *364:20 *1245:A2 40.4236 
6 *364:14 *1102:B 23 
7 *364:8 *1115:A2 24.5743 
*END

*D_NET *365 0.00162499
*CONN
*I *1368:A I *D sky130_fd_sc_hd__buf_2
*I *1104:B I *D sky130_fd_sc_hd__nor2_1
*I *1103:B I *D sky130_fd_sc_hd__and2_1
*I *1269:Q O *D sky130_fd_sc_hd__dfrtp_1
*CAP
1 *1368:A 0.000210735
2 *1104:B 0
3 *1103:B 6.43055e-05
4 *1269:Q 0
5 *365:12 0.000417073
6 *365:4 0.000563503
7 *365:12 *369:66 0
8 *1103:A *1103:B 5.50049e-05
9 *1269:RESET_B *1368:A 0.000127821
10 *1269:RESET_B *365:12 0.000137039
11 *151:6 *1103:B 4.95081e-05
12 *152:8 *365:12 0
*RES
1 *1269:Q *365:4 23 
2 *365:4 *365:12 35.3857 
3 *365:12 *1103:B 24.5743 
4 *365:12 *1104:B 23 
5 *365:4 *1368:A 26.3764 
*END

*D_NET *366 0.00274059
*CONN
*I *1087:B I *D sky130_fd_sc_hd__nand2_1
*I *1369:A I *D sky130_fd_sc_hd__buf_2
*I *1088:B I *D sky130_fd_sc_hd__or2_1
*I *1270:Q O *D sky130_fd_sc_hd__dfrtp_1
*CAP
1 *1087:B 0
2 *1369:A 0
3 *1088:B 0.00012083
4 *1270:Q 0.000215195
5 *366:29 0.000581799
6 *366:12 0.00082184
7 *366:8 0.000334406
8 *366:8 *368:138 0
9 *366:8 *369:36 0.000131019
10 *366:29 *369:36 0
11 acc[8] *366:29 2.93845e-05
12 *1088:A *1088:B 5.50049e-05
13 *75:8 *366:29 5.80963e-05
14 *134:8 *366:8 0
15 *330:8 *366:29 0.00039301
*RES
1 *1270:Q *366:8 43.075 
2 *366:8 *366:12 17.0507 
3 *366:12 *1088:B 25.0714 
4 *366:12 *366:29 42.9879 
5 *366:29 *1369:A 23 
6 *366:12 *1087:B 23 
*END

*D_NET *367 0.00196574
*CONN
*I *1370:A I *D sky130_fd_sc_hd__buf_2
*I *1082:B I *D sky130_fd_sc_hd__or2_1
*I *1081:B I *D sky130_fd_sc_hd__nand2_1
*I *1271:Q O *D sky130_fd_sc_hd__dfrtp_1
*CAP
1 *1370:A 0.000179926
2 *1082:B 0
3 *1081:B 7.04632e-05
4 *1271:Q 0
5 *367:25 0.000471047
6 *367:4 0.000361584
7 acc[12] *367:25 3.70094e-05
8 acc[9] *1370:A 5.50106e-05
9 *1081:A *1081:B 6.07084e-05
10 *1081:A *367:25 9.7083e-05
11 *1082:A *367:25 8.12631e-05
12 *1271:RESET_B *1081:B 0
13 *1331:A *367:25 0.000185428
14 *6:8 *1370:A 5.29672e-05
15 *6:8 *367:25 0.000313249
*RES
1 *1271:Q *367:4 23 
2 *367:4 *1081:B 24.8229 
3 *367:4 *367:25 37.3329 
4 *367:25 *1082:B 23 
5 *367:25 *1370:A 26.9771 
*END

*D_NET *368 0.0240934
*CONN
*I *1254:A I *D sky130_fd_sc_hd__inv_2
*I *1030:A I *D sky130_fd_sc_hd__inv_2
*I *1033:A I *D sky130_fd_sc_hd__inv_2
*I *1032:A I *D sky130_fd_sc_hd__inv_2
*I *1031:A I *D sky130_fd_sc_hd__inv_2
*I *1035:A I *D sky130_fd_sc_hd__inv_2
*I *1037:A I *D sky130_fd_sc_hd__inv_2
*I *1038:A I *D sky130_fd_sc_hd__inv_2
*I *1036:A I *D sky130_fd_sc_hd__inv_2
*I *1034:A I *D sky130_fd_sc_hd__inv_2
*I *1302:X O *D sky130_fd_sc_hd__buf_4
*CAP
1 *1254:A 0
2 *1030:A 0
3 *1033:A 8.6631e-05
4 *1032:A 0
5 *1031:A 0
6 *1035:A 0
7 *1037:A 0
8 *1038:A 0
9 *1036:A 0
10 *1034:A 0.000129217
11 *1302:X 0.000200662
12 *368:138 0.00134801
13 *368:110 0.000725788
14 *368:100 0.00137377
15 *368:90 0.00119795
16 *368:84 0.00120662
17 *368:75 0.000393464
18 *368:59 0.00100171
19 *368:49 0.00166764
20 *368:28 0.00154394
21 *368:24 0.00147454
22 *368:22 0.00200747
23 *368:18 0.00379353
24 *368:8 0.00154102
25 *368:59 *1128:A 0
26 *368:59 *372:10 0
27 acc[14] *368:110 3.71369e-05
28 *1079:A *368:100 5.50049e-05
29 *1119:B1 *368:90 0
30 *1227:A *368:59 2.60152e-05
31 *1228:C *368:138 0
32 *1265:D *368:18 8.20929e-05
33 *1275:CLK *368:28 0.000227407
34 *1333:A *368:110 5.50106e-05
35 *1335:A *368:110 0.00014196
36 *1343:A *368:49 0.000171296
37 *1343:A *368:59 5.50106e-05
38 *14:12 *368:8 3.71251e-05
39 *70:10 *368:8 0.000310641
40 *80:10 *368:90 2.30292e-05
41 *80:10 *368:100 5.37348e-06
42 *81:8 *368:84 0
43 *82:10 *1034:A 8.62876e-05
44 *82:10 *368:49 5.33597e-05
45 *83:10 *368:110 8.16913e-05
46 *84:10 *368:59 0
47 *124:32 *368:90 0.000217372
48 *124:32 *368:100 0.000185434
49 *125:14 *368:100 0
50 *126:8 *368:100 4.58924e-05
51 *127:23 *368:100 2.79004e-05
52 *131:10 *368:90 0
53 *132:10 *368:90 0
54 *134:8 *368:138 4.58924e-05
55 *135:8 *368:138 5.26101e-05
56 *136:8 *368:138 0
57 *166:6 *1033:A 0.000228909
58 *167:10 *368:90 0
59 *178:10 *368:59 9.38027e-05
60 *184:14 *368:75 0.000189966
61 *186:12 *1034:A 0.000161121
62 *186:12 *368:49 6.25829e-05
63 *278:10 *368:138 0
64 *282:10 *1034:A 2.64616e-05
65 *284:10 *368:59 0.000120258
66 *301:12 *368:138 0
67 *302:22 *368:100 5.41385e-05
68 *302:52 *368:59 0
69 *303:72 *368:138 0
70 *330:8 *368:138 0.000314985
71 *332:32 *368:8 0.00010018
72 *334:8 *368:100 0.000402806
73 *334:14 *368:100 1.01436e-05
74 *334:14 *368:110 0
75 *337:6 *368:49 0.000295273
76 *339:8 *368:110 2.93747e-05
77 *339:12 *368:100 0
78 *339:12 *368:110 0.000166522
79 *350:10 *368:59 6.63698e-05
80 *360:10 *368:18 5.50106e-05
81 *366:8 *368:138 0
*RES
1 *1302:X *368:8 28.4064 
2 *368:8 *368:18 23.345 
3 *368:18 *368:22 18.7464 
4 *368:22 *368:24 4.43286 
5 *368:24 *368:28 25.15 
6 *368:28 *1034:A 40.8793 
7 *368:28 *368:49 29.9764 
8 *368:49 *368:59 48.7671 
9 *368:59 *1036:A 23 
10 *368:49 *1038:A 23 
11 *368:24 *368:75 39.3007 
12 *368:75 *1037:A 23 
13 *368:22 *368:84 25.3571 
14 *368:84 *368:90 26.4757 
15 *368:90 *368:100 44.7279 
16 *368:100 *368:110 44.5621 
17 *368:110 *1035:A 23 
18 *368:100 *1031:A 23 
19 *368:90 *1032:A 23 
20 *368:84 *1033:A 40.5271 
21 *368:18 *368:138 42.6121 
22 *368:138 *1030:A 38 
23 *368:8 *1254:A 23 
*END

*D_NET *369 0.0110477
*CONN
*I *1257:A I *D sky130_fd_sc_hd__inv_2
*I *1256:A I *D sky130_fd_sc_hd__inv_2
*I *1258:A I *D sky130_fd_sc_hd__inv_2
*I *1260:A I *D sky130_fd_sc_hd__inv_2
*I *1261:A I *D sky130_fd_sc_hd__inv_2
*I *1259:A I *D sky130_fd_sc_hd__inv_2
*I *1303:X O *D sky130_fd_sc_hd__buf_2
*CAP
1 *1257:A 0
2 *1256:A 0
3 *1258:A 0
4 *1260:A 0
5 *1261:A 3.90514e-05
6 *1259:A 0
7 *1303:X 0.000299546
8 *369:86 0.000589527
9 *369:66 0.000565239
10 *369:56 0.00104272
11 *369:36 0.000731288
12 *369:30 0.00170429
13 *369:20 0.00183639
14 *369:16 0.00116162
15 *369:12 0.00014713
16 *369:10 0.000299546
17 acc[3] *369:66 0.000130212
18 *1107:A *369:66 4.67269e-05
19 *1117:A1 *1261:A 0
20 *1117:A1 *369:36 0
21 *1117:A2 *369:30 0.000392369
22 *1329:A *369:66 0
23 *1366:A *369:66 5.41288e-05
24 *72:10 *369:86 2.30292e-05
25 *73:8 *369:10 0.000171906
26 *73:8 *369:86 0
27 *74:8 *369:56 0
28 *75:8 *369:36 0
29 *149:8 *369:36 0
30 *153:20 *369:36 0
31 *154:6 *369:66 9.24795e-06
32 *154:10 *369:56 0.000276925
33 *154:45 *369:20 0
34 *156:6 *369:30 0.000292194
35 *156:8 *369:30 4.2573e-05
36 *157:16 *369:10 1.01436e-05
37 *157:16 *369:20 0
38 *159:6 *369:16 0.000202663
39 *262:10 *369:20 0
40 *262:10 *369:30 4.77554e-05
41 *263:8 *369:36 0
42 *274:8 *369:30 1.01436e-05
43 *274:8 *369:56 5.80963e-05
44 *303:14 *369:30 9.01041e-05
45 *303:36 *369:20 0
46 *303:36 *369:56 0
47 *303:38 *369:56 0
48 *303:55 *369:36 0.000185428
49 *303:97 *369:86 0.000141879
50 *360:10 *369:86 0.000122374
51 *360:18 *369:20 4.55681e-05
52 *360:18 *369:86 4.83941e-05
53 *362:10 *369:10 9.84794e-05
54 *364:14 *369:36 0
55 *365:12 *369:66 0
56 *366:8 *369:36 0.000131019
57 *366:29 *369:36 0
*RES
1 *1303:X *369:10 44.09 
2 *369:10 *369:12 15 
3 *369:12 *369:16 18.9564 
4 *369:16 *369:20 7.05321 
5 *369:20 *369:30 43.8268 
6 *369:30 *369:36 30.225 
7 *369:36 *1259:A 23 
8 *369:30 *1261:A 38.8493 
9 *369:20 *369:56 25.9889 
10 *369:56 *369:66 40.9164 
11 *369:66 *1260:A 23 
12 *369:56 *1258:A 23 
13 *369:16 *369:86 27.4079 
14 *369:86 *1256:A 23 
15 *369:12 *1257:A 23 
*END

*D_NET *370 0.0222301
*CONN
*I *1048:A I *D sky130_fd_sc_hd__inv_2
*I *1045:A I *D sky130_fd_sc_hd__inv_2
*I *1041:A I *D sky130_fd_sc_hd__inv_2
*I *1039:A I *D sky130_fd_sc_hd__inv_2
*I *1047:A I *D sky130_fd_sc_hd__inv_2
*I *1044:A I *D sky130_fd_sc_hd__inv_2
*I *1043:A I *D sky130_fd_sc_hd__inv_2
*I *1042:A I *D sky130_fd_sc_hd__inv_2
*I *1040:A I *D sky130_fd_sc_hd__inv_2
*I *1046:A I *D sky130_fd_sc_hd__inv_2
*I *1304:X O *D sky130_fd_sc_hd__buf_4
*CAP
1 *1048:A 0
2 *1045:A 3.35911e-05
3 *1041:A 0
4 *1039:A 0.00106291
5 *1047:A 2.34823e-05
6 *1044:A 0.000415725
7 *1043:A 0
8 *1042:A 0.000236928
9 *1040:A 0.000344113
10 *1046:A 0.00035053
11 *1304:X 0.000254002
12 *370:132 0.0015108
13 *370:126 0.00117995
14 *370:120 0.000765645
15 *370:118 0.000996084
16 *370:83 0.000204379
17 *370:55 0.00122019
18 *370:45 0.00259626
19 *370:32 0.00222121
20 *370:30 0.00109056
21 *370:26 0.000660374
22 *370:24 0.00227657
23 *370:12 0.00126256
24 *370:8 0.000316075
25 *1058:A *370:118 1.21668e-05
26 *1063:A *370:24 0.000153145
27 *1068:B1 *370:24 0.000192748
28 *1162:A *370:45 5.50106e-05
29 *1163:A *1044:A 0
30 *1163:B *1044:A 0.000196283
31 *1197:A *370:126 0.000315852
32 *1197:B *370:126 9.84851e-05
33 *1289:CLK *370:8 0.000219882
34 *92:8 *1044:A 0
35 *93:10 *370:118 0.000188926
36 *93:10 *370:126 2.93747e-05
37 *95:10 *370:26 2.30292e-05
38 *95:10 *370:30 5.37348e-06
39 *96:10 *370:12 2.93747e-05
40 *105:25 *370:118 0
41 *106:12 *370:118 0
42 *204:38 *370:45 0.000193485
43 *205:20 *370:45 7.43025e-06
44 *205:20 *370:55 1.39431e-05
45 *209:8 *370:45 4.96717e-05
46 *218:6 *370:126 6.88885e-05
47 *218:14 *370:132 0
48 *222:14 *1046:A 0
49 *241:10 *1044:A 0
50 *241:10 *370:32 0
51 *245:10 *370:83 5.31444e-05
52 *245:20 *370:83 0.000103405
53 *290:10 *1042:A 0.000119957
54 *294:8 *370:118 0
55 *301:30 *370:118 9.70251e-05
56 *304:72 *370:55 4.21594e-06
57 *304:72 *370:83 0
58 *304:80 *1040:A 0
59 *304:80 *370:55 0
60 *305:29 *1046:A 0
61 *311:8 *370:83 0
62 *313:8 *1044:A 6.81213e-05
63 *313:23 *1044:A 0
64 *315:8 *370:118 0
65 *349:12 *1044:A 0
66 *349:25 *1044:A 6.79006e-05
67 *351:12 *370:118 0.000185755
68 *351:27 *370:118 4.04389e-05
69 *351:42 *370:118 0.000615169
70 *354:41 *370:8 0
*RES
1 *1304:X *370:8 43.4271 
2 *370:8 *370:12 16.0979 
3 *370:12 *370:24 23.5936 
4 *370:24 *370:26 1.57429 
5 *370:26 *370:30 24.1971 
6 *370:30 *370:32 1.90571 
7 *370:32 *1046:A 44.8357 
8 *370:32 *370:45 37.5371 
9 *370:45 *370:55 25.1293 
10 *370:55 *1040:A 44.4007 
11 *370:55 *1042:A 42.9093 
12 *370:45 *370:83 34.3086 
13 *370:83 *1043:A 23 
14 *370:30 *1044:A 47.425 
15 *370:26 *1047:A 23.4971 
16 *370:24 *370:118 35.6314 
17 *370:118 *370:120 15 
18 *370:120 *370:126 15.4321 
19 *370:126 *370:132 38.2443 
20 *370:132 *1039:A 42.2021 
21 *370:126 *1041:A 23 
22 *370:120 *1045:A 23.6214 
23 *370:12 *1048:A 23 
*END

*D_NET *371 0.00831559
*CONN
*I *1051:A I *D sky130_fd_sc_hd__inv_2
*I *1052:A I *D sky130_fd_sc_hd__inv_2
*I *1050:A I *D sky130_fd_sc_hd__inv_2
*I *1053:A I *D sky130_fd_sc_hd__inv_2
*I *1049:A I *D sky130_fd_sc_hd__inv_2
*I *1255:A I *D sky130_fd_sc_hd__inv_2
*I *1305:X O *D sky130_fd_sc_hd__buf_2
*CAP
1 *1051:A 1.80182e-05
2 *1052:A 0
3 *1050:A 4.88432e-05
4 *1053:A 0
5 *1049:A 0.000207023
6 *1255:A 0.000313927
7 *1305:X 0.000210457
8 *371:48 0.00034568
9 *371:42 0.000541102
10 *371:20 0.00135092
11 *371:14 0.0013892
12 *371:10 0.000983581
13 *371:8 0.000799412
14 acc[2] *371:48 0
15 *1192:A1 *371:10 0
16 *1291:RESET_B *1050:A 2.32101e-05
17 *1291:RESET_B *371:42 7.06491e-05
18 *1309:A *371:48 0
19 *1321:A *371:48 0
20 *99:10 *371:8 0.000114083
21 *100:8 *371:10 0.000116314
22 *227:21 *371:10 0
23 *227:21 *371:14 0
24 *231:6 *1051:A 5.50106e-05
25 *232:6 *1051:A 2.93845e-05
26 *298:10 *371:20 0
27 *305:62 *1049:A 0.000533224
28 *305:62 *371:20 0.000177909
29 *319:10 *371:14 4.58924e-05
30 *321:8 *371:48 0
31 *332:28 *371:8 0.000100291
32 *332:28 *371:10 6.79785e-05
33 *332:28 *371:14 0.000125576
34 *332:28 *371:48 0.000647913
35 *357:10 *1255:A 0
36 *357:34 *1255:A 0
*RES
1 *1305:X *371:8 42.7229 
2 *371:8 *371:10 11.4136 
3 *371:10 *371:14 22.8921 
4 *371:14 *371:20 26.8279 
5 *371:20 *1255:A 43.7793 
6 *371:20 *1049:A 43.8621 
7 *371:14 *371:42 2.9 
8 *371:42 *371:48 38.5964 
9 *371:48 *1053:A 23 
10 *371:42 *1050:A 24.1186 
11 *371:10 *1052:A 38 
12 *371:8 *1051:A 38.6214 
*END

*D_NET *372 0.00212673
*CONN
*I *1129:A I *D sky130_fd_sc_hd__nor2_1
*I *1130:A I *D sky130_fd_sc_hd__or2_1
*I *1128:A I *D sky130_fd_sc_hd__nand2_1
*I *1336:X O *D sky130_fd_sc_hd__buf_1
*CAP
1 *1129:A 8.06279e-05
2 *1130:A 0
3 *1128:A 0.000157668
4 *1336:X 0.000536823
5 *372:27 8.06279e-05
6 *372:10 0.000694491
7 *1129:B *1129:A 0.000333507
8 *1131:A *1129:A 1.14154e-05
9 *1131:B *1129:A 0.00010018
10 *1138:C1 *1129:A 2.93845e-05
11 *1336:A *372:10 0
12 *175:6 *1129:A 9.6103e-05
13 *340:28 *1128:A 5.90675e-06
14 *368:59 *1128:A 0
15 *368:59 *372:10 0
*RES
1 *1336:X *372:10 45.8507 
2 *372:10 *1128:A 40.3718 
3 *372:10 *372:27 15 
4 *372:27 *1130:A 23 
5 *372:27 *1129:A 26.9771 
*END

*D_NET *373 0.00328778
*CONN
*I *1154:A1 I *D sky130_fd_sc_hd__a31o_1
*I *1148:A I *D sky130_fd_sc_hd__nand2_1
*I *1149:A I *D sky130_fd_sc_hd__or2_1
*I *1337:X O *D sky130_fd_sc_hd__buf_1
*CAP
1 *1154:A1 0
2 *1148:A 3.55632e-05
3 *1149:A 0.000190997
4 *1337:X 0.000736302
5 *373:12 0.000318946
6 *373:10 0.000265579
7 *373:8 0.000909495
8 *1148:B *1148:A 5.50049e-05
9 *1150:A *1148:A 9.58714e-05
10 *193:8 *373:10 0
11 *194:25 *373:10 0
12 *194:25 *373:12 0
13 *200:10 *373:10 1.14452e-05
14 *200:10 *373:12 0.000141879
15 *201:12 *373:10 6.38844e-05
16 *341:12 *1148:A 5.3304e-05
17 *341:27 *1149:A 3.47781e-05
18 *341:27 *373:12 0.000208809
19 *341:40 *1149:A 0.000165918
*RES
1 *1337:X *373:8 49.5793 
2 *373:8 *373:10 3.66643 
3 *373:10 *373:12 2.96214 
4 *373:12 *1149:A 41.5007 
5 *373:12 *1148:A 39.0979 
6 *373:10 *1154:A1 38 
*END

*D_NET *374 0.00269147
*CONN
*I *1153:A I *D sky130_fd_sc_hd__and3_1
*I *1217:A1 I *D sky130_fd_sc_hd__a21o_1
*I *1141:A I *D sky130_fd_sc_hd__xnor2_1
*I *1338:X O *D sky130_fd_sc_hd__buf_1
*CAP
1 *1153:A 0
2 *1217:A1 0
3 *1141:A 0
4 *1338:X 0
5 *374:38 0.000421154
6 *374:17 0.000636458
7 *374:10 0.000143425
8 *374:4 0.000358729
9 *1147:A_N *374:38 0.000191166
10 *1153:C *374:38 0
11 *1214:A1 *374:38 4.10673e-06
12 *1214:A2 *374:38 3.02201e-05
13 *1216:A *374:38 0
14 *1217:B1 *374:38 0
15 *1347:A *374:10 5.01986e-05
16 *35:9 *374:10 1.19796e-05
17 *35:13 *374:17 0.000313249
18 *35:13 *374:38 0.000128723
19 *44:17 *374:10 0
20 *188:21 *374:38 0
21 *193:8 *374:38 0
22 *195:8 *374:38 9.5877e-05
23 *247:14 *374:38 4.07504e-05
24 *250:8 *374:38 1.01436e-05
25 *342:10 *374:10 3.92407e-05
26 *342:19 *374:10 0.000216051
*RES
1 *1338:X *374:4 23 
2 *374:4 *374:10 34.0186 
3 *374:10 *1141:A 23 
4 *374:4 *374:17 3.48 
5 *374:17 *1217:A1 23 
6 *374:17 *374:38 38.4307 
7 *374:38 *1153:A 23 
*END
