*SPEF "ieee 1481-1999"
*DESIGN "cla32"
*DATE "11:33:10 Saturday September 19, 2026"
*VENDOR "The OpenROAD Project"
*PROGRAM "OpenROAD"
*VERSION "edf00dff99f6c40d67a30c0e22a8191c5d2ed9d6"
*DESIGN_FLOW "NAME_SCOPE LOCAL" "PIN_CAP NONE"
*DIVIDER /
*DELIMITER :
*BUS_DELIMITER []
*T_UNIT 1 NS
*C_UNIT 1 PF
*R_UNIT 1 OHM
*L_UNIT 1 HENRY

*NAME_MAP
*3 a[0]
*4 a[10]
*5 a[11]
*6 a[12]
*7 a[13]
*8 a[14]
*9 a[15]
*10 a[16]
*11 a[17]
*12 a[18]
*13 a[19]
*14 a[1]
*15 a[20]
*16 a[21]
*17 a[22]
*18 a[23]
*19 a[24]
*20 a[25]
*21 a[26]
*22 a[27]
*23 a[28]
*24 a[29]
*25 a[2]
*26 a[30]
*27 a[31]
*28 a[3]
*29 a[4]
*30 a[5]
*31 a[6]
*32 a[7]
*33 a[8]
*34 a[9]
*35 b[0]
*36 b[10]
*37 b[11]
*38 b[12]
*39 b[13]
*40 b[14]
*41 b[15]
*42 b[16]
*43 b[17]
*44 b[18]
*45 b[19]
*46 b[1]
*47 b[20]
*48 b[21]
*49 b[22]
*50 b[23]
*51 b[24]
*52 b[25]
*53 b[26]
*54 b[27]
*55 b[28]
*56 b[29]
*57 b[2]
*58 b[30]
*59 b[31]
*60 b[3]
*61 b[4]
*62 b[5]
*63 b[6]
*64 b[7]
*65 b[8]
*66 b[9]
*67 cin
*68 cout
*69 sum[0]
*70 sum[10]
*71 sum[11]
*72 sum[12]
*73 sum[13]
*74 sum[14]
*75 sum[15]
*76 sum[16]
*77 sum[17]
*78 sum[18]
*79 sum[19]
*80 sum[1]
*81 sum[20]
*82 sum[21]
*83 sum[22]
*84 sum[23]
*85 sum[24]
*86 sum[25]
*87 sum[26]
*88 sum[27]
*89 sum[28]
*90 sum[29]
*91 sum[2]
*92 sum[30]
*93 sum[31]
*94 sum[3]
*95 sum[4]
*96 sum[5]
*97 sum[6]
*98 sum[7]
*99 sum[8]
*100 sum[9]
*101 _000_
*102 _001_
*103 _002_
*104 _003_
*105 _004_
*106 _005_
*107 _006_
*108 _007_
*109 _008_
*110 _009_
*111 _010_
*112 _011_
*113 _012_
*114 _013_
*115 _014_
*116 _015_
*117 _016_
*118 _017_
*119 _018_
*120 _019_
*121 _020_
*122 _021_
*123 _022_
*124 _023_
*125 _024_
*126 _025_
*127 _026_
*128 _027_
*129 _028_
*130 _029_
*131 _030_
*132 _031_
*133 _032_
*134 _033_
*135 _034_
*136 _035_
*137 _036_
*138 _037_
*139 _038_
*140 _039_
*141 _040_
*142 _041_
*143 _042_
*144 _043_
*145 _044_
*146 _045_
*147 _046_
*148 _047_
*149 _048_
*150 _049_
*151 _050_
*152 _051_
*153 _052_
*154 _053_
*155 _054_
*156 _055_
*157 _056_
*158 _057_
*159 _058_
*160 _059_
*161 _060_
*162 _061_
*163 _062_
*164 _063_
*165 _064_
*166 _065_
*167 _066_
*168 _067_
*169 _068_
*170 _069_
*171 _070_
*172 _071_
*173 _072_
*174 _073_
*175 _074_
*176 _075_
*177 _076_
*178 _077_
*179 _078_
*180 _079_
*181 _080_
*182 _081_
*183 _082_
*184 _083_
*185 _084_
*186 _085_
*187 _086_
*188 _087_
*189 _088_
*190 _089_
*191 _090_
*192 _091_
*193 _092_
*194 _093_
*195 _094_
*196 _095_
*197 _096_
*198 _097_
*199 _098_
*200 _099_
*201 _100_
*202 _101_
*203 _102_
*204 _103_
*205 _104_
*206 _105_
*207 _106_
*208 _107_
*209 _108_
*210 _109_
*211 _110_
*212 _111_
*213 _112_
*214 _113_
*215 _114_
*216 _115_
*217 _116_
*218 _117_
*219 _118_
*220 _119_
*221 _120_
*222 _121_
*223 _122_
*224 _123_
*225 _124_
*226 _125_
*227 _126_
*228 _127_
*229 _128_
*230 _129_
*231 _130_
*232 _131_
*233 _132_
*234 _133_
*235 _134_
*236 _135_
*237 _136_
*238 _137_
*239 _138_
*240 _139_
*241 _140_
*242 _141_
*243 _142_
*244 _143_
*245 _144_
*246 _145_
*247 _146_
*248 _147_
*249 _148_
*250 _149_
*251 _150_
*252 _151_
*253 _152_
*254 _153_
*255 _154_
*256 _155_
*257 _156_
*258 _157_
*259 _158_
*260 _159_
*261 _160_
*262 _161_
*263 _162_
*264 _163_
*265 _164_
*266 _165_
*267 _166_
*268 _167_
*269 _168_
*270 _169_
*271 _170_
*272 _171_
*273 _172_
*274 _173_
*275 _174_
*276 _175_
*277 net1
*278 net10
*279 net11
*280 net12
*281 net13
*282 net14
*283 net15
*284 net16
*285 net17
*286 net18
*287 net19
*288 net2
*289 net20
*290 net21
*291 net22
*292 net23
*293 net24
*294 net25
*295 net26
*296 net27
*297 net28
*298 net29
*299 net3
*300 net30
*301 net31
*302 net32
*303 net33
*304 net34
*305 net35
*306 net36
*307 net37
*308 net38
*309 net39
*310 net4
*311 net40
*312 net41
*313 net42
*314 net43
*315 net44
*316 net45
*317 net46
*318 net47
*319 net48
*320 net49
*321 net5
*322 net50
*323 net51
*324 net52
*325 net53
*326 net54
*327 net55
*328 net56
*329 net57
*330 net58
*331 net59
*332 net6
*333 net60
*334 net61
*335 net62
*336 net63
*337 net64
*338 net65
*339 net66
*340 net67
*341 net68
*342 net69
*343 net7
*344 net70
*345 net71
*346 net72
*347 net73
*348 net74
*349 net75
*350 net76
*351 net77
*352 net78
*353 net79
*354 net8
*355 net80
*356 net81
*357 net82
*358 net83
*359 net84
*360 net85
*361 net86
*362 net87
*363 net88
*364 net89
*365 net9
*366 net90
*367 net91
*368 net92
*369 net93
*370 net94
*371 net95
*372 net96
*373 net97
*374 net98
*375 FILLER_0_104
*376 FILLER_0_113
*377 FILLER_0_118
*378 FILLER_0_125
*379 FILLER_0_132
*380 FILLER_0_27
*381 FILLER_0_29
*382 FILLER_0_35
*383 FILLER_0_41
*384 FILLER_0_49
*385 FILLER_0_55
*386 FILLER_0_57
*387 FILLER_0_63
*388 FILLER_0_72
*389 FILLER_0_76
*390 FILLER_0_85
*391 FILLER_0_91
*392 FILLER_0_98
*393 FILLER_10_101
*394 FILLER_10_123
*395 FILLER_10_131
*396 FILLER_10_15
*397 FILLER_10_21
*398 FILLER_10_29
*399 FILLER_10_41
*400 FILLER_10_53
*401 FILLER_10_6
*402 FILLER_10_65
*403 FILLER_10_77
*404 FILLER_10_83
*405 FILLER_10_85
*406 FILLER_10_97
*407 FILLER_11_101
*408 FILLER_11_110
*409 FILLER_11_113
*410 FILLER_11_12
*411 FILLER_11_143
*412 FILLER_11_24
*413 FILLER_11_3
*414 FILLER_11_36
*415 FILLER_11_48
*416 FILLER_11_57
*417 FILLER_11_69
*418 FILLER_11_81
*419 FILLER_11_93
*420 FILLER_12_109
*421 FILLER_12_119
*422 FILLER_12_127
*423 FILLER_12_21
*424 FILLER_12_27
*425 FILLER_12_29
*426 FILLER_12_41
*427 FILLER_12_53
*428 FILLER_12_65
*429 FILLER_12_77
*430 FILLER_12_83
*431 FILLER_12_85
*432 FILLER_12_9
*433 FILLER_12_97
*434 FILLER_13_101
*435 FILLER_13_109
*436 FILLER_13_113
*437 FILLER_13_125
*438 FILLER_13_129
*439 FILLER_13_133
*440 FILLER_13_141
*441 FILLER_13_3
*442 FILLER_13_31
*443 FILLER_13_43
*444 FILLER_13_55
*445 FILLER_13_57
*446 FILLER_13_69
*447 FILLER_13_81
*448 FILLER_13_93
*449 FILLER_14_105
*450 FILLER_14_126
*451 FILLER_14_139
*452 FILLER_14_14
*453 FILLER_14_24
*454 FILLER_14_29
*455 FILLER_14_41
*456 FILLER_14_53
*457 FILLER_14_6
*458 FILLER_14_65
*459 FILLER_14_77
*460 FILLER_14_83
*461 FILLER_14_85
*462 FILLER_14_97
*463 FILLER_15_100
*464 FILLER_15_113
*465 FILLER_15_125
*466 FILLER_15_13
*467 FILLER_15_137
*468 FILLER_15_25
*469 FILLER_15_35
*470 FILLER_15_47
*471 FILLER_15_57
*472 FILLER_15_70
*473 FILLER_15_82
*474 FILLER_15_94
*475 FILLER_16_111
*476 FILLER_16_131
*477 FILLER_16_139
*478 FILLER_16_17
*479 FILLER_16_25
*480 FILLER_16_29
*481 FILLER_16_41
*482 FILLER_16_49
*483 FILLER_16_54
*484 FILLER_16_66
*485 FILLER_16_7
*486 FILLER_16_78
*487 FILLER_16_85
*488 FILLER_16_91
*489 FILLER_17_102
*490 FILLER_17_113
*491 FILLER_17_120
*492 FILLER_17_128
*493 FILLER_17_138
*494 FILLER_17_14
*495 FILLER_17_26
*496 FILLER_17_34
*497 FILLER_17_43
*498 FILLER_17_47
*499 FILLER_17_55
*500 FILLER_17_57
*501 FILLER_17_63
*502 FILLER_17_72
*503 FILLER_17_87
*504 FILLER_17_94
*505 FILLER_18_109
*506 FILLER_18_121
*507 FILLER_18_135
*508 FILLER_18_139
*509 FILLER_18_141
*510 FILLER_18_18
*511 FILLER_18_26
*512 FILLER_18_29
*513 FILLER_18_33
*514 FILLER_18_45
*515 FILLER_18_53
*516 FILLER_18_6
*517 FILLER_18_63
*518 FILLER_18_75
*519 FILLER_18_82
*520 FILLER_18_85
*521 FILLER_18_97
*522 FILLER_19_10
*523 FILLER_19_100
*524 FILLER_19_126
*525 FILLER_19_130
*526 FILLER_19_137
*527 FILLER_19_21
*528 FILLER_19_36
*529 FILLER_19_55
*530 FILLER_19_57
*531 FILLER_19_65
*532 FILLER_19_72
*533 FILLER_19_80
*534 FILLER_19_88
*535 FILLER_1_106
*536 FILLER_1_119
*537 FILLER_1_12
*538 FILLER_1_136
*539 FILLER_1_3
*540 FILLER_1_41
*541 FILLER_1_50
*542 FILLER_1_57
*543 FILLER_1_76
*544 FILLER_1_84
*545 FILLER_20_107
*546 FILLER_20_115
*547 FILLER_20_127
*548 FILLER_20_15
*549 FILLER_20_27
*550 FILLER_20_29
*551 FILLER_20_38
*552 FILLER_20_50
*553 FILLER_20_62
*554 FILLER_20_76
*555 FILLER_20_82
*556 FILLER_20_92
*557 FILLER_20_96
*558 FILLER_21_110
*559 FILLER_21_113
*560 FILLER_21_120
*561 FILLER_21_140
*562 FILLER_21_20
*563 FILLER_21_26
*564 FILLER_21_3
*565 FILLER_21_31
*566 FILLER_21_43
*567 FILLER_21_47
*568 FILLER_21_55
*569 FILLER_21_65
*570 FILLER_21_77
*571 FILLER_21_89
*572 FILLER_21_98
*573 FILLER_22_107
*574 FILLER_22_126
*575 FILLER_22_134
*576 FILLER_22_15
*577 FILLER_22_20
*578 FILLER_22_27
*579 FILLER_22_36
*580 FILLER_22_49
*581 FILLER_22_58
*582 FILLER_22_70
*583 FILLER_22_85
*584 FILLER_22_91
*585 FILLER_23_104
*586 FILLER_23_113
*587 FILLER_23_125
*588 FILLER_23_14
*589 FILLER_23_22
*590 FILLER_23_29
*591 FILLER_23_42
*592 FILLER_23_48
*593 FILLER_23_55
*594 FILLER_23_57
*595 FILLER_23_63
*596 FILLER_23_70
*597 FILLER_23_76
*598 FILLER_23_83
*599 FILLER_23_85
*600 FILLER_23_9
*601 FILLER_23_91
*602 FILLER_23_97
*603 FILLER_2_103
*604 FILLER_2_111
*605 FILLER_2_131
*606 FILLER_2_22
*607 FILLER_2_29
*608 FILLER_2_34
*609 FILLER_2_43
*610 FILLER_2_62
*611 FILLER_2_74
*612 FILLER_2_81
*613 FILLER_2_85
*614 FILLER_2_9
*615 FILLER_3_100
*616 FILLER_3_12
*617 FILLER_3_120
*618 FILLER_3_132
*619 FILLER_3_140
*620 FILLER_3_24
*621 FILLER_3_3
*622 FILLER_3_36
*623 FILLER_3_48
*624 FILLER_3_57
*625 FILLER_3_63
*626 FILLER_3_73
*627 FILLER_3_81
*628 FILLER_3_88
*629 FILLER_4_109
*630 FILLER_4_121
*631 FILLER_4_128
*632 FILLER_4_136
*633 FILLER_4_16
*634 FILLER_4_38
*635 FILLER_4_50
*636 FILLER_4_56
*637 FILLER_4_6
*638 FILLER_4_64
*639 FILLER_4_73
*640 FILLER_4_77
*641 FILLER_4_83
*642 FILLER_4_85
*643 FILLER_4_97
*644 FILLER_5_10
*645 FILLER_5_103
*646 FILLER_5_110
*647 FILLER_5_124
*648 FILLER_5_134
*649 FILLER_5_143
*650 FILLER_5_21
*651 FILLER_5_29
*652 FILLER_5_41
*653 FILLER_5_54
*654 FILLER_5_57
*655 FILLER_5_69
*656 FILLER_5_77
*657 FILLER_5_99
*658 FILLER_6_101
*659 FILLER_6_12
*660 FILLER_6_122
*661 FILLER_6_129
*662 FILLER_6_141
*663 FILLER_6_24
*664 FILLER_6_3
*665 FILLER_6_36
*666 FILLER_6_40
*667 FILLER_6_48
*668 FILLER_6_60
*669 FILLER_6_72
*670 FILLER_6_85
*671 FILLER_6_93
*672 FILLER_7_10
*673 FILLER_7_105
*674 FILLER_7_111
*675 FILLER_7_113
*676 FILLER_7_125
*677 FILLER_7_137
*678 FILLER_7_22
*679 FILLER_7_3
*680 FILLER_7_34
*681 FILLER_7_46
*682 FILLER_7_54
*683 FILLER_7_57
*684 FILLER_7_69
*685 FILLER_7_81
*686 FILLER_7_93
*687 FILLER_8_109
*688 FILLER_8_118
*689 FILLER_8_130
*690 FILLER_8_136
*691 FILLER_8_27
*692 FILLER_8_29
*693 FILLER_8_3
*694 FILLER_8_46
*695 FILLER_8_58
*696 FILLER_8_70
*697 FILLER_8_82
*698 FILLER_8_85
*699 FILLER_8_97
*700 FILLER_9_106
*701 FILLER_9_113
*702 FILLER_9_117
*703 FILLER_9_18
*704 FILLER_9_30
*705 FILLER_9_38
*706 FILLER_9_50
*707 FILLER_9_57
*708 FILLER_9_6
*709 FILLER_9_69
*710 FILLER_9_81
*711 FILLER_9_93
*712 PHY_EDGE_ROW_0_Left_24
*713 PHY_EDGE_ROW_0_Right_0
*714 PHY_EDGE_ROW_10_Left_34
*715 PHY_EDGE_ROW_10_Right_10
*716 PHY_EDGE_ROW_11_Left_35
*717 PHY_EDGE_ROW_11_Right_11
*718 PHY_EDGE_ROW_12_Left_36
*719 PHY_EDGE_ROW_12_Right_12
*720 PHY_EDGE_ROW_13_Left_37
*721 PHY_EDGE_ROW_13_Right_13
*722 PHY_EDGE_ROW_14_Left_38
*723 PHY_EDGE_ROW_14_Right_14
*724 PHY_EDGE_ROW_15_Left_39
*725 PHY_EDGE_ROW_15_Right_15
*726 PHY_EDGE_ROW_16_Left_40
*727 PHY_EDGE_ROW_16_Right_16
*728 PHY_EDGE_ROW_17_Left_41
*729 PHY_EDGE_ROW_17_Right_17
*730 PHY_EDGE_ROW_18_Left_42
*731 PHY_EDGE_ROW_18_Right_18
*732 PHY_EDGE_ROW_19_Left_43
*733 PHY_EDGE_ROW_19_Right_19
*734 PHY_EDGE_ROW_1_Left_25
*735 PHY_EDGE_ROW_1_Right_1
*736 PHY_EDGE_ROW_20_Left_44
*737 PHY_EDGE_ROW_20_Right_20
*738 PHY_EDGE_ROW_21_Left_45
*739 PHY_EDGE_ROW_21_Right_21
*740 PHY_EDGE_ROW_22_Left_46
*741 PHY_EDGE_ROW_22_Right_22
*742 PHY_EDGE_ROW_23_Left_47
*743 PHY_EDGE_ROW_23_Right_23
*744 PHY_EDGE_ROW_2_Left_26
*745 PHY_EDGE_ROW_2_Right_2
*746 PHY_EDGE_ROW_3_Left_27
*747 PHY_EDGE_ROW_3_Right_3
*748 PHY_EDGE_ROW_4_Left_28
*749 PHY_EDGE_ROW_4_Right_4
*750 PHY_EDGE_ROW_5_Left_29
*751 PHY_EDGE_ROW_5_Right_5
*752 PHY_EDGE_ROW_6_Left_30
*753 PHY_EDGE_ROW_6_Right_6
*754 PHY_EDGE_ROW_7_Left_31
*755 PHY_EDGE_ROW_7_Right_7
*756 PHY_EDGE_ROW_8_Left_32
*757 PHY_EDGE_ROW_8_Right_8
*758 PHY_EDGE_ROW_9_Left_33
*759 PHY_EDGE_ROW_9_Right_9
*760 TAP_TAPCELL_ROW_0_48
*761 TAP_TAPCELL_ROW_0_49
*762 TAP_TAPCELL_ROW_0_50
*763 TAP_TAPCELL_ROW_0_51
*764 TAP_TAPCELL_ROW_0_52
*765 TAP_TAPCELL_ROW_10_75
*766 TAP_TAPCELL_ROW_10_76
*767 TAP_TAPCELL_ROW_10_77
*768 TAP_TAPCELL_ROW_11_78
*769 TAP_TAPCELL_ROW_11_79
*770 TAP_TAPCELL_ROW_12_80
*771 TAP_TAPCELL_ROW_12_81
*772 TAP_TAPCELL_ROW_12_82
*773 TAP_TAPCELL_ROW_13_83
*774 TAP_TAPCELL_ROW_13_84
*775 TAP_TAPCELL_ROW_14_85
*776 TAP_TAPCELL_ROW_14_86
*777 TAP_TAPCELL_ROW_14_87
*778 TAP_TAPCELL_ROW_15_88
*779 TAP_TAPCELL_ROW_15_89
*780 TAP_TAPCELL_ROW_16_90
*781 TAP_TAPCELL_ROW_16_91
*782 TAP_TAPCELL_ROW_16_92
*783 TAP_TAPCELL_ROW_17_93
*784 TAP_TAPCELL_ROW_17_94
*785 TAP_TAPCELL_ROW_18_95
*786 TAP_TAPCELL_ROW_18_96
*787 TAP_TAPCELL_ROW_18_97
*788 TAP_TAPCELL_ROW_19_98
*789 TAP_TAPCELL_ROW_19_99
*790 TAP_TAPCELL_ROW_1_53
*791 TAP_TAPCELL_ROW_1_54
*792 TAP_TAPCELL_ROW_20_100
*793 TAP_TAPCELL_ROW_20_101
*794 TAP_TAPCELL_ROW_20_102
*795 TAP_TAPCELL_ROW_21_103
*796 TAP_TAPCELL_ROW_21_104
*797 TAP_TAPCELL_ROW_22_105
*798 TAP_TAPCELL_ROW_22_106
*799 TAP_TAPCELL_ROW_22_107
*800 TAP_TAPCELL_ROW_23_108
*801 TAP_TAPCELL_ROW_23_109
*802 TAP_TAPCELL_ROW_23_110
*803 TAP_TAPCELL_ROW_23_111
*804 TAP_TAPCELL_ROW_23_112
*805 TAP_TAPCELL_ROW_2_55
*806 TAP_TAPCELL_ROW_2_56
*807 TAP_TAPCELL_ROW_2_57
*808 TAP_TAPCELL_ROW_3_58
*809 TAP_TAPCELL_ROW_3_59
*810 TAP_TAPCELL_ROW_4_60
*811 TAP_TAPCELL_ROW_4_61
*812 TAP_TAPCELL_ROW_4_62
*813 TAP_TAPCELL_ROW_5_63
*814 TAP_TAPCELL_ROW_5_64
*815 TAP_TAPCELL_ROW_6_65
*816 TAP_TAPCELL_ROW_6_66
*817 TAP_TAPCELL_ROW_6_67
*818 TAP_TAPCELL_ROW_7_68
*819 TAP_TAPCELL_ROW_7_69
*820 TAP_TAPCELL_ROW_8_70
*821 TAP_TAPCELL_ROW_8_71
*822 TAP_TAPCELL_ROW_8_72
*823 TAP_TAPCELL_ROW_9_73
*824 TAP_TAPCELL_ROW_9_74
*825 _176_
*826 _177_
*827 _178_
*828 _179_
*829 _180_
*830 _181_
*831 _182_
*832 _183_
*833 _184_
*834 _185_
*835 _186_
*836 _187_
*837 _188_
*838 _189_
*839 _190_
*840 _191_
*841 _192_
*842 _193_
*843 _194_
*844 _195_
*845 _196_
*846 _197_
*847 _198_
*848 _199_
*849 _200_
*850 _201_
*851 _202_
*852 _203_
*853 _204_
*854 _205_
*855 _206_
*856 _207_
*857 _208_
*858 _209_
*859 _210_
*860 _211_
*861 _212_
*862 _213_
*863 _214_
*864 _215_
*865 _216_
*866 _217_
*867 _218_
*868 _219_
*869 _220_
*870 _221_
*871 _222_
*872 _223_
*873 _224_
*874 _225_
*875 _226_
*876 _227_
*877 _228_
*878 _229_
*879 _230_
*880 _231_
*881 _232_
*882 _233_
*883 _234_
*884 _235_
*885 _236_
*886 _237_
*887 _238_
*888 _239_
*889 _240_
*890 _241_
*891 _242_
*892 _243_
*893 _244_
*894 _245_
*895 _246_
*896 _247_
*897 _248_
*898 _249_
*899 _250_
*900 _251_
*901 _252_
*902 _253_
*903 _254_
*904 _255_
*905 _256_
*906 _257_
*907 _258_
*908 _259_
*909 _260_
*910 _261_
*911 _262_
*912 _263_
*913 _264_
*914 _265_
*915 _266_
*916 _267_
*917 _268_
*918 _269_
*919 _270_
*920 _271_
*921 _272_
*922 _273_
*923 _274_
*924 _275_
*925 _276_
*926 _277_
*927 _278_
*928 _279_
*929 _280_
*930 _281_
*931 _282_
*932 _283_
*933 _284_
*934 _285_
*935 _286_
*936 _287_
*937 _288_
*938 _289_
*939 _290_
*940 _291_
*941 _292_
*942 _293_
*943 _294_
*944 _295_
*945 _296_
*946 _297_
*947 _298_
*948 _299_
*949 _300_
*950 _301_
*951 _302_
*952 _303_
*953 _304_
*954 _305_
*955 _306_
*956 _307_
*957 _308_
*958 _309_
*959 _310_
*960 _311_
*961 _312_
*962 _313_
*963 _314_
*964 _315_
*965 _316_
*966 _317_
*967 _318_
*968 _319_
*969 _320_
*970 _321_
*971 _322_
*972 _323_
*973 _324_
*974 _325_
*975 _326_
*976 _327_
*977 _328_
*978 _329_
*979 _330_
*980 _331_
*981 _332_
*982 _333_
*983 _334_
*984 _335_
*985 _336_
*986 _337_
*987 _338_
*988 _339_
*989 _340_
*990 _341_
*991 _342_
*992 _343_
*993 _344_
*994 _345_
*995 _346_
*996 _347_
*997 _348_
*998 _349_
*999 _350_
*1000 _351_
*1001 _352_
*1002 _353_
*1003 _354_
*1004 _355_
*1005 _356_
*1006 _357_
*1007 _358_
*1008 _359_
*1009 _360_
*1010 _361_
*1011 _362_
*1012 _363_
*1013 _364_
*1014 _365_
*1015 _366_
*1016 _367_
*1017 _368_
*1018 _369_
*1019 _370_
*1020 _371_
*1021 _372_
*1022 _373_
*1023 _374_
*1024 _375_
*1025 _376_
*1026 _377_
*1027 _378_
*1028 _379_
*1029 _380_
*1030 _381_
*1031 _382_
*1032 _383_
*1033 _384_
*1034 input1
*1035 input10
*1036 input11
*1037 input12
*1038 input13
*1039 input14
*1040 input15
*1041 input16
*1042 input17
*1043 input18
*1044 input19
*1045 input2
*1046 input20
*1047 input21
*1048 input22
*1049 input23
*1050 input24
*1051 input25
*1052 input26
*1053 input27
*1054 input28
*1055 input29
*1056 input3
*1057 input30
*1058 input31
*1059 input32
*1060 input33
*1061 input34
*1062 input35
*1063 input36
*1064 input37
*1065 input38
*1066 input39
*1067 input4
*1068 input40
*1069 input41
*1070 input42
*1071 input43
*1072 input44
*1073 input45
*1074 input46
*1075 input47
*1076 input48
*1077 input49
*1078 input5
*1079 input50
*1080 input51
*1081 input52
*1082 input53
*1083 input54
*1084 input55
*1085 input56
*1086 input57
*1087 input58
*1088 input59
*1089 input6
*1090 input60
*1091 input61
*1092 input62
*1093 input63
*1094 input64
*1095 input65
*1096 input7
*1097 input8
*1098 input9
*1099 output66
*1100 output67
*1101 output68
*1102 output69
*1103 output70
*1104 output71
*1105 output72
*1106 output73
*1107 output74
*1108 output75
*1109 output76
*1110 output77
*1111 output78
*1112 output79
*1113 output80
*1114 output81
*1115 output82
*1116 output83
*1117 output84
*1118 output85
*1119 output86
*1120 output87
*1121 output88
*1122 output89
*1123 output90
*1124 output91
*1125 output92
*1126 output93
*1127 output94
*1128 output95
*1129 output96
*1130 output97
*1131 output98

*PORTS
a[0] I
a[10] I
a[11] I
a[12] I
a[13] I
a[14] I
a[15] I
a[16] I
a[17] I
a[18] I
a[19] I
a[1] I
a[20] I
a[21] I
a[22] I
a[23] I
a[24] I
a[25] I
a[26] I
a[27] I
a[28] I
a[29] I
a[2] I
a[30] I
a[31] I
a[3] I
a[4] I
a[5] I
a[6] I
a[7] I
a[8] I
a[9] I
b[0] I
b[10] I
b[11] I
b[12] I
b[13] I
b[14] I
b[15] I
b[16] I
b[17] I
b[18] I
b[19] I
b[1] I
b[20] I
b[21] I
b[22] I
b[23] I
b[24] I
b[25] I
b[26] I
b[27] I
b[28] I
b[29] I
b[2] I
b[30] I
b[31] I
b[3] I
b[4] I
b[5] I
b[6] I
b[7] I
b[8] I
b[9] I
cin I
cout O
sum[0] O
sum[10] O
sum[11] O
sum[12] O
sum[13] O
sum[14] O
sum[15] O
sum[16] O
sum[17] O
sum[18] O
sum[19] O
sum[1] O
sum[20] O
sum[21] O
sum[22] O
sum[23] O
sum[24] O
sum[25] O
sum[26] O
sum[27] O
sum[28] O
sum[29] O
sum[2] O
sum[30] O
sum[31] O
sum[3] O
sum[4] O
sum[5] O
sum[6] O
sum[7] O
sum[8] O
sum[9] O

*D_NET *3 0.00185135
*CONN
*P a[0] I
*I *1034:A I *D sky130_fd_sc_hd__clkbuf_1
*CAP
1 a[0] 0.000594907
2 *1034:A 0
3 *3:11 0.000594907
4 *3:11 sum[0] 0
5 *3:11 sum[2] 0.000273073
6 *3:11 *67:11 0.000310641
7 *3:11 *292:10 3.16665e-05
8 *3:11 *338:10 4.61549e-05
*RES
1 a[0] *3:11 30.1421 
2 *3:11 *1034:A 23 
*END

*D_NET *4 0.000527046
*CONN
*P a[10] I
*I *1045:A I *D sky130_fd_sc_hd__clkbuf_1
*CAP
1 a[10] 0.000179501
2 *1045:A 0.000179501
3 *1045:A *890:A 0
4 *1045:A *1061:A 8.06684e-05
5 *1045:A *1094:A 8.73764e-05
*RES
1 a[10] *1045:A 47.1648 
*END

*D_NET *5 0.00124461
*CONN
*P a[11] I
*I *1056:A I *D sky130_fd_sc_hd__clkbuf_1
*CAP
1 a[11] 0.000427186
2 *1056:A 0.000427186
3 *1056:A sum[11] 9.75993e-05
4 *1056:A sum[12] 9.36312e-05
5 *1056:A sum[13] 0
6 *1056:A *907:A1 1.01436e-05
7 *1056:A *134:10 0.000167443
8 *1056:A *299:8 2.14226e-05
*RES
1 a[11] *1056:A 49.9733 
*END

*D_NET *6 0.002557
*CONN
*P a[12] I
*I *1067:A I *D sky130_fd_sc_hd__clkbuf_1
*CAP
1 a[12] 0.000628694
2 *1067:A 0
3 *6:15 0.000628694
4 *6:15 *898:B 0
5 *6:15 *7:15 6.23473e-05
6 *6:15 *8:11 0.000237056
7 *6:15 *65:13 0.00094608
8 *6:15 *365:22 5.41288e-05
*RES
1 a[12] *6:15 39.1529 
2 *6:15 *1067:A 23 
*END

*D_NET *7 0.00194404
*CONN
*P a[13] I
*I *1078:A I *D sky130_fd_sc_hd__buf_1
*CAP
1 a[13] 0.000750807
2 *1078:A 0
3 *7:15 0.000750807
4 *7:15 sum[15] 0
5 *7:15 *1065:A 0.000195805
6 *7:15 *8:11 5.12254e-05
7 *7:15 *33:15 0.000133054
8 *7:15 *65:13 0
9 *6:15 *7:15 6.23473e-05
*RES
1 a[13] *7:15 31.4539 
2 *7:15 *1078:A 23 
*END

*D_NET *8 0.00302595
*CONN
*P a[14] I
*I *1089:A I *D sky130_fd_sc_hd__clkbuf_1
*CAP
1 a[14] 0.000992251
2 *1089:A 0
3 *8:11 0.000992251
4 *8:11 sum[15] 1.5769e-05
5 *8:11 *1066:A 0.00014196
6 *8:11 *1098:A 5.50106e-05
7 *8:11 *33:15 5.41288e-05
8 *8:11 *308:10 3.22879e-05
9 *8:11 *309:10 4.95081e-05
10 *8:11 *332:10 0.000404502
11 *6:15 *8:11 0.000237056
12 *7:15 *8:11 5.12254e-05
*RES
1 a[14] *8:11 38.9871 
2 *8:11 *1089:A 23 
*END

*D_NET *9 0.000904685
*CONN
*P a[15] I
*I *1096:A I *D sky130_fd_sc_hd__clkbuf_1
*CAP
1 a[15] 0.000452343
2 *1096:A 0.000452343
3 *1096:A sum[17] 0
4 *1096:A *1066:A 0
5 *1096:A *349:10 0
*RES
1 a[15] *1096:A 47.3214 
*END

*D_NET *10 0.00355375
*CONN
*P a[16] I
*I *1097:A I *D sky130_fd_sc_hd__buf_1
*CAP
1 a[16] 0.000819808
2 *1097:A 0.000298457
3 *10:11 0.00111826
4 *1097:A sum[19] 0
5 *1097:A *964:A1 0
6 *1097:A *1039:A 0.000439085
7 *1097:A *18:13 0.000393811
8 *1097:A *47:13 5.50106e-05
9 *1097:A *219:8 2.4754e-05
10 *1097:A *284:16 3.01458e-05
11 *1097:A *356:10 0.000152572
12 *1097:A *359:16 0.000138727
13 *10:11 sum[25] 8.31196e-05
*RES
1 a[16] *10:11 46.0743 
2 *10:11 *1097:A 48.1914 
*END

*D_NET *11 0.00101385
*CONN
*P a[17] I
*I *1098:A I *D sky130_fd_sc_hd__buf_1
*CAP
1 a[17] 0.000364245
2 *1098:A 0.000364245
3 *1098:A sum[15] 0
4 *1098:A *33:15 0
5 *1098:A *65:13 0.00023035
6 *1098:A *347:10 0
7 *8:11 *1098:A 5.50106e-05
*RES
1 a[17] *1098:A 47.3214 
*END

*D_NET *12 0.00202934
*CONN
*P a[18] I
*I *1035:A I *D sky130_fd_sc_hd__clkbuf_1
*CAP
1 a[18] 0.000675664
2 *1035:A 0
3 *12:17 0.000675664
4 *12:17 sum[24] 0.000212334
5 *12:17 sum[25] 0
6 *12:17 *1036:A 0.000137624
7 *12:17 *85:8 9.84851e-05
8 *12:17 *86:8 8.94599e-05
9 *12:17 *279:8 9.58444e-05
10 *12:17 *358:24 0
11 *12:17 *359:16 4.42658e-05
*RES
1 a[18] *12:17 30.8464 
2 *12:17 *1035:A 23 
*END

*D_NET *13 0.00115017
*CONN
*P a[19] I
*I *1036:A I *D sky130_fd_sc_hd__buf_1
*CAP
1 a[19] 0.000477926
2 *1036:A 0.000477926
3 *1036:A sum[19] 0
4 *1036:A *358:24 2.79355e-05
5 *1036:A *359:16 2.87553e-05
6 *12:17 *1036:A 0.000137624
*RES
1 a[19] *1036:A 47.9429 
*END

*D_NET *14 0.00118729
*CONN
*P a[1] I
*I *1037:A I *D sky130_fd_sc_hd__clkbuf_1
*CAP
1 a[1] 0.000593645
2 *1037:A 0
3 *14:9 0.000593645
4 *14:9 sum[8] 0
5 *14:9 *46:9 0
6 *14:9 *373:10 0
*RES
1 a[1] *14:9 28.0914 
2 *14:9 *1037:A 23 
*END

*D_NET *15 0.000723631
*CONN
*P a[20] I
*I *1038:A I *D sky130_fd_sc_hd__clkbuf_1
*CAP
1 a[20] 0.000239254
2 *1038:A 0.000239254
3 *1038:A sum[23] 7.82365e-05
4 *1038:A *1075:A 0.000111017
5 *1038:A *220:10 0
6 *1038:A *281:8 5.58694e-05
*RES
1 a[20] *1038:A 49.1918 
*END

*D_NET *16 0.00120069
*CONN
*P a[21] I
*I *1039:A I *D sky130_fd_sc_hd__buf_1
*CAP
1 a[21] 0.000378488
2 *1039:A 0.000378488
3 *1039:A sum[19] 0
4 *1039:A sum[22] 0
5 *1039:A *356:10 4.6318e-06
6 *1097:A *1039:A 0.000439085
*RES
1 a[21] *1039:A 47.3214 
*END

*D_NET *17 0.00105657
*CONN
*P a[22] I
*I *1040:A I *D sky130_fd_sc_hd__clkbuf_1
*CAP
1 a[22] 0.000473875
2 *1040:A 0
3 *17:15 0.000473875
4 *17:15 *1075:A 2.12457e-05
5 *17:15 *47:13 3.25681e-05
6 *17:15 *318:10 5.50049e-05
*RES
1 a[22] *17:15 31.2725 
2 *17:15 *1040:A 23 
*END

*D_NET *18 0.00283985
*CONN
*P a[23] I
*I *1041:A I *D sky130_fd_sc_hd__clkbuf_1
*CAP
1 a[23] 0.00097201
2 *1041:A 0
3 *18:13 0.00097201
4 *18:13 sum[19] 0
5 *18:13 sum[24] 0
6 *18:13 sum[25] 3.49463e-05
7 *18:13 *47:13 0.000217083
8 *18:13 *279:8 9.41704e-05
9 *18:13 *284:16 6.16531e-05
10 *18:13 *351:14 9.41704e-05
11 *1097:A *18:13 0.000393811
*RES
1 a[23] *18:13 31.6524 
2 *18:13 *1041:A 23 
*END

*D_NET *19 0.000993861
*CONN
*P a[24] I
*I *1042:A I *D sky130_fd_sc_hd__clkbuf_1
*CAP
1 a[24] 0.000313277
2 *1042:A 0
3 *19:15 0.000313277
4 *19:15 *979:A 5.67058e-05
5 *19:15 *1076:A 4.40799e-05
6 *19:15 *1077:A 4.40799e-05
7 *19:15 *230:10 0.000187129
8 *19:15 *285:8 3.53115e-05
*RES
1 a[24] *19:15 29.1419 
2 *19:15 *1042:A 23 
*END

*D_NET *20 0.000696253
*CONN
*P a[25] I
*I *1043:A I *D sky130_fd_sc_hd__clkbuf_1
*CAP
1 a[25] 0.000278887
2 *1043:A 0.000278887
3 *1043:A sum[27] 2.12457e-05
4 *1043:A *1079:A 7.82365e-05
5 *1043:A *226:8 0
6 *1043:A *286:10 3.89972e-05
*RES
1 a[25] *1043:A 49.1918 
*END

*D_NET *21 0.00106883
*CONN
*P a[26] I
*I *1044:A I *D sky130_fd_sc_hd__buf_1
*CAP
1 a[26] 0.000398288
2 *1044:A 0.000398288
3 *1044:A *1000:B 4.75766e-05
4 *1044:A *1030:A2 1.14452e-05
5 *1044:A *22:19 3.12475e-05
6 *1044:A *26:17 2.12457e-05
7 *1044:A *27:15 0
8 *1044:A *31:17 9.90862e-05
9 *1044:A *54:11 0
10 *1044:A *294:21 6.16531e-05
*RES
1 a[26] *1044:A 48.5647 
*END

*D_NET *22 0.000938127
*CONN
*P a[27] I
*I *1046:A I *D sky130_fd_sc_hd__buf_1
*CAP
1 a[27] 0.000399171
2 *1046:A 0
3 *22:19 0.000399171
4 *22:19 *54:11 2.12457e-05
5 *22:19 *59:15 3.22879e-05
6 *22:19 *324:10 5.50049e-05
7 *1044:A *22:19 3.12475e-05
*RES
1 a[27] *22:19 29.0848 
2 *22:19 *1046:A 23 
*END

*D_NET *23 0.00114395
*CONN
*P a[28] I
*I *1047:A I *D sky130_fd_sc_hd__buf_1
*CAP
1 a[28] 0.000555831
2 *1047:A 0
3 *23:9 0.000555831
4 *23:9 sum[29] 0
5 *23:9 *55:11 0
6 *23:9 *291:43 3.22879e-05
*RES
1 a[28] *23:9 27.1386 
2 *23:9 *1047:A 23 
*END

*D_NET *24 0.00149475
*CONN
*P a[29] I
*I *1048:A I *D sky130_fd_sc_hd__buf_1
*CAP
1 a[29] 0.000569932
2 *1048:A 0
3 *24:11 0.000569932
4 *24:11 cout 0
5 *24:11 *26:17 5.67058e-05
6 *24:11 *59:15 0.000278331
7 *24:11 *291:20 5.90675e-06
8 *24:11 *293:6 1.39431e-05
*RES
1 a[29] *24:11 28.7129 
2 *24:11 *1048:A 23 
*END

*D_NET *25 0.00219453
*CONN
*P a[2] I
*I *1049:A I *D sky130_fd_sc_hd__clkbuf_1
*CAP
1 a[2] 0.000807723
2 *1049:A 0
3 *25:11 0.000807723
4 *25:11 sum[2] 0.000121039
5 *25:11 sum[9] 0.000268242
6 *25:11 *28:13 0.00017635
7 *25:11 *35:9 0
8 *25:11 *57:11 1.34542e-05
*RES
1 a[2] *25:11 32.6674 
2 *25:11 *1049:A 23 
*END

*D_NET *26 0.000914291
*CONN
*P a[30] I
*I *1050:A I *D sky130_fd_sc_hd__buf_1
*CAP
1 a[30] 0.000404214
2 *1050:A 0
3 *26:17 0.000404214
4 *26:17 *27:15 2.79122e-05
5 *1044:A *26:17 2.12457e-05
6 *24:11 *26:17 5.67058e-05
*RES
1 a[30] *26:17 29.2712 
2 *26:17 *1050:A 23 
*END

*D_NET *27 0.00200778
*CONN
*P a[31] I
*I *1051:A I *D sky130_fd_sc_hd__buf_1
*CAP
1 a[31] 0.000772987
2 *1051:A 0
3 *27:15 0.000772987
4 *27:15 *53:11 5.70965e-05
5 *27:15 *59:15 0
6 *27:15 *273:10 3.81391e-05
7 *27:15 *274:10 1.33122e-05
8 *27:15 *275:10 5.37348e-06
9 *27:15 *294:8 0.000180218
10 *27:15 *329:25 0.000139754
11 *1044:A *27:15 0
12 *26:17 *27:15 2.79122e-05
*RES
1 a[31] *27:15 36.2529 
2 *27:15 *1051:A 23 
*END

*D_NET *28 0.00253595
*CONN
*P a[3] I
*I *1052:A I *D sky130_fd_sc_hd__clkbuf_1
*CAP
1 a[3] 0.000761936
2 *1052:A 0
3 *28:13 0.000761936
4 *28:13 sum[0] 0
5 *28:13 sum[9] 0
6 *28:13 *57:11 0.000176657
7 *28:13 *67:11 7.99416e-05
8 *28:13 *103:10 6.33614e-05
9 *28:13 *105:10 2.93845e-05
10 *28:13 *277:8 0.000191157
11 *28:13 *302:10 5.94125e-05
12 *28:13 *327:8 5.3304e-05
13 *28:13 *340:10 0
14 *28:13 *364:10 4.98718e-06
15 *28:13 *374:14 0.000177522
16 *25:11 *28:13 0.00017635
*RES
1 a[3] *28:13 34.8865 
2 *28:13 *1052:A 23 
*END

*D_NET *29 0.000579211
*CONN
*P a[4] I
*I *1053:A I *D sky130_fd_sc_hd__clkbuf_1
*CAP
1 a[4] 0.000204085
2 *1053:A 0.000204085
3 *1053:A sum[10] 8.97484e-05
4 *1053:A sum[4] 8.12933e-05
*RES
1 a[4] *1053:A 47.8691 
*END

*D_NET *30 0.00114193
*CONN
*P a[5] I
*I *1054:A I *D sky130_fd_sc_hd__clkbuf_1
*CAP
1 a[5] 0.000569108
2 *1054:A 0
3 *30:9 0.000569108
4 *30:9 *62:9 0
5 *30:9 *96:8 0
6 *30:9 *333:10 3.7122e-06
*RES
1 a[5] *30:9 27.1386 
2 *30:9 *1054:A 23 
*END

*D_NET *31 0.00418827
*CONN
*P a[6] I
*I *1055:A I *D sky130_fd_sc_hd__buf_1
*CAP
1 a[6] 0.00147441
2 *1055:A 0
3 *31:17 0.00147441
4 *31:17 cout 0.00043097
5 *31:17 *1000:B 6.90424e-05
6 *31:17 *1030:A2 8.92738e-05
7 *31:17 *53:11 0
8 *31:17 *56:15 0
9 *31:17 *58:13 0
10 *31:17 *59:15 9.36312e-05
11 *31:17 *274:10 6.32688e-05
12 *31:17 *287:8 0.000168754
13 *31:17 *293:12 0.000164291
14 *31:17 *329:25 3.14377e-05
15 *31:17 *339:8 2.96909e-05
16 *1044:A *31:17 9.90862e-05
*RES
1 a[6] *31:17 49.6053 
2 *31:17 *1055:A 23 
*END

*D_NET *32 0.000672063
*CONN
*P a[7] I
*I *1057:A I *D sky130_fd_sc_hd__buf_1
*CAP
1 a[7] 0.00027433
2 *1057:A 0.00027433
3 *1057:A *1014:A_N 0
4 *1057:A *1077:A 2.12457e-05
5 *1057:A *1092:A 0.000102158
*RES
1 a[7] *1057:A 48.0222 
*END

*D_NET *33 0.0014376
*CONN
*P a[8] I
*I *1058:A I *D sky130_fd_sc_hd__buf_1
*CAP
1 a[8] 0.000516137
2 *1058:A 0
3 *33:15 0.000516137
4 *33:15 sum[14] 8.7886e-05
5 *33:15 sum[15] 0.00013026
6 *1098:A *33:15 0
7 *7:15 *33:15 0.000133054
8 *8:11 *33:15 5.41288e-05
*RES
1 a[8] *33:15 27.3314 
2 *33:15 *1058:A 23 
*END

*D_NET *34 0.00151703
*CONN
*P a[9] I
*I *1059:A I *D sky130_fd_sc_hd__clkbuf_1
*CAP
1 a[9] 0.000468552
2 *1059:A 0.000468552
3 *1059:A sum[3] 0
4 *1059:A *830:B 0.000164048
5 *1059:A *1087:A 8.06684e-05
6 *1059:A *57:11 0.000144278
7 *1059:A *292:10 1.20966e-05
8 *1059:A *364:10 0.00017884
*RES
1 a[9] *1059:A 49.8787 
*END

*D_NET *35 0.00112116
*CONN
*P b[0] I
*I *1060:A I *D sky130_fd_sc_hd__clkbuf_1
*CAP
1 b[0] 0.000557542
2 *1060:A 0
3 *35:9 0.000557542
4 *35:9 sum[9] 0
5 *35:9 *835:A 6.07611e-06
6 *35:9 *80:8 0
7 *25:11 *35:9 0
*RES
1 b[0] *35:9 27.1386 
2 *35:9 *1060:A 23 
*END

*D_NET *36 0.000792213
*CONN
*P b[10] I
*I *1061:A I *D sky130_fd_sc_hd__clkbuf_1
*CAP
1 b[10] 0.000231894
2 *1061:A 0.000231894
3 *1061:A sum[11] 8.97484e-05
4 *1061:A *871:B 0.000158008
5 *1045:A *1061:A 8.06684e-05
*RES
1 b[10] *1061:A 48.9255 
*END

*D_NET *37 0.000548302
*CONN
*P b[11] I
*I *1062:A I *D sky130_fd_sc_hd__clkbuf_1
*CAP
1 b[11] 0.000180874
2 *1062:A 0.000180874
3 *1062:A sum[14] 7.97762e-05
4 *1062:A *1064:A 8.68758e-05
5 *1062:A *65:13 1.05658e-05
6 *1062:A *346:10 9.33529e-06
*RES
1 b[11] *1062:A 47.1648 
*END

*D_NET *38 0.000674838
*CONN
*P b[12] I
*I *1063:A I *D sky130_fd_sc_hd__clkbuf_1
*CAP
1 b[12] 0.000196254
2 *1063:A 0.000196254
3 *1063:A sum[13] 8.73764e-05
4 *1063:A *1064:A 8.68758e-05
5 *1063:A *305:12 0.000108079
*RES
1 b[12] *1063:A 48.2212 
*END

*D_NET *39 0.00107077
*CONN
*P b[13] I
*I *1064:A I *D sky130_fd_sc_hd__buf_1
*CAP
1 b[13] 0.000355426
2 *1064:A 0.000355426
3 *1064:A sum[13] 0
4 *1064:A *310:8 9.4987e-05
5 *1064:A *336:12 9.1176e-05
6 *1062:A *1064:A 8.68758e-05
7 *1063:A *1064:A 8.68758e-05
*RES
1 b[13] *1064:A 49.6211 
*END

*D_NET *40 0.00103388
*CONN
*P b[14] I
*I *1065:A I *D sky130_fd_sc_hd__clkbuf_1
*CAP
1 b[14] 0.000419038
2 *1065:A 0.000419038
3 *1065:A sum[15] 0
4 *1065:A *1066:A 0
5 *1065:A *347:10 0
6 *7:15 *1065:A 0.000195805
*RES
1 b[14] *1065:A 47.3214 
*END

*D_NET *41 0.00108753
*CONN
*P b[15] I
*I *1066:A I *D sky130_fd_sc_hd__clkbuf_1
*CAP
1 b[15] 0.000472783
2 *1066:A 0.000472783
3 *1065:A *1066:A 0
4 *1096:A *1066:A 0
5 *8:11 *1066:A 0.00014196
*RES
1 b[15] *1066:A 48.2743 
*END

*D_NET *42 0.00101578
*CONN
*P b[16] I
*I *1068:A I *D sky130_fd_sc_hd__clkbuf_1
*CAP
1 b[16] 0.000474773
2 *1068:A 0.000474773
3 *1068:A sum[7] 0
4 *1068:A *1070:A 0
5 *1068:A *182:25 1.14452e-05
6 *1068:A *199:14 5.47927e-05
*RES
1 b[16] *1068:A 48.2743 
*END

*D_NET *43 0.000904685
*CONN
*P b[17] I
*I *1069:A I *D sky130_fd_sc_hd__clkbuf_1
*CAP
1 b[17] 0.000452343
2 *1069:A 0.000452343
3 *1069:A sum[17] 0
4 *1069:A sum[18] 0
5 *1069:A *350:10 0
*RES
1 b[17] *1069:A 47.3214 
*END

*D_NET *44 0.000908203
*CONN
*P b[18] I
*I *1070:A I *D sky130_fd_sc_hd__clkbuf_1
*CAP
1 b[18] 0.000442978
2 *1070:A 0.000442978
3 *1070:A sum[20] 0
4 *1070:A *941:B 2.76611e-06
5 *1070:A *1112:A 0
6 *1070:A *313:14 1.94812e-05
7 *1068:A *1070:A 0
*RES
1 b[18] *1070:A 47.3214 
*END

*D_NET *45 0.000954767
*CONN
*P b[19] I
*I *1071:A I *D sky130_fd_sc_hd__clkbuf_1
*CAP
1 b[19] 0.000444182
2 *1071:A 0.000444182
3 *1071:A sum[20] 0
4 *1071:A sum[21] 0
5 *1071:A *278:6 2.93845e-05
6 *1071:A *279:16 3.70187e-05
*RES
1 b[19] *1071:A 47.3214 
*END

*D_NET *46 0.00110381
*CONN
*P b[1] I
*I *1072:A I *D sky130_fd_sc_hd__clkbuf_1
*CAP
1 b[1] 0.000551906
2 *1072:A 0
3 *46:9 0.000551906
4 *46:9 *96:8 0
5 *46:9 *370:10 0
6 *14:9 *46:9 0
*RES
1 b[1] *46:9 27.1386 
2 *46:9 *1072:A 23 
*END

*D_NET *47 0.00303355
*CONN
*P b[20] I
*I *1073:A I *D sky130_fd_sc_hd__clkbuf_1
*CAP
1 b[20] 0.0010917
2 *1073:A 0
3 *47:13 0.0010917
4 *47:13 sum[19] 6.92184e-05
5 *47:13 *968:B 8.80821e-05
6 *47:13 *205:10 0
7 *47:13 *219:8 0.000221084
8 *47:13 *284:16 0.000126538
9 *47:13 *356:10 4.05745e-05
10 *1097:A *47:13 5.50106e-05
11 *17:15 *47:13 3.25681e-05
12 *18:13 *47:13 0.000217083
*RES
1 b[20] *47:13 32.4719 
2 *47:13 *1073:A 23 
*END

*D_NET *48 0.00100659
*CONN
*P b[21] I
*I *1074:A I *D sky130_fd_sc_hd__buf_1
*CAP
1 b[21] 0.000448286
2 *1074:A 0.000448286
3 *1074:A sum[21] 0
4 *1074:A sum[22] 0
5 *1074:A *279:8 5.50106e-05
6 *1074:A *351:14 5.50106e-05
*RES
1 b[21] *1074:A 47.3214 
*END

*D_NET *49 0.000651362
*CONN
*P b[22] I
*I *1075:A I *D sky130_fd_sc_hd__clkbuf_1
*CAP
1 b[22] 0.00025955
2 *1075:A 0.00025955
3 *1075:A *316:10 0
4 *1038:A *1075:A 0.000111017
5 *17:15 *1075:A 2.12457e-05
*RES
1 b[22] *1075:A 47.67 
*END

*D_NET *50 0.00113666
*CONN
*P b[23] I
*I *1076:A I *D sky130_fd_sc_hd__clkbuf_1
*CAP
1 b[23] 0.000497673
2 *1076:A 0.000497673
3 *1076:A sum[23] 8.73702e-05
4 *1076:A *1077:A 0
5 *1076:A *202:16 0
6 *1076:A *284:24 0
7 *1076:A *319:10 9.86551e-06
8 *1076:A *359:16 0
9 *19:15 *1076:A 4.40799e-05
*RES
1 b[23] *1076:A 48.4702 
*END

*D_NET *51 0.000745257
*CONN
*P b[24] I
*I *1077:A I *D sky130_fd_sc_hd__clkbuf_1
*CAP
1 b[24] 0.000309134
2 *1077:A 0.000309134
3 *1077:A *1014:A_N 0
4 *1077:A *320:8 6.16635e-05
5 *1057:A *1077:A 2.12457e-05
6 *1076:A *1077:A 0
7 *19:15 *1077:A 4.40799e-05
*RES
1 b[24] *1077:A 49.5439 
*END

*D_NET *52 0.000472986
*CONN
*P b[25] I
*I *1079:A I *D sky130_fd_sc_hd__clkbuf_1
*CAP
1 b[25] 0.000157192
2 *1079:A 0.000157192
3 *1079:A *977:B 8.11982e-06
4 *1079:A *1092:A 7.22469e-05
5 *1043:A *1079:A 7.82365e-05
*RES
1 b[25] *1079:A 47.0789 
*END

*D_NET *53 0.00289365
*CONN
*P b[26] I
*I *1080:A I *D sky130_fd_sc_hd__buf_1
*CAP
1 b[26] 0.000906323
2 *1080:A 0
3 *53:11 0.000906323
4 *53:11 *1002:A 5.94125e-05
5 *53:11 *56:15 9.2836e-05
6 *53:11 *58:13 0.000210012
7 *53:11 *93:8 0
8 *53:11 *252:12 4.5882e-05
9 *53:11 *275:10 0
10 *53:11 *328:14 0.000191166
11 *53:11 *367:12 0.0004246
12 *27:15 *53:11 5.70965e-05
13 *31:17 *53:11 0
*RES
1 b[26] *53:11 34.6085 
2 *53:11 *1080:A 23 
*END

*D_NET *54 0.00101857
*CONN
*P b[27] I
*I *1081:A I *D sky130_fd_sc_hd__buf_1
*CAP
1 b[27] 0.000386214
2 *1081:A 0
3 *54:11 0.000386214
4 *54:11 *1000:B 0
5 *54:11 *1091:A 0.000111017
6 *54:11 *324:10 0.000113875
7 *1044:A *54:11 0
8 *22:19 *54:11 2.12457e-05
*RES
1 b[27] *54:11 29.0089 
2 *54:11 *1081:A 23 
*END

*D_NET *55 0.00113292
*CONN
*P b[28] I
*I *1082:A I *D sky130_fd_sc_hd__buf_1
*CAP
1 b[28] 0.000566462
2 *1082:A 0
3 *55:11 0.000566462
4 *55:11 sum[30] 0
5 *55:11 *366:10 0
6 *23:9 *55:11 0
*RES
1 b[28] *55:11 27.2836 
2 *55:11 *1082:A 23 
*END

*D_NET *56 0.00146457
*CONN
*P b[29] I
*I *1083:A I *D sky130_fd_sc_hd__buf_1
*CAP
1 b[29] 0.000610656
2 *1083:A 0
3 *56:15 0.000610656
4 *56:15 *1030:B1 0
5 *56:15 *93:8 0
6 *56:15 *248:10 1.57571e-05
7 *56:15 *291:20 9.67842e-05
8 *56:15 *328:10 3.7877e-05
9 *31:17 *56:15 0
10 *53:11 *56:15 9.2836e-05
*RES
1 b[29] *56:15 28.5264 
2 *56:15 *1083:A 23 
*END

*D_NET *57 0.00227348
*CONN
*P b[2] I
*I *1084:A I *D sky130_fd_sc_hd__clkbuf_1
*CAP
1 b[2] 0.000863583
2 *1084:A 0
3 *57:11 0.000863583
4 *57:11 *833:A 0
5 *57:11 *835:A 0
6 *57:11 *109:23 0
7 *57:11 *303:10 0
8 *57:11 *374:14 0.000211921
9 *1059:A *57:11 0.000144278
10 *25:11 *57:11 1.34542e-05
11 *28:13 *57:11 0.000176657
*RES
1 b[2] *57:11 31.0871 
2 *57:11 *1084:A 23 
*END

*D_NET *58 0.0031651
*CONN
*P b[30] I
*I *1085:A I *D sky130_fd_sc_hd__buf_1
*CAP
1 b[30] 0.00117731
2 *1085:A 0
3 *58:13 0.00117731
4 *58:13 sum[28] 0.000179843
5 *58:13 sum[30] 0
6 *58:13 *59:15 9.36312e-05
7 *58:13 *291:20 0.000188934
8 *58:13 *326:6 2.95866e-05
9 *58:13 *328:10 0.000102389
10 *58:13 *362:12 6.07611e-06
11 *31:17 *58:13 0
12 *53:11 *58:13 0.000210012
*RES
1 b[30] *58:13 35.7485 
2 *58:13 *1085:A 23 
*END

*D_NET *59 0.00354711
*CONN
*P b[31] I
*I *1086:A I *D sky130_fd_sc_hd__buf_1
*CAP
1 b[31] 0.00125667
2 *1086:A 0
3 *59:15 0.00125667
4 *59:15 cout 0
5 *59:15 *1000:B 7.90171e-05
6 *59:15 *1030:A2 8.68016e-06
7 *59:15 *273:10 0.000114074
8 *59:15 *294:21 2.60152e-05
9 *59:15 *298:6 0.000139352
10 *59:15 *329:31 0.000168744
11 *22:19 *59:15 3.22879e-05
12 *24:11 *59:15 0.000278331
13 *27:15 *59:15 0
14 *31:17 *59:15 9.36312e-05
15 *58:13 *59:15 9.36312e-05
*RES
1 b[31] *59:15 48.1964 
2 *59:15 *1086:A 23 
*END

*D_NET *60 0.0006204
*CONN
*P b[3] I
*I *1087:A I *D sky130_fd_sc_hd__clkbuf_1
*CAP
1 b[3] 0.00021862
2 *1087:A 0.00021862
3 *1087:A sum[3] 8.97484e-05
4 *1087:A *830:B 0
5 *1087:A *330:8 1.27424e-05
6 *1087:A *364:10 0
7 *1059:A *1087:A 8.06684e-05
*RES
1 b[3] *1087:A 48.2212 
*END

*D_NET *61 0.00076074
*CONN
*P b[4] I
*I *1088:A I *D sky130_fd_sc_hd__clkbuf_1
*CAP
1 b[4] 0.000290622
2 *1088:A 0.000290622
3 *1088:A sum[3] 8.97484e-05
4 *1088:A sum[4] 8.97484e-05
5 *1088:A *101:10 0
6 *1088:A *368:10 0
*RES
1 b[4] *1088:A 49.6298 
*END

*D_NET *62 0.00110381
*CONN
*P b[5] I
*I *1090:A I *D sky130_fd_sc_hd__clkbuf_1
*CAP
1 b[5] 0.000551906
2 *1090:A 0
3 *62:9 0.000551906
4 *62:9 sum[6] 0
5 *62:9 *371:10 0
6 *30:9 *62:9 0
*RES
1 b[5] *62:9 27.1386 
2 *62:9 *1090:A 23 
*END

*D_NET *63 0.000839997
*CONN
*P b[6] I
*I *1091:A I *D sky130_fd_sc_hd__buf_1
*CAP
1 b[6] 0.000308629
2 *1091:A 0.000308629
3 *1091:A sum[26] 2.12457e-05
4 *1091:A *323:16 8.06103e-05
5 *1091:A *323:22 9.86551e-06
6 *54:11 *1091:A 0.000111017
*RES
1 b[6] *1091:A 49.4307 
*END

*D_NET *64 0.000949898
*CONN
*P b[7] I
*I *1092:A I *D sky130_fd_sc_hd__buf_1
*CAP
1 b[7] 0.000376472
2 *1092:A 0.000376472
3 *1092:A *1012:D 0
4 *1092:A *227:29 0
5 *1092:A *228:14 2.25493e-05
6 *1057:A *1092:A 0.000102158
7 *1079:A *1092:A 7.22469e-05
*RES
1 b[7] *1092:A 48.6506 
*END

*D_NET *65 0.00323927
*CONN
*P b[8] I
*I *1093:A I *D sky130_fd_sc_hd__buf_1
*CAP
1 b[8] 0.00099653
2 *1093:A 0
3 *65:13 0.00099653
4 *65:13 sum[14] 5.58873e-06
5 *65:13 *305:12 5.36306e-05
6 *65:13 *310:8 0
7 *65:13 *346:10 0
8 *65:13 *347:10 0
9 *65:13 *365:8 0
10 *1062:A *65:13 1.05658e-05
11 *1098:A *65:13 0.00023035
12 *6:15 *65:13 0.00094608
13 *7:15 *65:13 0
*RES
1 b[8] *65:13 45.8674 
2 *65:13 *1093:A 23 
*END

*D_NET *66 0.000750391
*CONN
*P b[9] I
*I *1094:A I *D sky130_fd_sc_hd__clkbuf_1
*CAP
1 b[9] 0.000287819
2 *1094:A 0.000287819
3 *1094:A sum[10] 8.73764e-05
4 *1094:A *890:A 0
5 *1045:A *1094:A 8.73764e-05
*RES
1 b[9] *1094:A 49.2777 
*END

*D_NET *67 0.00201426
*CONN
*P cin I
*I *1095:A I *D sky130_fd_sc_hd__buf_1
*CAP
1 cin 0.000666478
2 *1095:A 0
3 *67:11 0.000666478
4 *67:11 sum[0] 0.000290723
5 *67:11 sum[9] 0
6 *3:11 *67:11 0.000310641
7 *28:13 *67:11 7.99416e-05
*RES
1 cin *67:11 30.6186 
2 *67:11 *1095:A 23 
*END

*D_NET *68 0.00143816
*CONN
*P cout O
*I *1099:X O *D sky130_fd_sc_hd__buf_2
*CAP
1 cout 0.000455203
2 *1099:X 0.000455203
3 cout *291:20 9.67842e-05
4 *24:11 cout 0
5 *31:17 cout 0.00043097
6 *59:15 cout 0
*RES
1 *1099:X cout 49.9107 
*END

*D_NET *69 0.00275828
*CONN
*P sum[0] O
*I *1100:X O *D sky130_fd_sc_hd__buf_2
*CAP
1 sum[0] 0.00071052
2 *1100:X 0
3 *69:6 0.00071052
4 sum[0] sum[2] 0.00101012
5 sum[0] *292:10 1.01436e-05
6 sum[0] *340:10 2.6255e-05
7 *3:11 sum[0] 0
8 *28:13 sum[0] 0
9 *67:11 sum[0] 0.000290723
*RES
1 *1100:X *69:6 38 
2 *69:6 sum[0] 24.3841 
*END

*D_NET *70 0.000642135
*CONN
*P sum[10] O
*I *1101:X O *D sky130_fd_sc_hd__buf_2
*CAP
1 sum[10] 0.000232505
2 *1101:X 0.000232505
3 sum[10] sum[4] 0
4 sum[10] *341:8 0
5 *1053:A sum[10] 8.97484e-05
6 *1094:A sum[10] 8.73764e-05
*RES
1 *1101:X sum[10] 47.955 
*END

*D_NET *71 0.000546384
*CONN
*P sum[11] O
*I *1102:X O *D sky130_fd_sc_hd__buf_2
*CAP
1 sum[11] 0.000179518
2 *1102:X 0.000179518
3 sum[11] *907:A1 0
4 *1056:A sum[11] 9.75993e-05
5 *1061:A sum[11] 8.97484e-05
*RES
1 *1102:X sum[11] 47.2507 
*END

*D_NET *72 0.000626366
*CONN
*P sum[12] O
*I *1103:X O *D sky130_fd_sc_hd__buf_2
*CAP
1 sum[12] 0.00019856
2 *1103:X 0.00019856
3 sum[12] sum[13] 8.69232e-05
4 sum[12] *305:16 2.33476e-05
5 sum[12] *336:12 2.5343e-05
6 *1056:A sum[12] 9.36312e-05
*RES
1 *1103:X sum[12] 47.2507 
*END

*D_NET *73 0.000922811
*CONN
*P sum[13] O
*I *1104:X O *D sky130_fd_sc_hd__buf_2
*CAP
1 sum[13] 0.000371461
2 *1104:X 0.000371461
3 sum[13] *301:18 0
4 sum[13] *336:12 5.58873e-06
5 sum[12] sum[13] 8.69232e-05
6 *1056:A sum[13] 0
7 *1063:A sum[13] 8.73764e-05
8 *1064:A sum[13] 0
*RES
1 *1104:X sum[13] 47.5941 
*END

*D_NET *74 0.00069464
*CONN
*P sum[14] O
*I *1105:X O *D sky130_fd_sc_hd__buf_2
*CAP
1 sum[14] 0.000248344
2 *1105:X 0.000248344
3 sum[14] *365:8 2.47015e-05
4 *1062:A sum[14] 7.97762e-05
5 *33:15 sum[14] 8.7886e-05
6 *65:13 sum[14] 5.58873e-06
*RES
1 *1105:X sum[14] 47.2507 
*END

*D_NET *75 0.00111006
*CONN
*P sum[15] O
*I *1106:X O *D sky130_fd_sc_hd__buf_2
*CAP
1 sum[15] 0.000482016
2 *1106:X 0.000482016
3 *1065:A sum[15] 0
4 *1098:A sum[15] 0
5 *7:15 sum[15] 0
6 *8:11 sum[15] 1.5769e-05
7 *33:15 sum[15] 0.00013026
*RES
1 *1106:X sum[15] 47.57 
*END

*D_NET *76 0.00100658
*CONN
*P sum[16] O
*I *1107:X O *D sky130_fd_sc_hd__buf_2
*CAP
1 sum[16] 0.000503292
2 *1107:X 0.000503292
3 sum[16] sum[18] 0
4 sum[16] sum[7] 0
*RES
1 *1107:X sum[16] 47.57 
*END

*D_NET *77 0.000999418
*CONN
*P sum[17] O
*I *1108:X O *D sky130_fd_sc_hd__buf_2
*CAP
1 sum[17] 0.000499709
2 *1108:X 0.000499709
3 *1069:A sum[17] 0
4 *1096:A sum[17] 0
*RES
1 *1108:X sum[17] 47.57 
*END

*D_NET *78 0.00100658
*CONN
*P sum[18] O
*I *1109:X O *D sky130_fd_sc_hd__buf_2
*CAP
1 sum[18] 0.000503292
2 *1109:X 0.000503292
3 sum[16] sum[18] 0
4 *1069:A sum[18] 0
*RES
1 *1109:X sum[18] 47.57 
*END

*D_NET *79 0.00109374
*CONN
*P sum[19] O
*I *1110:X O *D sky130_fd_sc_hd__buf_2
*CAP
1 sum[19] 0.000485608
2 *1110:X 0.000485608
3 sum[19] *279:8 5.3304e-05
4 *1036:A sum[19] 0
5 *1039:A sum[19] 0
6 *1097:A sum[19] 0
7 *18:13 sum[19] 0
8 *47:13 sum[19] 6.92184e-05
*RES
1 *1110:X sum[19] 47.3836 
*END

*D_NET *80 0.00113273
*CONN
*P sum[1] O
*I *1111:X O *D sky130_fd_sc_hd__buf_2
*CAP
1 sum[1] 6.5784e-05
2 *1111:X 0.000500579
3 *80:8 0.000566363
4 *80:8 sum[8] 0
5 *35:9 *80:8 0
*RES
1 *1111:X *80:8 48.8854 
2 *80:8 sum[1] 1.50179 
*END

*D_NET *81 0.00100283
*CONN
*P sum[20] O
*I *1112:X O *D sky130_fd_sc_hd__buf_2
*CAP
1 sum[20] 0.000487798
2 *1112:X 0.000487798
3 sum[20] *278:6 2.7237e-05
4 *1070:A sum[20] 0
5 *1071:A sum[20] 0
*RES
1 *1112:X sum[20] 47.57 
*END

*D_NET *82 0.00112667
*CONN
*P sum[21] O
*I *1113:X O *D sky130_fd_sc_hd__buf_2
*CAP
1 sum[21] 0.000473833
2 *1113:X 0.000473833
3 sum[21] *279:8 9.5877e-05
4 sum[21] *358:18 8.31289e-05
5 *1071:A sum[21] 0
6 *1074:A sum[21] 0
*RES
1 *1113:X sum[21] 47.86 
*END

*D_NET *83 0.00110901
*CONN
*P sum[22] O
*I *1114:X O *D sky130_fd_sc_hd__buf_2
*CAP
1 sum[22] 0.000482734
2 *1114:X 0.000482734
3 sum[22] *279:8 0.000143543
4 *1039:A sum[22] 0
5 *1074:A sum[22] 0
*RES
1 *1114:X sum[22] 47.57 
*END

*D_NET *84 0.000636123
*CONN
*P sum[23] O
*I *1115:X O *D sky130_fd_sc_hd__buf_2
*CAP
1 sum[23] 0.000219082
2 *1115:X 0.000219082
3 sum[23] *357:10 3.23515e-05
4 *1038:A sum[23] 7.82365e-05
5 *1076:A sum[23] 8.73702e-05
*RES
1 *1115:X sum[23] 47.8691 
*END

*D_NET *85 0.00234474
*CONN
*P sum[24] O
*I *1116:X O *D sky130_fd_sc_hd__buf_2
*CAP
1 sum[24] 0.00049939
2 *1116:X 0.000166527
3 *85:8 0.000665917
4 sum[24] sum[25] 0.000667417
5 *85:8 *86:8 3.46673e-05
6 *12:17 sum[24] 0.000212334
7 *12:17 *85:8 9.84851e-05
8 *18:13 sum[24] 0
*RES
1 *1116:X *85:8 40.5271 
2 *85:8 sum[24] 20.4819 
*END

*D_NET *86 0.0021
*CONN
*P sum[25] O
*I *1117:X O *D sky130_fd_sc_hd__buf_2
*CAP
1 sum[25] 0.000341469
2 *1117:X 0.000253728
3 *86:8 0.000595197
4 sum[25] *358:24 0
5 sum[24] sum[25] 0.000667417
6 *10:11 sum[25] 8.31196e-05
7 *12:17 sum[25] 0
8 *12:17 *86:8 8.94599e-05
9 *18:13 sum[25] 3.49463e-05
10 *85:8 *86:8 3.46673e-05
*RES
1 *1117:X *86:8 42.9093 
2 *86:8 sum[25] 17.8053 
*END

*D_NET *87 0.000556096
*CONN
*P sum[26] O
*I *1118:X O *D sky130_fd_sc_hd__buf_2
*CAP
1 sum[26] 0.000199017
2 *1118:X 0.000199017
3 sum[26] sum[27] 0.000114166
4 sum[26] *323:22 2.26497e-05
5 *1091:A sum[26] 2.12457e-05
*RES
1 *1118:X sum[26] 47.1648 
*END

*D_NET *88 0.000639752
*CONN
*P sum[27] O
*I *1119:X O *D sky130_fd_sc_hd__buf_2
*CAP
1 sum[27] 0.000247238
2 *1119:X 0.000247238
3 sum[27] *361:10 9.86551e-06
4 sum[26] sum[27] 0.000114166
5 *1043:A sum[27] 2.12457e-05
*RES
1 *1119:X sum[27] 47.4037 
*END

*D_NET *89 0.00138613
*CONN
*P sum[28] O
*I *1120:X O *D sky130_fd_sc_hd__buf_2
*CAP
1 sum[28] 0.000430699
2 *1120:X 0.00010099
3 *89:8 0.000531689
4 sum[28] sum[30] 0
5 sum[28] *93:8 0
6 *89:8 *291:20 0.00014291
7 *58:13 sum[28] 0.000179843
*RES
1 *1120:X *89:8 39.5743 
2 *89:8 sum[28] 10.8129 
*END

*D_NET *90 0.00108385
*CONN
*P sum[29] O
*I *1121:X O *D sky130_fd_sc_hd__buf_2
*CAP
1 sum[29] 0.000541925
2 *1121:X 0.000541925
3 sum[29] sum[6] 0
4 *23:9 sum[29] 0
*RES
1 *1121:X sum[29] 49.9107 
*END

*D_NET *91 0.00270327
*CONN
*P sum[2] O
*I *1122:X O *D sky130_fd_sc_hd__buf_2
*CAP
1 sum[2] 0.000574999
2 *1122:X 4.21149e-05
3 *91:8 0.000617114
4 sum[2] *292:10 4.74706e-05
5 *91:8 *828:B 1.73399e-05
6 sum[0] sum[2] 0.00101012
7 *3:11 sum[2] 0.000273073
8 *25:11 sum[2] 0.000121039
*RES
1 *1122:X *91:8 38.6214 
2 *91:8 sum[2] 22.1854 
*END

*D_NET *92 0.00134706
*CONN
*P sum[30] O
*I *1123:X O *D sky130_fd_sc_hd__buf_2
*CAP
1 sum[30] 0.000507684
2 *1123:X 9.33936e-05
3 *92:8 0.000601078
4 *92:8 *291:20 0.000144903
5 sum[28] sum[30] 0
6 *55:11 sum[30] 0
7 *58:13 sum[30] 0
*RES
1 *1123:X *92:8 39.5743 
2 *92:8 sum[30] 10.8129 
*END

*D_NET *93 0.00117199
*CONN
*P sum[31] O
*I *1124:X O *D sky130_fd_sc_hd__buf_2
*CAP
1 sum[31] 6.5784e-05
2 *1124:X 0.000520213
3 *93:8 0.000585997
4 sum[28] *93:8 0
5 *53:11 *93:8 0
6 *56:15 *93:8 0
*RES
1 *1124:X *93:8 48.8854 
2 *93:8 sum[31] 1.50179 
*END

*D_NET *94 0.000990547
*CONN
*P sum[3] O
*I *1125:X O *D sky130_fd_sc_hd__buf_2
*CAP
1 sum[3] 0.000368215
2 *1125:X 0.000368215
3 sum[3] sum[4] 0
4 sum[3] *101:10 7.46212e-05
5 *1059:A sum[3] 0
6 *1087:A sum[3] 8.97484e-05
7 *1088:A sum[3] 8.97484e-05
*RES
1 *1125:X sum[3] 48.2984 
*END

*D_NET *95 0.000561952
*CONN
*P sum[4] O
*I *1126:X O *D sky130_fd_sc_hd__buf_2
*CAP
1 sum[4] 0.000195455
2 *1126:X 0.000195455
3 sum[10] sum[4] 0
4 sum[3] sum[4] 0
5 *1053:A sum[4] 8.12933e-05
6 *1088:A sum[4] 8.97484e-05
*RES
1 *1126:X sum[4] 47.2507 
*END

*D_NET *96 0.00112559
*CONN
*P sum[5] O
*I *1127:X O *D sky130_fd_sc_hd__buf_2
*CAP
1 sum[5] 6.5784e-05
2 *1127:X 0.000497011
3 *96:8 0.000562795
4 *30:9 *96:8 0
5 *46:9 *96:8 0
*RES
1 *1127:X *96:8 48.8854 
2 *96:8 sum[5] 1.50179 
*END

*D_NET *97 0.00108385
*CONN
*P sum[6] O
*I *1128:X O *D sky130_fd_sc_hd__buf_2
*CAP
1 sum[6] 0.000541925
2 *1128:X 0.000541925
3 sum[29] sum[6] 0
4 *62:9 sum[6] 0
*RES
1 *1128:X sum[6] 49.9107 
*END

*D_NET *98 0.000999418
*CONN
*P sum[7] O
*I *1129:X O *D sky130_fd_sc_hd__buf_2
*CAP
1 sum[7] 0.000499709
2 *1129:X 0.000499709
3 sum[16] sum[7] 0
4 *1068:A sum[7] 0
*RES
1 *1129:X sum[7] 47.57 
*END

*D_NET *99 0.0012514
*CONN
*P sum[8] O
*I *1130:X O *D sky130_fd_sc_hd__buf_2
*CAP
1 sum[8] 0.000497403
2 *1130:X 0.000128299
3 *99:8 0.000625702
4 *14:9 sum[8] 0
5 *80:8 sum[8] 0
*RES
1 *1130:X *99:8 39.5743 
2 *99:8 sum[8] 10.8129 
*END

*D_NET *100 0.0013782
*CONN
*P sum[9] O
*I *1131:X O *D sky130_fd_sc_hd__buf_2
*CAP
1 sum[9] 0.000414813
2 *1131:X 0.000114784
3 *100:8 0.000529597
4 *100:8 *292:10 2.13847e-05
5 *100:8 *374:14 2.93747e-05
6 *25:11 sum[9] 0.000268242
7 *28:13 sum[9] 0
8 *35:9 sum[9] 0
9 *67:11 sum[9] 0
*RES
1 *1131:X *100:8 39.5743 
2 *100:8 sum[9] 10.8129 
*END

*D_NET *101 0.00338224
*CONN
*I *827:B I *D sky130_fd_sc_hd__and2b_1
*I *854:B1 I *D sky130_fd_sc_hd__o21ai_1
*I *856:A1 I *D sky130_fd_sc_hd__a21o_1
*I *826:Y O *D sky130_fd_sc_hd__nand2_1
*CAP
1 *827:B 2.34823e-05
2 *854:B1 0
3 *856:A1 5.36674e-05
4 *826:Y 0.00034418
5 *101:26 0.000616075
6 *101:14 0.000805181
7 *101:10 0.000563471
8 *856:A1 *856:A2 5.67058e-05
9 *856:A1 *856:B1 3.06608e-05
10 *856:A1 *276:25 0
11 *101:10 *826:B 0.000226306
12 *101:10 *103:10 1.17049e-05
13 *101:10 *330:8 0
14 *101:10 *364:10 4.6318e-06
15 *101:10 *368:10 0.000348456
16 *101:14 *102:10 3.82058e-06
17 *101:26 *856:A2 4.95081e-05
18 *101:26 *856:B1 1.22822e-05
19 *101:26 *103:38 9.84794e-05
20 *101:26 *127:8 0
21 *101:26 *276:25 5.90075e-05
22 sum[3] *101:10 7.46212e-05
23 *1088:A *101:10 0
*RES
1 *826:Y *101:10 45.9543 
2 *101:10 *101:14 17.5271 
3 *101:14 *101:26 38.5343 
4 *101:26 *856:A1 24.595 
5 *101:26 *854:B1 23 
6 *101:14 *827:B 23.4971 
*END

*D_NET *102 0.000440446
*CONN
*I *841:A I *D sky130_fd_sc_hd__xnor2_1
*I *827:X O *D sky130_fd_sc_hd__and2b_1
*CAP
1 *841:A 0
2 *827:X 0.000110952
3 *102:10 0.000110952
4 *102:10 *115:10 0.000141869
5 *102:10 *302:10 7.28526e-05
6 *101:14 *102:10 3.82058e-06
*RES
1 *827:X *102:10 40.5271 
2 *102:10 *841:A 38 
*END

*D_NET *103 0.00403883
*CONN
*I *854:A2 I *D sky130_fd_sc_hd__o21ai_1
*I *829:A I *D sky130_fd_sc_hd__inv_2
*I *840:B1 I *D sky130_fd_sc_hd__o21a_1
*I *828:Y O *D sky130_fd_sc_hd__nand2_1
*CAP
1 *854:A2 0
2 *829:A 0.0001288
3 *840:B1 0
4 *828:Y 0.000557095
5 *103:38 0.000271843
6 *103:21 0.000622502
7 *103:12 0.000221859
8 *103:10 0.000557095
9 *829:A *840:A1 5.3304e-05
10 *829:A *856:B1 3.623e-05
11 *829:A *276:25 8.52606e-05
12 *103:10 *828:B 0.000183733
13 *103:10 *1122:A 2.64616e-05
14 *103:10 *114:18 7.81176e-05
15 *103:10 *295:8 0.000165593
16 *103:10 *302:10 2.69515e-05
17 *103:10 *338:14 6.17437e-06
18 *103:10 *340:10 2.03764e-06
19 *103:10 *364:10 0.000318429
20 *103:10 *368:10 9.53602e-05
21 *103:21 *840:A1 0.000166079
22 *103:21 *331:8 5.10805e-05
23 *103:38 *827:A_N 1.22803e-05
24 *103:38 *840:A1 2.24608e-05
25 *103:38 *105:12 2.24608e-05
26 *103:38 *276:10 2.24973e-05
27 *103:38 *276:25 9.45591e-05
28 *103:38 *331:12 3.70187e-05
29 *28:13 *103:10 6.33614e-05
30 *101:10 *103:10 1.17049e-05
31 *101:26 *103:38 9.84794e-05
*RES
1 *828:Y *103:10 49.02 
2 *103:10 *103:12 15 
3 *103:12 *840:B1 23 
4 *103:12 *103:21 3.97714 
5 *103:21 *829:A 25.5479 
6 *103:21 *103:38 34.5571 
7 *103:38 *854:A2 23 
*END

*D_NET *104 0.000251722
*CONN
*I *831:A I *D sky130_fd_sc_hd__nor2_1
*I *829:Y O *D sky130_fd_sc_hd__inv_2
*CAP
1 *831:A 0
2 *829:Y 9.11835e-05
3 *104:8 9.11835e-05
4 *104:8 *105:12 6.93553e-05
*RES
1 *829:Y *104:8 39.9057 
2 *104:8 *831:A 38 
*END

*D_NET *105 0.00273811
*CONN
*I *831:B I *D sky130_fd_sc_hd__nor2_1
*I *840:A1 I *D sky130_fd_sc_hd__o21a_1
*I *856:A2 I *D sky130_fd_sc_hd__a21o_1
*I *830:Y O *D sky130_fd_sc_hd__nor2_1
*CAP
1 *831:B 0
2 *840:A1 9.65681e-05
3 *856:A2 0.000227803
4 *830:Y 0.000487516
5 *105:12 0.000424737
6 *105:10 0.000587882
7 *840:A1 *276:25 0.000139352
8 *840:A1 *331:8 4.05745e-05
9 *856:A2 *856:B1 0.000141954
10 *105:10 *327:8 8.95707e-05
11 *105:10 *374:14 0
12 *105:12 *276:10 3.28979e-05
13 *105:12 *374:14 0
14 *829:A *840:A1 5.3304e-05
15 *856:A1 *856:A2 5.67058e-05
16 *28:13 *105:10 2.93845e-05
17 *101:26 *856:A2 4.95081e-05
18 *103:21 *840:A1 0.000166079
19 *103:38 *840:A1 2.24608e-05
20 *103:38 *105:12 2.24608e-05
21 *104:8 *105:12 6.93553e-05
*RES
1 *830:Y *105:10 45.9957 
2 *105:10 *105:12 2.43393 
3 *105:12 *856:A2 42.4225 
4 *105:12 *840:A1 40.8482 
5 *105:10 *831:B 38 
*END

*D_NET *106 0.000544352
*CONN
*I *842:A I *D sky130_fd_sc_hd__xnor2_1
*I *831:Y O *D sky130_fd_sc_hd__nor2_1
*CAP
1 *842:A 0.000110676
2 *831:Y 0.000110676
3 *842:A *114:8 0
4 *842:A *114:18 0.00022282
5 *842:A *364:10 0.00010018
*RES
1 *831:Y *842:A 49.6457 
*END

*D_NET *107 0.00235787
*CONN
*I *838:A I *D sky130_fd_sc_hd__nor2_1
*I *839:B1 I *D sky130_fd_sc_hd__a21oi_1
*I *855:C1 I *D sky130_fd_sc_hd__a211oi_1
*I *832:X O *D sky130_fd_sc_hd__and2_1
*CAP
1 *838:A 0.000109696
2 *839:B1 0.000164601
3 *855:C1 2.90196e-05
4 *832:X 0.000147759
5 *107:10 0.000385547
6 *107:6 0.000449381
7 *838:A *843:B 8.43466e-05
8 *838:A *111:16 2.16583e-05
9 *838:A *113:6 9.84851e-05
10 *838:A *352:10 0.000143655
11 *839:B1 *839:A1 1.67818e-05
12 *839:B1 *855:A2 0.000135923
13 *839:B1 *114:8 7.53384e-06
14 *855:C1 *111:29 2.60152e-05
15 *855:C1 *113:19 2.96051e-05
16 *855:C1 *125:10 1.14452e-05
17 *107:6 *832:B 2.93747e-05
18 *107:6 *843:A 1.54359e-06
19 *107:6 *843:B 5.50049e-05
20 *107:6 *111:16 2.2451e-05
21 *107:10 *111:29 0.000186594
22 *107:10 *113:19 0.000201454
23 *107:10 *280:10 0
*RES
1 *832:X *107:6 25.5271 
2 *107:6 *107:10 20.7793 
3 *107:10 *855:C1 38.8493 
4 *107:10 *839:B1 41.5214 
5 *107:6 *838:A 26.3764 
*END

*D_NET *108 0.00084076
*CONN
*I *835:A I *D sky130_fd_sc_hd__nand2_1
*I *836:B1_N I *D sky130_fd_sc_hd__a21bo_1
*I *833:Y O *D sky130_fd_sc_hd__nand2_1
*CAP
1 *835:A 0.000186602
2 *836:B1_N 4.24857e-05
3 *833:Y 6.88062e-05
4 *108:8 0.000297894
5 *835:A *833:A 0
6 *835:A *109:23 1.47563e-05
7 *835:A *110:8 0.000140958
8 *835:A *277:26 2.76611e-06
9 *835:A *303:10 0
10 *835:A *352:10 0
11 *836:B1_N *836:A1 5.50106e-05
12 *108:8 *277:26 2.54046e-05
13 *35:9 *835:A 6.07611e-06
14 *57:11 *835:A 0
*RES
1 *833:Y *108:8 39.2014 
2 *108:8 *836:B1_N 38.6214 
3 *108:8 *835:A 42.0186 
*END

*D_NET *109 0.000903556
*CONN
*I *835:B I *D sky130_fd_sc_hd__nand2_1
*I *836:A2 I *D sky130_fd_sc_hd__a21bo_1
*I *834:X O *D sky130_fd_sc_hd__or2_1
*CAP
1 *835:B 0
2 *836:A2 0.00020136
3 *834:X 0
4 *109:23 0.000110401
5 *109:4 0.000311761
6 *836:A2 *836:A1 6.51763e-05
7 *836:A2 *844:B 5.50106e-05
8 *836:A2 *352:10 1.32314e-05
9 *109:23 *110:8 8.85189e-05
10 *109:23 *303:10 4.334e-05
11 *835:A *109:23 1.47563e-05
12 *57:11 *109:23 0
*RES
1 *834:X *109:4 23 
2 *109:4 *836:A2 26.9979 
3 *109:4 *109:23 32.4029 
4 *109:23 *835:B 23 
*END

*D_NET *110 0.00100073
*CONN
*I *844:B I *D sky130_fd_sc_hd__xnor2_1
*I *835:Y O *D sky130_fd_sc_hd__nand2_1
*CAP
1 *844:B 0.00015244
2 *835:Y 5.84482e-05
3 *110:8 0.000210888
4 *844:B *836:A1 0.000279987
5 *110:8 *303:10 1.44813e-05
6 *835:A *110:8 0.000140958
7 *836:A2 *844:B 5.50106e-05
8 *109:23 *110:8 8.85189e-05
*RES
1 *835:Y *110:8 39.9057 
2 *110:8 *844:B 41.9564 
*END

*D_NET *111 0.0023971
*CONN
*I *855:A1 I *D sky130_fd_sc_hd__a211oi_1
*I *839:A1 I *D sky130_fd_sc_hd__a21oi_1
*I *843:A I *D sky130_fd_sc_hd__xor2_1
*I *836:X O *D sky130_fd_sc_hd__a21bo_1
*CAP
1 *855:A1 0
2 *839:A1 0.000221157
3 *843:A 8.63172e-06
4 *836:X 0.000372571
5 *111:29 0.000452687
6 *111:16 0.000612733
7 *839:A1 *855:A2 7.10099e-05
8 *111:16 *843:B 0.000139472
9 *111:16 *113:6 4.34973e-05
10 *111:16 *352:10 8.7843e-05
11 *111:29 *837:B 9.63815e-05
12 *111:29 *865:B 0
13 *111:29 *125:10 1.14452e-05
14 *111:29 *280:10 4.6318e-06
15 *838:A *111:16 2.16583e-05
16 *839:B1 *839:A1 1.67818e-05
17 *855:C1 *111:29 2.60152e-05
18 *107:6 *843:A 1.54359e-06
19 *107:6 *111:16 2.2451e-05
20 *107:10 *111:29 0.000186594
*RES
1 *836:X *111:16 30.9129 
2 *111:16 *843:A 23.1812 
3 *111:16 *111:29 35.7793 
4 *111:29 *839:A1 26.3764 
5 *111:29 *855:A1 23 
*END

*D_NET *112 0.00100281
*CONN
*I *838:B I *D sky130_fd_sc_hd__nor2_1
*I *837:Y O *D sky130_fd_sc_hd__nor2_1
*CAP
1 *838:B 0
2 *837:Y 0.000433162
3 *112:10 0.000433162
4 *112:10 *113:19 0.000136486
5 *112:10 *373:10 0
*RES
1 *837:Y *112:10 43.8621 
2 *112:10 *838:B 38 
*END

*D_NET *113 0.00210158
*CONN
*I *855:A2 I *D sky130_fd_sc_hd__a211oi_1
*I *839:A2 I *D sky130_fd_sc_hd__a21oi_1
*I *843:B I *D sky130_fd_sc_hd__xor2_1
*I *838:Y O *D sky130_fd_sc_hd__nor2_1
*CAP
1 *855:A2 0.000168725
2 *839:A2 0
3 *843:B 3.79767e-05
4 *838:Y 2.91837e-05
5 *113:19 0.000485987
6 *113:6 0.000384423
7 *113:19 *373:10 0
8 *838:A *843:B 8.43466e-05
9 *838:A *113:6 9.84851e-05
10 *839:A1 *855:A2 7.10099e-05
11 *839:B1 *855:A2 0.000135923
12 *855:C1 *113:19 2.96051e-05
13 *107:6 *843:B 5.50049e-05
14 *107:10 *113:19 0.000201454
15 *111:16 *843:B 0.000139472
16 *111:16 *113:6 4.34973e-05
17 *112:10 *113:19 0.000136486
*RES
1 *838:Y *113:6 24.0979 
2 *113:6 *843:B 24.5743 
3 *113:6 *113:19 36.1314 
4 *113:19 *839:A2 23 
5 *113:19 *855:A2 26.9979 
*END

*D_NET *114 0.00235472
*CONN
*I *842:B I *D sky130_fd_sc_hd__xnor2_1
*I *840:A2 I *D sky130_fd_sc_hd__o21a_1
*I *839:Y O *D sky130_fd_sc_hd__a21oi_1
*CAP
1 *842:B 0
2 *840:A2 0
3 *839:Y 0.000371965
4 *114:18 0.000451248
5 *114:8 0.000823214
6 *114:18 *276:10 0.000135037
7 *114:18 *302:10 0.000161121
8 *114:18 *364:10 0.000103667
9 *839:B1 *114:8 7.53384e-06
10 *842:A *114:8 0
11 *842:A *114:18 0.00022282
12 *103:10 *114:18 7.81176e-05
*RES
1 *839:Y *114:8 29.3593 
2 *114:8 *114:18 39.9221 
3 *114:18 *840:A2 23 
4 *114:8 *842:B 23 
*END

*D_NET *115 0.000952339
*CONN
*I *841:B I *D sky130_fd_sc_hd__xnor2_1
*I *840:X O *D sky130_fd_sc_hd__o21a_1
*CAP
1 *841:B 0
2 *840:X 0.000243603
3 *115:10 0.000243603
4 *115:10 *302:10 8.15957e-05
5 *115:10 *331:8 9.67842e-05
6 *115:10 *368:10 0.000144884
7 *102:10 *115:10 0.000141869
*RES
1 *840:X *115:10 44.1729 
2 *115:10 *841:B 38 
*END

*D_NET *116 0.00144407
*CONN
*I *877:A I *D sky130_fd_sc_hd__nand2_1
*I *862:A I *D sky130_fd_sc_hd__xnor2_1
*I *845:X O *D sky130_fd_sc_hd__xor2_1
*CAP
1 *877:A 0
2 *862:A 0
3 *845:X 0.000294413
4 *116:21 0.000420817
5 *116:8 0.00071523
6 *116:21 *117:38 6.07611e-06
7 *116:21 *132:10 0
8 *116:21 *146:12 0
9 *116:21 *372:8 7.53384e-06
*RES
1 *845:X *116:8 28.4064 
2 *116:8 *862:A 23 
3 *116:8 *116:21 37.83 
4 *116:21 *877:A 23 
*END

*D_NET *117 0.00187445
*CONN
*I *877:B I *D sky130_fd_sc_hd__nand2_1
*I *863:A I *D sky130_fd_sc_hd__or3_1
*I *860:B1 I *D sky130_fd_sc_hd__o21a_1
*I *846:X O *D sky130_fd_sc_hd__xor2_1
*CAP
1 *877:B 0
2 *863:A 0
3 *860:B1 0
4 *846:X 0.000179806
5 *117:38 0.000249726
6 *117:25 0.000232513
7 *117:12 0.000353927
8 *117:6 0.000550946
9 *117:12 *861:B1 7.66188e-05
10 *117:12 *130:19 0
11 *117:25 *860:A1 0.00010018
12 *117:25 *860:A2 2.4754e-05
13 *117:25 *861:B1 0
14 *117:25 *864:A_N 0
15 *117:25 *130:19 9.98995e-05
16 *117:38 *848:A 0
17 *117:38 *861:B1 0
18 *117:38 *120:22 0
19 *117:38 *146:12 0
20 *116:21 *117:38 6.07611e-06
*RES
1 *846:X *117:6 26.0036 
2 *117:6 *117:12 32.9621 
3 *117:12 *860:B1 23 
4 *117:12 *117:25 35.1371 
5 *117:25 *863:A 23 
6 *117:6 *117:38 34.5364 
7 *117:38 *877:B 23 
*END

*D_NET *118 0.00253104
*CONN
*I *850:A I *D sky130_fd_sc_hd__nor2_1
*I *860:A1 I *D sky130_fd_sc_hd__o21a_1
*I *848:A I *D sky130_fd_sc_hd__inv_2
*I *863:B I *D sky130_fd_sc_hd__or3_1
*I *847:X O *D sky130_fd_sc_hd__and2_1
*CAP
1 *850:A 0
2 *860:A1 0.000124937
3 *848:A 0.000120989
4 *863:B 5.45535e-05
5 *847:X 0.000220304
6 *118:25 0.000348203
7 *118:23 0.000266537
8 *118:10 0.000218813
9 *118:8 0.000220304
10 *848:A *120:22 0.000222104
11 *860:A1 *860:A2 0.000185428
12 *860:A1 *130:6 0.000183733
13 *118:8 *120:8 0
14 *118:8 *371:10 0
15 *118:23 *120:8 2.82307e-05
16 *118:23 *120:22 1.14452e-05
17 *118:25 *120:22 0.000225275
18 *118:25 *130:19 0
19 *117:25 *860:A1 0.00010018
20 *117:38 *848:A 0
*RES
1 *847:X *118:8 42.0186 
2 *118:8 *118:10 15 
3 *118:10 *863:B 23.6214 
4 *118:10 *118:23 17.7757 
5 *118:23 *118:25 2.96214 
6 *118:25 *848:A 40.9621 
7 *118:25 *860:A1 41.9564 
8 *118:23 *850:A 38 
*END

*D_NET *119 0.000509448
*CONN
*I *881:A1 I *D sky130_fd_sc_hd__o21a_1
*I *848:Y O *D sky130_fd_sc_hd__inv_2
*CAP
1 *881:A1 0
2 *848:Y 0.000174164
3 *119:10 0.000174164
4 *119:10 *885:A1 0
5 *119:10 *120:22 0.000161121
6 *119:10 *129:10 0
7 *119:10 *148:14 0
*RES
1 *848:Y *119:10 40.8793 
2 *119:10 *881:A1 38 
*END

*D_NET *120 0.00249962
*CONN
*I *850:B I *D sky130_fd_sc_hd__nor2_1
*I *880:A1 I *D sky130_fd_sc_hd__o21a_1
*I *849:Y O *D sky130_fd_sc_hd__nor2_1
*CAP
1 *850:B 0
2 *880:A1 0
3 *849:Y 0.00025199
4 *120:22 0.000454883
5 *120:12 0.000478979
6 *120:8 0.000276087
7 *120:8 *121:12 3.0647e-05
8 *120:8 *370:10 0
9 *120:12 *121:6 2.93747e-05
10 *120:22 *881:A2 0.000184527
11 *120:22 *881:B1 9.67842e-05
12 *120:22 *121:6 7.53384e-06
13 *120:22 *121:12 0
14 *120:22 *144:6 2.4754e-05
15 *120:22 *146:12 1.58805e-05
16 *848:A *120:22 0.000222104
17 *117:38 *120:22 0
18 *118:8 *120:8 0
19 *118:23 *120:8 2.82307e-05
20 *118:23 *120:22 1.14452e-05
21 *118:25 *120:22 0.000225275
22 *119:10 *120:22 0.000161121
*RES
1 *849:Y *120:8 43.075 
2 *120:8 *120:12 15.6214 
3 *120:12 *120:22 41.745 
4 *120:22 *880:A1 23 
5 *120:12 *850:B 23 
*END

*D_NET *121 0.0010782
*CONN
*I *865:A I *D sky130_fd_sc_hd__xnor2_1
*I *859:B I *D sky130_fd_sc_hd__and2b_1
*I *850:Y O *D sky130_fd_sc_hd__nor2_1
*CAP
1 *865:A 0.000172336
2 *859:B 0
3 *850:Y 0.000103388
4 *121:12 0.000201245
5 *121:6 0.000476969
6 *865:A *370:10 5.67058e-05
7 *121:12 *865:B 0
8 *121:12 *129:32 0
9 *120:8 *121:12 3.0647e-05
10 *120:12 *121:6 2.93747e-05
11 *120:22 *121:6 7.53384e-06
12 *120:22 *121:12 0
*RES
1 *850:Y *121:6 24.5743 
2 *121:6 *121:12 34.0186 
3 *121:12 *859:B 23 
4 *121:6 *865:A 26.3764 
*END

*D_NET *122 0.00281836
*CONN
*I *853:A I *D sky130_fd_sc_hd__nand2_1
*I *858:B1 I *D sky130_fd_sc_hd__o31a_2
*I *851:Y O *D sky130_fd_sc_hd__nand2_1
*CAP
1 *853:A 0
2 *858:B1 0
3 *851:Y 5.62067e-05
4 *122:24 0.000463396
5 *122:14 0.000650982
6 *122:8 0.000243792
7 *122:8 *331:12 0.000138718
8 *122:8 *374:14 0.000138718
9 *122:14 *853:B 0.000185428
10 *122:14 *124:6 3.22879e-05
11 *122:14 *369:8 0.000528014
12 *122:24 *857:A 6.88554e-05
13 *122:24 *858:A3 2.80394e-05
14 *122:24 *123:8 0
15 *122:24 *127:12 0.000228909
16 *122:24 *128:10 5.50106e-05
17 *122:24 *373:10 0
*RES
1 *851:Y *122:8 39.9057 
2 *122:8 *122:14 21.3593 
3 *122:14 *122:24 39.0936 
4 *122:24 *858:B1 23 
5 *122:14 *853:A 23 
*END

*D_NET *123 0.000630036
*CONN
*I *853:B I *D sky130_fd_sc_hd__nand2_1
*I *852:X O *D sky130_fd_sc_hd__or2_1
*CAP
1 *853:B 7.79368e-05
2 *852:X 0.000144367
3 *123:8 0.000222304
4 *123:8 *331:12 0
5 *122:14 *853:B 0.000185428
6 *122:24 *123:8 0
*RES
1 *852:X *123:8 40.2579 
2 *123:8 *853:B 40.0507 
*END

*D_NET *124 0.001481
*CONN
*I *866:A I *D sky130_fd_sc_hd__xnor2_1
*I *858:A1 I *D sky130_fd_sc_hd__o31a_2
*I *853:Y O *D sky130_fd_sc_hd__nand2_1
*CAP
1 *866:A 2.34823e-05
2 *858:A1 0
3 *853:Y 0.000278904
4 *124:14 0.000314039
5 *124:6 0.000616425
6 *124:6 *369:8 0.000105934
7 *124:14 *126:8 1.14452e-05
8 *124:14 *128:10 0
9 *124:14 *129:10 0
10 *124:14 *147:21 9.84794e-05
11 *124:14 *373:10 0
12 *122:14 *124:6 3.22879e-05
*RES
1 *853:Y *124:6 28.3857 
2 *124:6 *124:14 35.2614 
3 *124:14 *858:A1 23 
4 *124:6 *866:A 23.4971 
*END

*D_NET *125 0.0018615
*CONN
*I *855:B1 I *D sky130_fd_sc_hd__a211oi_1
*I *854:Y O *D sky130_fd_sc_hd__o21ai_1
*CAP
1 *855:B1 0
2 *854:Y 0.000799683
3 *125:10 0.000799683
4 *125:10 *856:B1 0.000187129
5 *125:10 *865:B 0
6 *125:10 *126:8 5.21127e-05
7 *125:10 *373:10 0
8 *855:C1 *125:10 1.14452e-05
9 *111:29 *125:10 1.14452e-05
*RES
1 *854:Y *125:10 49.1029 
2 *125:10 *855:B1 38 
*END

*D_NET *126 0.0011068
*CONN
*I *857:A I *D sky130_fd_sc_hd__nor2_1
*I *858:A2 I *D sky130_fd_sc_hd__o31a_2
*I *855:Y O *D sky130_fd_sc_hd__a211oi_1
*CAP
1 *857:A 8.69192e-05
2 *858:A2 0
3 *855:Y 0.00031832
4 *126:10 8.69192e-05
5 *126:8 0.00031832
6 *857:A *858:A3 0.000163907
7 *126:8 *373:10 0
8 *122:24 *857:A 6.88554e-05
9 *124:14 *126:8 1.14452e-05
10 *125:10 *126:8 5.21127e-05
*RES
1 *855:Y *126:8 43.4271 
2 *126:8 *126:10 15 
3 *126:10 *858:A2 23 
4 *126:10 *857:A 26.045 
*END

*D_NET *127 0.00114761
*CONN
*I *858:A3 I *D sky130_fd_sc_hd__o31a_2
*I *857:B I *D sky130_fd_sc_hd__nor2_1
*I *856:X O *D sky130_fd_sc_hd__a21o_1
*CAP
1 *858:A3 0.000144836
2 *857:B 0
3 *856:X 0.000131239
4 *127:12 0.000232141
5 *127:8 0.000218544
6 *127:8 *373:10 0
7 *857:A *858:A3 0.000163907
8 *101:26 *127:8 0
9 *122:24 *858:A3 2.80394e-05
10 *122:24 *127:12 0.000228909
*RES
1 *856:X *127:8 40.2579 
2 *127:8 *127:12 17.5271 
3 *127:12 *857:B 23 
4 *127:12 *858:A3 26.3764 
*END

*D_NET *128 0.000438775
*CONN
*I *866:B I *D sky130_fd_sc_hd__xnor2_1
*I *857:Y O *D sky130_fd_sc_hd__nor2_1
*CAP
1 *866:B 0
2 *857:Y 0.000145085
3 *128:10 0.000145085
4 *128:10 *147:21 1.19692e-05
5 *128:10 *373:10 8.16253e-05
6 *122:24 *128:10 5.50106e-05
7 *124:14 *128:10 0
*RES
1 *857:Y *128:10 40.8793 
2 *128:10 *866:B 38 
*END

*D_NET *129 0.00275118
*CONN
*I *865:B I *D sky130_fd_sc_hd__xnor2_1
*I *859:A_N I *D sky130_fd_sc_hd__and2b_1
*I *882:A1 I *D sky130_fd_sc_hd__a21o_1
*I *885:A1 I *D sky130_fd_sc_hd__a211oi_4
*I *858:X O *D sky130_fd_sc_hd__o31a_2
*CAP
1 *865:B 0.000211765
2 *859:A_N 0.000119391
3 *882:A1 6.94194e-05
4 *885:A1 0.000348686
5 *858:X 0.000196301
6 *129:32 0.000491774
7 *129:10 0.000532884
8 *129:8 0.000471698
9 *882:A1 *147:8 9.84794e-05
10 *885:A1 *148:14 0.000129144
11 *885:A1 *149:8 8.16356e-05
12 *111:29 *865:B 0
13 *119:10 *885:A1 0
14 *119:10 *129:10 0
15 *121:12 *865:B 0
16 *121:12 *129:32 0
17 *124:14 *129:10 0
18 *125:10 *865:B 0
*RES
1 *858:X *129:8 41.48 
2 *129:8 *129:10 1.90571 
3 *129:10 *885:A1 44.5457 
4 *129:10 *882:A1 39.0979 
5 *129:8 *129:32 2.96214 
6 *129:32 *859:A_N 40.0507 
7 *129:32 *865:B 41.9357 
*END

*D_NET *130 0.00137255
*CONN
*I *863:C I *D sky130_fd_sc_hd__or3_1
*I *860:A2 I *D sky130_fd_sc_hd__o21a_1
*I *859:X O *D sky130_fd_sc_hd__and2b_1
*CAP
1 *863:C 0
2 *860:A2 0.00010511
3 *859:X 0.000189749
4 *130:19 0.000144509
5 *130:6 0.000439369
6 *860:A1 *860:A2 0.000185428
7 *860:A1 *130:6 0.000183733
8 *117:12 *130:19 0
9 *117:25 *860:A2 2.4754e-05
10 *117:25 *130:19 9.98995e-05
11 *118:25 *130:19 0
*RES
1 *859:X *130:6 26.48 
2 *130:6 *860:A2 25.5271 
3 *130:6 *130:19 33.3143 
4 *130:19 *863:C 23 
*END

*D_NET *131 0.00117427
*CONN
*I *864:A_N I *D sky130_fd_sc_hd__and2b_1
*I *861:B1 I *D sky130_fd_sc_hd__a21oi_1
*I *860:X O *D sky130_fd_sc_hd__o21a_1
*CAP
1 *864:A_N 9.01213e-05
2 *861:B1 0.000390548
3 *860:X 5.45426e-05
4 *131:8 0.000535211
5 *861:B1 *132:10 2.72257e-05
6 *864:A_N *257:10 0
7 *117:12 *861:B1 7.66188e-05
8 *117:25 *861:B1 0
9 *117:25 *864:A_N 0
10 *117:38 *861:B1 0
*RES
1 *860:X *131:8 38.6214 
2 *131:8 *861:B1 45.7057 
3 *131:8 *864:A_N 39.5536 
*END

*D_NET *132 0.000763784
*CONN
*I *862:B I *D sky130_fd_sc_hd__xnor2_1
*I *861:Y O *D sky130_fd_sc_hd__a21oi_1
*CAP
1 *862:B 0
2 *861:Y 0.000368279
3 *132:10 0.000368279
4 *861:B1 *132:10 2.72257e-05
5 *116:21 *132:10 0
*RES
1 *861:Y *132:10 44.1729 
2 *132:10 *862:B 38 
*END

*D_NET *133 0.000204133
*CONN
*I *864:B I *D sky130_fd_sc_hd__and2b_1
*I *863:X O *D sky130_fd_sc_hd__or3_1
*CAP
1 *864:B 7.37134e-05
2 *863:X 7.37134e-05
3 *864:B *371:10 5.67058e-05
*RES
1 *863:X *864:B 47.5743 
*END

*D_NET *134 0.00173264
*CONN
*I *907:A1 I *D sky130_fd_sc_hd__o221ai_4
*I *869:A_N I *D sky130_fd_sc_hd__nand2b_1
*I *867:Y O *D sky130_fd_sc_hd__nor2_1
*CAP
1 *907:A1 0.000230326
2 *869:A_N 4.97381e-05
3 *867:Y 0.000179135
4 *134:10 0.000459198
5 *869:A_N *342:10 9.84794e-05
6 *907:A1 *870:A 7.80354e-05
7 *907:A1 *871:A 4.78793e-05
8 *907:A1 *871:B 0
9 *907:A1 *906:B 0.000249918
10 *907:A1 *907:C1 0
11 *134:10 *867:B 9.24795e-06
12 *134:10 *868:A 5.70419e-05
13 *134:10 *135:10 7.53384e-06
14 *134:10 *299:8 8.85189e-05
15 sum[11] *907:A1 0
16 *1056:A *907:A1 1.01436e-05
17 *1056:A *134:10 0.000167443
*RES
1 *867:Y *134:10 41.8321 
2 *134:10 *869:A_N 39.0979 
3 *134:10 *907:A1 43.7793 
*END

*D_NET *135 0.00216086
*CONN
*I *907:C1 I *D sky130_fd_sc_hd__o221ai_4
*I *869:B I *D sky130_fd_sc_hd__nand2b_1
*I *868:Y O *D sky130_fd_sc_hd__nand2_1
*CAP
1 *907:C1 0.000636593
2 *869:B 3.26882e-05
3 *868:Y 0.000271101
4 *135:10 0.000940382
5 *869:B *342:10 6.91871e-05
6 *907:C1 *906:B 0
7 *907:C1 *136:19 0
8 *907:C1 *138:8 7.03766e-05
9 *907:C1 *155:10 0
10 *907:C1 *169:10 0
11 *135:10 *867:B 3.22879e-05
12 *135:10 *155:10 0
13 *135:10 *299:8 0
14 *135:10 *301:18 5.50049e-05
15 *135:10 *336:12 4.5707e-05
16 *907:A1 *907:C1 0
17 *134:10 *135:10 7.53384e-06
*RES
1 *868:Y *135:10 43.4893 
2 *135:10 *869:B 38.7768 
3 *135:10 *907:C1 49.31 
*END

*D_NET *136 0.000598335
*CONN
*I *906:A I *D sky130_fd_sc_hd__or2_1
*I *889:A I *D sky130_fd_sc_hd__xnor2_1
*I *869:Y O *D sky130_fd_sc_hd__nand2b_1
*CAP
1 *906:A 0
2 *889:A 3.78039e-05
3 *869:Y 9.67469e-05
4 *136:19 9.24593e-05
5 *136:6 0.00022701
6 *136:6 *342:10 5.67058e-05
7 *136:19 *155:10 8.76088e-05
8 *907:C1 *136:19 0
*RES
1 *869:Y *136:6 25.0507 
2 *136:6 *889:A 23.6214 
3 *136:6 *136:19 32.2579 
4 *136:19 *906:A 23 
*END

*D_NET *137 0.00109506
*CONN
*I *872:A I *D sky130_fd_sc_hd__nand2_1
*I *888:B1_N I *D sky130_fd_sc_hd__a21bo_1
*I *907:A2 I *D sky130_fd_sc_hd__o221ai_4
*I *870:Y O *D sky130_fd_sc_hd__nand2_1
*CAP
1 *872:A 6.7353e-05
2 *888:B1_N 0
3 *907:A2 0
4 *870:Y 0.000219653
5 *137:21 0.000147691
6 *137:8 0.000299991
7 *872:A *872:B 7.04229e-05
8 *872:A *139:8 6.17437e-06
9 *137:21 *906:B 0.000141888
10 *137:21 *138:8 0.000141888
*RES
1 *870:Y *137:8 26.5007 
2 *137:8 *907:A2 23 
3 *137:8 *137:21 32.5271 
4 *137:21 *888:B1_N 23 
5 *137:21 *872:A 24.4707 
*END

*D_NET *138 0.00133864
*CONN
*I *872:B I *D sky130_fd_sc_hd__nand2_1
*I *888:A1 I *D sky130_fd_sc_hd__a21bo_1
*I *871:X O *D sky130_fd_sc_hd__or2_1
*CAP
1 *872:B 0.000141689
2 *888:A1 7.68461e-05
3 *871:X 0.000221188
4 *138:10 0.000218535
5 *138:8 0.000221188
6 *872:B *139:8 1.5769e-05
7 *888:A1 *154:16 5.67058e-05
8 *138:8 *890:A 2.70366e-05
9 *138:8 *906:B 7.69935e-05
10 *138:8 *908:A2 0
11 *138:8 *169:10 0
12 *872:A *872:B 7.04229e-05
13 *907:C1 *138:8 7.03766e-05
14 *137:21 *138:8 0.000141888
*RES
1 *871:X *138:8 42.7229 
2 *138:8 *138:10 15 
3 *138:10 *888:A1 24.5743 
4 *138:10 *872:B 26.045 
*END

*D_NET *139 0.00238915
*CONN
*I *890:A I *D sky130_fd_sc_hd__xnor2_1
*I *906:B I *D sky130_fd_sc_hd__or2_1
*I *872:Y O *D sky130_fd_sc_hd__nand2_1
*CAP
1 *890:A 0.000436829
2 *906:B 0.000381159
3 *872:Y 4.67209e-05
4 *139:8 0.000864708
5 *890:A *908:A2 0
6 *890:A *154:16 0
7 *890:A *337:8 0.000141954
8 *906:B *288:10 0
9 *872:A *139:8 6.17437e-06
10 *872:B *139:8 1.5769e-05
11 *907:A1 *906:B 0.000249918
12 *907:C1 *906:B 0
13 *1045:A *890:A 0
14 *1094:A *890:A 0
15 *137:21 *906:B 0.000141888
16 *138:8 *890:A 2.70366e-05
17 *138:8 *906:B 7.69935e-05
*RES
1 *872:Y *139:8 38.6214 
2 *139:8 *906:B 46.7 
3 *139:8 *890:A 46.0579 
*END

*D_NET *140 0.00196737
*CONN
*I *875:A I *D sky130_fd_sc_hd__nand2_1
*I *887:B1_N I *D sky130_fd_sc_hd__a21bo_1
*I *907:B1 I *D sky130_fd_sc_hd__o221ai_4
*I *873:Y O *D sky130_fd_sc_hd__nand2_1
*CAP
1 *875:A 0
2 *887:B1_N 3.92298e-05
3 *907:B1 0.000200377
4 *873:Y 0.000123705
5 *140:36 4.82216e-05
6 *140:23 0.000380887
7 *140:8 0.000617518
8 *887:B1_N *142:6 5.50049e-05
9 *907:B1 *908:A2 0.000210659
10 *907:B1 *154:16 0
11 *907:B1 *155:10 7.03663e-05
12 *907:B1 *169:10 1.14452e-05
13 *140:8 *873:B 5.37348e-06
14 *140:23 *887:A1 1.22822e-05
15 *140:23 *141:6 5.70419e-05
16 *140:23 *142:6 5.50106e-05
17 *140:23 *154:8 9.88574e-06
18 *140:23 *154:16 0
19 *140:23 *337:21 7.03663e-05
20 *140:36 *873:B 0
21 *140:36 *142:21 0
*RES
1 *873:Y *140:8 39.5743 
2 *140:8 *907:B1 42.7229 
3 *140:8 *140:23 20.4893 
4 *140:23 *887:B1_N 23.6214 
5 *140:23 *140:36 30.8493 
6 *140:36 *875:A 23 
*END

*D_NET *141 0.000779258
*CONN
*I *887:A1 I *D sky130_fd_sc_hd__a21bo_1
*I *875:B I *D sky130_fd_sc_hd__nand2_1
*I *874:X O *D sky130_fd_sc_hd__or2_1
*CAP
1 *887:A1 7.83286e-05
2 *875:B 0
3 *874:X 1.73075e-05
4 *141:6 9.56362e-05
5 *887:A1 *142:6 0.000151601
6 *887:A1 *154:8 0.000317553
7 *141:6 *154:8 4.95081e-05
8 *140:23 *887:A1 1.22822e-05
9 *140:23 *141:6 5.70419e-05
*RES
1 *874:X *141:6 24.0979 
2 *141:6 *875:B 23 
3 *141:6 *887:A1 26.9771 
*END

*D_NET *142 0.00167082
*CONN
*I *908:A1 I *D sky130_fd_sc_hd__o21bai_2
*I *891:A I *D sky130_fd_sc_hd__xnor2_1
*I *875:Y O *D sky130_fd_sc_hd__nand2_1
*CAP
1 *908:A1 0
2 *891:A 0.000179582
3 *875:Y 0.000136261
4 *142:21 0.000281108
5 *142:6 0.00059695
6 *891:A *887:A2 0.000145611
7 *891:A *153:12 3.22879e-05
8 *142:6 *887:A2 6.17437e-06
9 *142:6 *154:8 1.03955e-05
10 *142:21 *153:8 0
11 *142:21 *171:8 2.08324e-05
12 *887:A1 *142:6 0.000151601
13 *887:B1_N *142:6 5.50049e-05
14 *140:23 *142:6 5.50106e-05
15 *140:36 *142:21 0
*RES
1 *875:Y *142:6 26.48 
2 *142:6 *891:A 26.9771 
3 *142:6 *142:21 35.4271 
4 *142:21 *908:A1 23 
*END

*D_NET *143 0.0021746
*CONN
*I *886:A I *D sky130_fd_sc_hd__or2_1
*I *909:A1 I *D sky130_fd_sc_hd__o31a_1
*I *910:A1 I *D sky130_fd_sc_hd__o311ai_4
*I *884:A I *D sky130_fd_sc_hd__or2_1
*I *876:X O *D sky130_fd_sc_hd__and2_1
*CAP
1 *886:A 0.000220096
2 *909:A1 3.38673e-05
3 *910:A1 0
4 *884:A 4.69071e-05
5 *876:X 0.000166242
6 *143:32 0.000409983
7 *143:21 0.000300106
8 *143:10 0.000357235
9 *884:A *151:8 5.41288e-05
10 *886:A *152:10 6.07611e-06
11 *886:A *152:16 0.000222091
12 *886:A *170:34 0
13 *886:A *171:8 0
14 *909:A1 *172:8 5.50106e-05
15 *143:10 *883:A 3.22879e-05
16 *143:10 *919:B 0
17 *143:10 *150:8 0
18 *143:21 *919:B 0
19 *143:21 *151:10 0
20 *143:21 *152:22 1.14452e-05
21 *143:32 *151:10 0
22 *143:32 *152:16 6.16531e-05
23 *143:32 *152:22 0.00019747
*RES
1 *876:X *143:10 40.8793 
2 *143:10 *884:A 39.0979 
3 *143:10 *143:21 2.61 
4 *143:21 *910:A1 38 
5 *143:21 *143:32 3.93571 
6 *143:32 *909:A1 38.6214 
7 *143:32 *886:A 43.7793 
*END

*D_NET *144 0.000991538
*CONN
*I *881:A2 I *D sky130_fd_sc_hd__o21a_1
*I *880:A2 I *D sky130_fd_sc_hd__o21a_1
*I *877:Y O *D sky130_fd_sc_hd__nand2_1
*CAP
1 *881:A2 0.000152148
2 *880:A2 0
3 *877:Y 0.000214226
4 *144:6 0.000366374
5 *881:A2 *881:B1 4.95081e-05
6 *120:22 *881:A2 0.000184527
7 *120:22 *144:6 2.4754e-05
*RES
1 *877:Y *144:6 26.0036 
2 *144:6 *880:A2 23 
3 *144:6 *881:A2 26.5007 
*END

*D_NET *145 0.000431751
*CONN
*I *879:B1 I *D sky130_fd_sc_hd__o21ai_1
*I *878:X O *D sky130_fd_sc_hd__a22o_1
*CAP
1 *879:B1 0
2 *878:X 0.000130709
3 *145:10 0.000130709
4 *145:10 *861:A2 2.93845e-05
5 *145:10 *300:50 0.000140949
*RES
1 *878:X *145:10 40.5271 
2 *145:10 *879:B1 38 
*END

*D_NET *146 0.00278421
*CONN
*I *881:B1 I *D sky130_fd_sc_hd__o21a_1
*I *880:B1 I *D sky130_fd_sc_hd__o21a_1
*I *879:Y O *D sky130_fd_sc_hd__o21ai_1
*CAP
1 *881:B1 0.000101417
2 *880:B1 0
3 *879:Y 0.000973226
4 *146:12 0.000244522
5 *146:6 0.00111633
6 *881:B1 *147:8 0.000182826
7 *146:6 *300:50 3.7122e-06
8 *146:12 *148:14 0
9 *881:A2 *881:B1 4.95081e-05
10 *116:21 *146:12 0
11 *117:38 *146:12 0
12 *120:22 *881:B1 9.67842e-05
13 *120:22 *146:12 1.58805e-05
*RES
1 *879:Y *146:6 35.5321 
2 *146:6 *146:12 32.2579 
3 *146:12 *880:B1 23 
4 *146:12 *881:B1 26.0036 
*END

*D_NET *147 0.00200939
*CONN
*I *885:C1 I *D sky130_fd_sc_hd__a211oi_4
*I *882:B1 I *D sky130_fd_sc_hd__a21o_1
*I *880:X O *D sky130_fd_sc_hd__o21a_1
*CAP
1 *885:C1 0
2 *882:B1 0
3 *880:X 0.000278371
4 *147:21 0.000481207
5 *147:8 0.000759578
6 *147:8 *148:6 9.84794e-05
7 *147:21 *885:B1 0
8 *147:21 *149:8 0
9 *147:21 *156:10 0
10 *147:21 *373:10 0
11 *881:B1 *147:8 0.000182826
12 *882:A1 *147:8 9.84794e-05
13 *124:14 *147:21 9.84794e-05
14 *128:10 *147:21 1.19692e-05
*RES
1 *880:X *147:8 28.8829 
2 *147:8 *882:B1 23 
3 *147:8 *147:21 39.1764 
4 *147:21 *885:C1 23 
*END

*D_NET *148 0.000823023
*CONN
*I *882:A2 I *D sky130_fd_sc_hd__a21o_1
*I *885:A2 I *D sky130_fd_sc_hd__a211oi_4
*I *881:X O *D sky130_fd_sc_hd__o21a_1
*CAP
1 *882:A2 0
2 *885:A2 0
3 *881:X 4.26123e-05
4 *148:14 0.000255088
5 *148:6 0.0002977
6 *885:A1 *148:14 0.000129144
7 *119:10 *148:14 0
8 *146:12 *148:14 0
9 *147:8 *148:6 9.84794e-05
*RES
1 *881:X *148:6 24.0979 
2 *148:6 *148:14 35.0129 
3 *148:14 *885:A2 23 
4 *148:6 *882:A2 23 
*END

*D_NET *149 0.000690507
*CONN
*I *892:A I *D sky130_fd_sc_hd__and2_1
*I *882:X O *D sky130_fd_sc_hd__a21o_1
*CAP
1 *892:A 6.34361e-05
2 *882:X 0.000241
3 *149:8 0.000304436
4 *149:8 *885:B1 0
5 *885:A1 *149:8 8.16356e-05
6 *147:21 *149:8 0
*RES
1 *882:X *149:8 42.7229 
2 *149:8 *892:A 39.0979 
*END

*D_NET *150 0.000238185
*CONN
*I *884:B I *D sky130_fd_sc_hd__or2_1
*I *883:Y O *D sky130_fd_sc_hd__nor2_1
*CAP
1 *884:B 0
2 *883:Y 0.000119093
3 *150:8 0.000119093
4 *143:10 *150:8 0
*RES
1 *883:Y *150:8 40.2579 
2 *150:8 *884:B 38 
*END

*D_NET *151 0.00283581
*CONN
*I *885:B1 I *D sky130_fd_sc_hd__a211oi_4
*I *892:B I *D sky130_fd_sc_hd__and2_1
*I *884:X O *D sky130_fd_sc_hd__or2_1
*CAP
1 *885:B1 0.000246659
2 *892:B 0
3 *884:X 0.000297911
4 *151:10 0.00109293
5 *151:8 0.00114418
6 *885:B1 *152:10 0
7 *151:10 *152:10 0
8 *151:10 *152:16 0
9 *884:A *151:8 5.41288e-05
10 *143:21 *151:10 0
11 *143:32 *151:10 0
12 *147:21 *885:B1 0
13 *149:8 *885:B1 0
*RES
1 *884:X *151:8 41.9564 
2 *151:8 *151:10 16.3436 
3 *151:10 *892:B 38 
4 *151:10 *885:B1 19.4639 
*END

*D_NET *152 0.00274768
*CONN
*I *893:A I *D sky130_fd_sc_hd__nor2_1
*I *886:B I *D sky130_fd_sc_hd__or2_1
*I *909:A2 I *D sky130_fd_sc_hd__o31a_1
*I *910:A2 I *D sky130_fd_sc_hd__o311ai_4
*I *885:Y O *D sky130_fd_sc_hd__a211oi_4
*CAP
1 *893:A 0.00025085
2 *886:B 0
3 *909:A2 0
4 *910:A2 0
5 *885:Y 0
6 *152:22 9.87291e-05
7 *152:16 0.000409249
8 *152:10 0.00072781
9 *152:4 0.00066814
10 *152:10 *153:8 0
11 *152:16 *172:8 9.41704e-05
12 *152:22 *919:B 0
13 *885:B1 *152:10 0
14 *886:A *152:10 6.07611e-06
15 *886:A *152:16 0.000222091
16 *143:21 *152:22 1.14452e-05
17 *143:32 *152:16 6.16531e-05
18 *143:32 *152:22 0.00019747
19 *151:10 *152:10 0
20 *151:10 *152:16 0
*RES
1 *885:Y *152:4 23 
2 *152:4 *152:10 22.7368 
3 *152:10 *152:16 22.5814 
4 *152:16 *152:22 32.61 
5 *152:22 *910:A2 23 
6 *152:16 *909:A2 23 
7 *152:10 *886:B 38 
8 *152:4 *893:A 27.0911 
*END

*D_NET *153 0.000891083
*CONN
*I *887:A2 I *D sky130_fd_sc_hd__a21bo_1
*I *891:B I *D sky130_fd_sc_hd__xnor2_1
*I *886:X O *D sky130_fd_sc_hd__or2_1
*CAP
1 *887:A2 7.30573e-05
2 *891:B 0
3 *886:X 0.000122661
4 *153:12 0.000156
5 *153:8 0.000205603
6 *887:A2 *154:8 0.00010018
7 *887:A2 *374:8 4.95081e-05
8 *891:A *887:A2 0.000145611
9 *891:A *153:12 3.22879e-05
10 *142:6 *887:A2 6.17437e-06
11 *142:21 *153:8 0
12 *152:10 *153:8 0
*RES
1 *886:X *153:8 40.2579 
2 *153:8 *153:12 16.5743 
3 *153:12 *891:B 23 
4 *153:12 *887:A2 26.0036 
*END

*D_NET *154 0.00254418
*CONN
*I *890:B I *D sky130_fd_sc_hd__xnor2_1
*I *888:A2 I *D sky130_fd_sc_hd__a21bo_1
*I *887:X O *D sky130_fd_sc_hd__a21bo_1
*CAP
1 *890:B 0
2 *888:A2 0
3 *887:X 0.000228882
4 *154:16 0.000347179
5 *154:8 0.000576061
6 *154:8 *874:A 1.94693e-05
7 *154:8 *337:8 4.57742e-05
8 *154:8 *374:8 0.000665349
9 *154:16 *873:B 9.64022e-05
10 *154:16 *302:10 2.08324e-05
11 *887:A1 *154:8 0.000317553
12 *887:A2 *154:8 0.00010018
13 *888:A1 *154:16 5.67058e-05
14 *890:A *154:16 0
15 *907:B1 *154:16 0
16 *140:23 *154:8 9.88574e-06
17 *140:23 *154:16 0
18 *141:6 *154:8 4.95081e-05
19 *142:6 *154:8 1.03955e-05
*RES
1 *887:X *154:8 32.2179 
2 *154:8 *154:16 36.8771 
3 *154:16 *888:A2 23 
4 *154:8 *890:B 23 
*END

*D_NET *155 0.00122612
*CONN
*I *889:B I *D sky130_fd_sc_hd__xnor2_1
*I *888:X O *D sky130_fd_sc_hd__a21bo_1
*CAP
1 *889:B 0
2 *888:X 0.000486981
3 *155:10 0.000486981
4 *155:10 *908:A2 4.57742e-05
5 *155:10 *168:10 0
6 *155:10 *169:10 4.84045e-05
7 *155:10 *173:8 0
8 *907:B1 *155:10 7.03663e-05
9 *907:C1 *155:10 0
10 *135:10 *155:10 0
11 *136:19 *155:10 8.76088e-05
*RES
1 *888:X *155:10 47.4664 
2 *155:10 *889:B 38 
*END

*D_NET *156 0.000978418
*CONN
*I *893:B I *D sky130_fd_sc_hd__nor2_1
*I *892:X O *D sky130_fd_sc_hd__and2_1
*CAP
1 *893:B 0
2 *892:X 0.000489209
3 *156:10 0.000489209
4 *147:21 *156:10 0
*RES
1 *892:X *156:10 44.3386 
2 *156:10 *893:B 38 
*END

*D_NET *157 0.00101139
*CONN
*I *932:A1 I *D sky130_fd_sc_hd__o221ai_1
*I *896:A_N I *D sky130_fd_sc_hd__nand2b_1
*I *894:Y O *D sky130_fd_sc_hd__nor2_1
*CAP
1 *932:A1 0.000205549
2 *896:A_N 0
3 *894:Y 0.000112277
4 *157:8 0.000317827
5 *932:A1 *932:B1 9.84851e-05
6 *932:A1 *932:C1 0
7 *932:A1 *933:A2 1.14452e-05
8 *932:A1 *158:20 1.14452e-05
9 *932:A1 *161:30 2.30292e-05
10 *932:A1 *190:10 0.000169674
11 *932:A1 *321:10 0
12 *157:8 *932:C1 0
13 *157:8 *158:8 0
14 *157:8 *158:20 6.16531e-05
15 *157:8 *159:19 0
*RES
1 *894:Y *157:8 39.9057 
2 *157:8 *896:A_N 38 
3 *157:8 *932:A1 42.4121 
*END

*D_NET *158 0.00131301
*CONN
*I *932:C1 I *D sky130_fd_sc_hd__o221ai_1
*I *896:B I *D sky130_fd_sc_hd__nand2b_1
*I *895:Y O *D sky130_fd_sc_hd__nand2_1
*CAP
1 *932:C1 0.000185804
2 *896:B 0
3 *895:Y 7.64e-05
4 *158:20 0.000219299
5 *158:8 0.000481502
6 *932:C1 *190:10 5.61311e-05
7 *932:C1 *349:10 0
8 *158:8 *349:10 0
9 *158:20 *931:A 0.000195702
10 *158:20 *931:B 1.18888e-05
11 *158:20 *159:19 9.48381e-06
12 *158:20 *190:10 3.70553e-06
13 *932:A1 *932:C1 0
14 *932:A1 *158:20 1.14452e-05
15 *157:8 *932:C1 0
16 *157:8 *158:8 0
17 *157:8 *158:20 6.16531e-05
*RES
1 *895:Y *158:8 39.2014 
2 *158:8 *158:20 48.5266 
3 *158:20 *896:B 23 
4 *158:8 *932:C1 42.0186 
*END

*D_NET *159 0.00120727
*CONN
*I *914:A I *D sky130_fd_sc_hd__xnor2_1
*I *931:A I *D sky130_fd_sc_hd__or2_1
*I *896:Y O *D sky130_fd_sc_hd__nand2b_1
*CAP
1 *914:A 0
2 *931:A 0.000129796
3 *896:Y 0
4 *159:19 0.000211218
5 *159:4 0.000341015
6 *931:A *931:B 0.000104379
7 *931:A *190:10 2.38424e-05
8 *159:19 *914:B 5.50106e-05
9 *159:19 *176:10 7.03869e-05
10 *159:19 *309:10 4.21594e-06
11 *159:19 *321:10 0
12 *159:19 *365:22 6.22151e-05
13 *157:8 *159:19 0
14 *158:20 *931:A 0.000195702
15 *158:20 *159:19 9.48381e-06
*RES
1 *896:Y *159:4 23 
2 *159:4 *931:A 26.48 
3 *159:4 *159:19 34.3086 
4 *159:19 *914:A 23 
*END

*D_NET *160 0.000913184
*CONN
*I *915:A_N I *D sky130_fd_sc_hd__nand2b_1
*I *913:A1 I *D sky130_fd_sc_hd__o21ai_1
*I *897:Y O *D sky130_fd_sc_hd__nor2_1
*CAP
1 *915:A_N 1.07143e-05
2 *913:A1 0.000158865
3 *897:Y 0.000144164
4 *160:10 0.000313743
5 *913:A1 *916:B 9.84794e-05
6 *913:A1 *931:B 2.18506e-05
7 *913:A1 *161:22 7.88926e-05
8 *913:A1 *321:10 6.84987e-06
9 *915:A_N *301:18 0
10 *160:10 *161:8 2.29192e-05
11 *160:10 *301:18 0
12 *160:10 *321:10 0
13 *160:10 *365:22 5.67058e-05
*RES
1 *897:Y *160:10 40.3511 
2 *160:10 *913:A1 40.9932 
3 *160:10 *915:A_N 38.3211 
*END

*D_NET *161 0.00192321
*CONN
*I *915:B I *D sky130_fd_sc_hd__nand2b_1
*I *913:B1 I *D sky130_fd_sc_hd__o21ai_1
*I *932:A2 I *D sky130_fd_sc_hd__o221ai_1
*I *898:Y O *D sky130_fd_sc_hd__nand2_1
*CAP
1 *915:B 2.54178e-05
2 *913:B1 0
3 *932:A2 0
4 *898:Y 5.29105e-05
5 *161:30 0.000252461
6 *161:22 0.000510237
7 *161:12 0.000424355
8 *161:8 0.000194072
9 *915:B *916:B 1.37039e-05
10 *161:8 *301:18 8.62783e-05
11 *161:12 *916:B 6.16164e-05
12 *161:22 *916:B 1.20903e-05
13 *161:22 *931:B 6.99549e-05
14 *161:22 *176:10 4.20956e-05
15 *161:30 *932:B1 1.32939e-05
16 *161:30 *321:10 3.98859e-05
17 *913:A1 *161:22 7.88926e-05
18 *932:A1 *161:30 2.30292e-05
19 *160:10 *161:8 2.29192e-05
*RES
1 *898:Y *161:8 39.2014 
2 *161:8 *161:12 17.0507 
3 *161:12 *161:22 5.11643 
4 *161:22 *161:30 33.9564 
5 *161:30 *932:A2 23 
6 *161:22 *913:B1 23 
7 *161:12 *915:B 23.9995 
*END

*D_NET *162 0.00164149
*CONN
*I *901:A I *D sky130_fd_sc_hd__nand2_1
*I *932:B1 I *D sky130_fd_sc_hd__o221ai_1
*I *899:Y O *D sky130_fd_sc_hd__nand2_1
*CAP
1 *901:A 0.000250295
2 *932:B1 0.000263032
3 *899:Y 0.000244914
4 *162:8 0.000758242
5 *901:A *933:A2 0
6 *901:A *321:10 0
7 *901:A *321:27 0
8 *932:B1 *933:A2 0
9 *932:B1 *191:10 1.32314e-05
10 *932:B1 *321:10 0
11 *932:A1 *932:B1 9.84851e-05
12 *161:30 *932:B1 1.32939e-05
*RES
1 *899:Y *162:8 41.0036 
2 *162:8 *932:B1 42.5779 
3 *162:8 *901:A 42.64 
*END

*D_NET *163 0.000136196
*CONN
*I *901:B I *D sky130_fd_sc_hd__nand2_1
*I *900:X O *D sky130_fd_sc_hd__or2_1
*CAP
1 *901:B 6.80978e-05
2 *900:X 6.80978e-05
*RES
1 *900:X *901:B 47.0979 
*END

*D_NET *164 0.00147313
*CONN
*I *911:B1 I *D sky130_fd_sc_hd__a21oi_1
*I *933:A1 I *D sky130_fd_sc_hd__o21ba_1
*I *917:A I *D sky130_fd_sc_hd__and3_1
*I *901:Y O *D sky130_fd_sc_hd__nand2_1
*CAP
1 *911:B1 0
2 *933:A1 2.87816e-05
3 *917:A 0
4 *901:Y 0
5 *164:36 0.000107326
6 *164:18 0.000340863
7 *164:8 0.000424878
8 *164:4 0.000162559
9 *164:18 *917:B 1.6873e-05
10 *164:18 *933:A2 9.84851e-05
11 *164:18 *934:A_N 0.000139346
12 *164:18 *934:B 4.40021e-05
13 *164:18 *173:18 5.50106e-05
14 *164:18 *192:8 5.50106e-05
15 *164:36 *917:B 0
16 *164:36 *934:B 0
17 *164:36 *174:21 0
*RES
1 *901:Y *164:4 23 
2 *164:4 *164:8 1.11857 
3 *164:8 *164:18 36.4836 
4 *164:18 *917:A 23 
5 *164:8 *933:A1 23.4971 
6 *164:4 *164:36 31.5536 
7 *164:36 *911:B1 23 
*END

*D_NET *165 0.0037256
*CONN
*I *904:A I *D sky130_fd_sc_hd__nand2_1
*I *911:A1 I *D sky130_fd_sc_hd__a21oi_1
*I *917:B I *D sky130_fd_sc_hd__and3_1
*I *934:B I *D sky130_fd_sc_hd__and2b_1
*I *902:Y O *D sky130_fd_sc_hd__nand2_1
*CAP
1 *904:A 3.23624e-05
2 *911:A1 0
3 *917:B 0.000205186
4 *934:B 0.000304838
5 *902:Y 0.00015203
6 *165:22 0.000752289
7 *165:14 0.0006667
8 *165:10 0.000608827
9 *904:A *174:21 1.34354e-05
10 *904:A *301:18 6.16531e-05
11 *917:B *167:10 4.6318e-06
12 *917:B *173:8 0
13 *917:B *173:16 1.94812e-05
14 *934:B *934:A_N 0.000128391
15 *934:B *191:10 6.25829e-05
16 *934:B *192:8 3.98818e-05
17 *165:10 *902:A 5.37348e-06
18 *165:10 *912:A2 1.32314e-05
19 *165:10 *174:21 2.29192e-05
20 *165:10 *175:10 5.73835e-06
21 *165:10 *301:18 8.4047e-05
22 *165:14 *173:12 7.73389e-05
23 *165:14 *174:8 9.24795e-06
24 *165:14 *178:10 7.06229e-05
25 *165:14 *345:8 0.000269775
26 *165:22 *173:12 2.4754e-05
27 *165:22 *173:16 2.93845e-05
28 *164:18 *917:B 1.6873e-05
29 *164:18 *934:B 4.40021e-05
30 *164:36 *917:B 0
31 *164:36 *934:B 0
*RES
1 *902:Y *165:10 40.2993 
2 *165:10 *165:14 21.815 
3 *165:14 *165:22 17.9932 
4 *165:22 *934:B 44.3904 
5 *165:22 *917:B 40.7032 
6 *165:14 *911:A1 23 
7 *165:10 *904:A 38.8493 
*END

*D_NET *166 0.000937258
*CONN
*I *904:B I *D sky130_fd_sc_hd__nand2_1
*I *903:X O *D sky130_fd_sc_hd__or2_1
*CAP
1 *904:B 0.000220353
2 *903:X 6.10942e-05
3 *166:8 0.000281447
4 *904:B *174:8 0
5 *904:B *345:8 4.37033e-05
6 *166:8 *305:16 0.00016533
7 *166:8 *336:12 0.00016533
*RES
1 *903:X *166:8 40.2579 
2 *166:8 *904:B 41.9771 
*END

*D_NET *167 0.00311264
*CONN
*I *905:A I *D sky130_fd_sc_hd__inv_2
*I *919:A I *D sky130_fd_sc_hd__xnor2_1
*I *904:Y O *D sky130_fd_sc_hd__nand2_1
*CAP
1 *905:A 0.000238574
2 *919:A 2.53514e-05
3 *904:Y 0.000558903
4 *167:10 0.000493644
5 *167:8 0.000788621
6 *905:A *919:B 0
7 *905:A *168:10 2.93747e-05
8 *905:A *173:8 0
9 *905:A *336:28 1.58805e-05
10 *919:A *301:20 0.000141954
11 *919:A *336:28 0.000141954
12 *167:8 *173:16 1.76557e-05
13 *167:8 *174:8 0.00031495
14 *167:8 *174:21 3.17516e-05
15 *167:8 *178:10 9.90162e-05
16 *167:8 *345:8 4.27353e-05
17 *167:10 *173:8 0
18 *167:10 *336:28 2.3529e-05
19 *167:10 *344:8 0.00014411
20 *917:B *167:10 4.6318e-06
*RES
1 *904:Y *167:8 46.7207 
2 *167:8 *167:10 4.72286 
3 *167:10 *919:A 39.5743 
4 *167:10 *905:A 42.4121 
*END

*D_NET *168 0.000558014
*CONN
*I *910:C1 I *D sky130_fd_sc_hd__o311ai_4
*I *905:Y O *D sky130_fd_sc_hd__inv_2
*CAP
1 *910:C1 0
2 *905:Y 0.000246493
3 *168:10 0.000246493
4 *168:10 *910:B1 0
5 *168:10 *919:B 0
6 *168:10 *173:8 3.56537e-05
7 *905:A *168:10 2.93747e-05
8 *155:10 *168:10 0
*RES
1 *905:Y *168:10 41.9564 
2 *168:10 *910:C1 38 
*END

*D_NET *169 0.00181216
*CONN
*I *908:A2 I *D sky130_fd_sc_hd__o21bai_2
*I *907:B2 I *D sky130_fd_sc_hd__o221ai_4
*I *906:X O *D sky130_fd_sc_hd__or2_1
*CAP
1 *908:A2 0.000498766
2 *907:B2 0
3 *906:X 0.000249173
4 *169:10 0.00074794
5 *890:A *908:A2 0
6 *907:B1 *908:A2 0.000210659
7 *907:B1 *169:10 1.14452e-05
8 *907:C1 *169:10 0
9 *138:8 *908:A2 0
10 *138:8 *169:10 0
11 *155:10 *908:A2 4.57742e-05
12 *155:10 *169:10 4.84045e-05
*RES
1 *906:X *169:10 41.8321 
2 *169:10 *907:B2 38 
3 *169:10 *908:A2 47.7979 
*END

*D_NET *170 0.00191367
*CONN
*I *908:B1_N I *D sky130_fd_sc_hd__o21bai_2
*I *909:A3 I *D sky130_fd_sc_hd__o31a_1
*I *910:A3 I *D sky130_fd_sc_hd__o311ai_4
*I *907:Y O *D sky130_fd_sc_hd__o221ai_4
*CAP
1 *908:B1_N 0
2 *909:A3 6.62561e-05
3 *910:A3 0
4 *907:Y 0.000235972
5 *170:34 0.00018701
6 *170:21 0.000371277
7 *170:12 6.35565e-05
8 *170:6 0.00041754
9 *909:A3 *172:8 0.000141954
10 *170:6 *909:B1 1.21972e-05
11 *170:12 *910:B1 0.000169665
12 *170:12 *919:B 8.76088e-05
13 *170:21 *909:B1 4.79641e-05
14 *170:21 *172:8 9.67842e-05
15 *170:34 *919:B 1.58805e-05
16 *170:34 *171:8 0
17 *886:A *170:34 0
*RES
1 *907:Y *170:6 26.0036 
2 *170:6 *170:12 32.2579 
3 *170:12 *910:A3 23 
4 *170:6 *170:21 2.54786 
5 *170:21 *909:A3 24.5743 
6 *170:21 *170:34 33.3143 
7 *170:34 *908:B1_N 23 
*END

*D_NET *171 0.00136936
*CONN
*I *909:B1 I *D sky130_fd_sc_hd__o31a_1
*I *910:B1 I *D sky130_fd_sc_hd__o311ai_4
*I *908:Y O *D sky130_fd_sc_hd__o21bai_2
*CAP
1 *909:B1 0.000156302
2 *910:B1 0.000159692
3 *908:Y 0.000144711
4 *171:8 0.000460704
5 *909:B1 *172:8 0.000182826
6 *910:B1 *919:B 1.4471e-05
7 *886:A *171:8 0
8 *142:21 *171:8 2.08324e-05
9 *168:10 *910:B1 0
10 *170:6 *909:B1 1.21972e-05
11 *170:12 *910:B1 0.000169665
12 *170:21 *909:B1 4.79641e-05
13 *170:34 *171:8 0
*RES
1 *908:Y *171:8 40.9621 
2 *171:8 *910:B1 41.3143 
3 *171:8 *909:B1 41.48 
*END

*D_NET *172 0.0019062
*CONN
*I *919:B I *D sky130_fd_sc_hd__xnor2_1
*I *909:X O *D sky130_fd_sc_hd__o31a_1
*CAP
1 *919:B 0.000452643
2 *909:X 0.000156103
3 *172:8 0.000608745
4 *919:B *173:8 0
5 *905:A *919:B 0
6 *909:A1 *172:8 5.50106e-05
7 *909:A3 *172:8 0.000141954
8 *909:B1 *172:8 0.000182826
9 *910:B1 *919:B 1.4471e-05
10 *143:10 *919:B 0
11 *143:21 *919:B 0
12 *152:16 *172:8 9.41704e-05
13 *152:22 *919:B 0
14 *168:10 *919:B 0
15 *170:12 *919:B 8.76088e-05
16 *170:21 *172:8 9.67842e-05
17 *170:34 *919:B 1.58805e-05
*RES
1 *909:X *172:8 42.4329 
2 *172:8 *919:B 46.2443 
*END

*D_NET *173 0.00390259
*CONN
*I *911:A2 I *D sky130_fd_sc_hd__a21oi_1
*I *917:C I *D sky130_fd_sc_hd__and3_1
*I *935:A1 I *D sky130_fd_sc_hd__a21o_1
*I *959:A1 I *D sky130_fd_sc_hd__a2111o_1
*I *910:Y O *D sky130_fd_sc_hd__o311ai_4
*CAP
1 *911:A2 0
2 *917:C 3.74792e-05
3 *935:A1 0
4 *959:A1 0
5 *910:Y 0.000641418
6 *173:26 0.000190625
7 *173:18 0.00074495
8 *173:16 0.000700307
9 *173:12 0.000148761
10 *173:8 0.000681677
11 *173:8 *336:28 0
12 *173:8 *344:8 0
13 *173:12 *178:10 0.000185428
14 *173:16 *178:10 5.67058e-05
15 *173:26 *935:B1 7.48331e-05
16 *173:26 *959:D1 6.70363e-05
17 *173:26 *194:8 0.000114092
18 *905:A *173:8 0
19 *917:B *173:8 0
20 *917:B *173:16 1.94812e-05
21 *919:B *173:8 0
22 *155:10 *173:8 0
23 *164:18 *173:18 5.50106e-05
24 *165:14 *173:12 7.73389e-05
25 *165:22 *173:12 2.4754e-05
26 *165:22 *173:16 2.93845e-05
27 *167:8 *173:16 1.76557e-05
28 *167:10 *173:8 0
29 *168:10 *173:8 3.56537e-05
*RES
1 *910:Y *173:8 49.0614 
2 *173:8 *173:12 17.0507 
3 *173:12 *173:16 2.9 
4 *173:16 *173:18 7.29143 
5 *173:18 *173:26 33.48 
6 *173:26 *959:A1 23 
7 *173:18 *935:A1 23 
8 *173:16 *917:C 23.7043 
9 *173:12 *911:A2 23 
*END

*D_NET *174 0.00129332
*CONN
*I *912:B1 I *D sky130_fd_sc_hd__a21oi_1
*I *918:A I *D sky130_fd_sc_hd__nor2_1
*I *911:Y O *D sky130_fd_sc_hd__a21oi_1
*CAP
1 *912:B1 0
2 *918:A 0
3 *911:Y 8.68018e-05
4 *174:21 0.00018151
5 *174:8 0.000268312
6 *174:8 *178:10 0.000248253
7 *174:8 *345:8 1.76557e-05
8 *174:21 *301:18 0
9 *174:21 *345:8 9.84794e-05
10 *904:A *174:21 1.34354e-05
11 *904:B *174:8 0
12 *164:36 *174:21 0
13 *165:10 *174:21 2.29192e-05
14 *165:14 *174:8 9.24795e-06
15 *167:8 *174:8 0.00031495
16 *167:8 *174:21 3.17516e-05
*RES
1 *911:Y *174:8 27.3293 
2 *174:8 *918:A 23 
3 *174:8 *174:21 33.3557 
4 *174:21 *912:B1 23 
*END

*D_NET *175 0.0027722
*CONN
*I *913:A2 I *D sky130_fd_sc_hd__o21ai_1
*I *916:A I *D sky130_fd_sc_hd__xor2_1
*I *912:Y O *D sky130_fd_sc_hd__a21oi_1
*CAP
1 *913:A2 0.000350654
2 *916:A 2.81509e-05
3 *912:Y 0.000373619
4 *175:10 0.000752423
5 *913:A2 *916:B 0.000195119
6 *913:A2 *931:B 9.75779e-05
7 *916:A *301:18 8.94487e-05
8 *916:A *310:8 4.7869e-05
9 *175:10 *900:A 5.41288e-05
10 *175:10 *902:A 6.17437e-06
11 *175:10 *912:A2 1.14876e-05
12 *175:10 *301:18 0.000502845
13 *175:10 *310:8 0.000256961
14 *165:10 *175:10 5.73835e-06
*RES
1 *912:Y *175:10 47.3629 
2 *175:10 *916:A 39.2014 
3 *175:10 *913:A2 43.3857 
*END

*D_NET *176 0.000556207
*CONN
*I *914:B I *D sky130_fd_sc_hd__xnor2_1
*I *913:Y O *D sky130_fd_sc_hd__o21ai_1
*CAP
1 *914:B 1.24964e-05
2 *913:Y 0.000126142
3 *176:10 0.000138639
4 *914:B *365:22 3.22879e-05
5 *176:10 *309:10 0
6 *176:10 *321:10 7.91493e-05
7 *159:19 *914:B 5.50106e-05
8 *159:19 *176:10 7.03869e-05
9 *161:22 *176:10 4.20956e-05
*RES
1 *913:Y *176:10 40.8793 
2 *176:10 *914:B 38.6214 
*END

*D_NET *177 0.00150693
*CONN
*I *916:B I *D sky130_fd_sc_hd__xor2_1
*I *931:B I *D sky130_fd_sc_hd__or2_1
*I *915:Y O *D sky130_fd_sc_hd__nand2b_1
*CAP
1 *916:B 0.000104794
2 *931:B 0.00029975
3 *915:Y 0
4 *177:4 0.000404544
5 *931:B *190:10 1.11801e-05
6 *913:A1 *916:B 9.84794e-05
7 *913:A1 *931:B 2.18506e-05
8 *913:A2 *916:B 0.000195119
9 *913:A2 *931:B 9.75779e-05
10 *915:B *916:B 1.37039e-05
11 *931:A *931:B 0.000104379
12 *158:20 *931:B 1.18888e-05
13 *161:12 *916:B 6.16164e-05
14 *161:22 *916:B 1.20903e-05
15 *161:22 *931:B 6.99549e-05
*RES
1 *915:Y *177:4 23 
2 *177:4 *931:B 30.0791 
3 *177:4 *916:B 26.9564 
*END

*D_NET *178 0.000885634
*CONN
*I *918:B I *D sky130_fd_sc_hd__nor2_1
*I *917:X O *D sky130_fd_sc_hd__and3_1
*CAP
1 *918:B 0
2 *917:X 0.000112804
3 *178:10 0.000112804
4 *165:14 *178:10 7.06229e-05
5 *167:8 *178:10 9.90162e-05
6 *173:12 *178:10 0.000185428
7 *173:16 *178:10 5.67058e-05
8 *174:8 *178:10 0.000248253
*RES
1 *917:X *178:10 28.4271 
2 *178:10 *918:B 23 
*END

*D_NET *179 0.00193244
*CONN
*I *960:A1 I *D sky130_fd_sc_hd__o221a_1
*I *922:A_N I *D sky130_fd_sc_hd__nand2b_1
*I *920:Y O *D sky130_fd_sc_hd__nor2_1
*CAP
1 *960:A1 0.000472685
2 *922:A_N 5.53589e-05
3 *920:Y 0.000167464
4 *179:8 0.000695508
5 *922:A_N *920:A 0
6 *922:A_N *1112:A 6.16439e-05
7 *960:A1 *960:B2 8.1656e-05
8 *960:A1 *1112:A 0.000139657
9 *960:A1 *180:25 0.000100733
10 *179:8 *921:B 9.49224e-05
11 *179:8 *922:B 5.5274e-05
12 *179:8 *279:16 7.53384e-06
*RES
1 *920:Y *179:8 41.48 
2 *179:8 *922:A_N 38.8493 
3 *179:8 *960:A1 46.6171 
*END

*D_NET *180 0.00104894
*CONN
*I *960:C1 I *D sky130_fd_sc_hd__o221a_1
*I *922:B I *D sky130_fd_sc_hd__nand2b_1
*I *921:Y O *D sky130_fd_sc_hd__nand2_1
*CAP
1 *960:C1 0
2 *922:B 0.00012277
3 *921:Y 0
4 *180:25 0.00019833
5 *180:4 0.0003211
6 *922:B *921:B 6.62056e-05
7 *922:B *957:A 1.5769e-05
8 *180:25 *1112:A 0.000168754
9 *180:25 *354:18 0
10 *960:A1 *180:25 0.000100733
11 *179:8 *922:B 5.5274e-05
*RES
1 *921:Y *180:4 23 
2 *180:4 *922:B 26.0709 
3 *180:4 *180:25 34.3086 
4 *180:25 *960:C1 23 
*END

*D_NET *181 0.00307783
*CONN
*I *957:A I *D sky130_fd_sc_hd__or2_1
*I *940:A I *D sky130_fd_sc_hd__xnor2_1
*I *922:Y O *D sky130_fd_sc_hd__nand2b_1
*CAP
1 *957:A 0.000917882
2 *940:A 0
3 *922:Y 0
4 *181:12 0.000185425
5 *181:4 0.00110331
6 *957:A *921:B 0.000227208
7 *181:12 *920:A 8.62876e-05
8 *181:12 *198:8 0.000171898
9 *181:12 *314:10 5.94125e-05
10 *181:12 *354:10 0.000310641
11 *922:B *957:A 1.5769e-05
*RES
1 *922:Y *181:4 23 
2 *181:4 *181:12 35.3857 
3 *181:12 *940:A 23 
4 *181:4 *957:A 35.0764 
*END

*D_NET *182 0.0013057
*CONN
*I *941:A I *D sky130_fd_sc_hd__nand2_1
*I *939:A1 I *D sky130_fd_sc_hd__a21bo_1
*I *923:X O *D sky130_fd_sc_hd__or2_1
*CAP
1 *941:A 0
2 *939:A1 0
3 *923:X 0.000109079
4 *182:25 9.88503e-05
5 *182:14 0.000148898
6 *182:6 0.000356828
7 *182:6 *923:B 1.24376e-05
8 *182:6 *939:A2 2.47815e-05
9 *182:6 *313:29 2.98648e-05
10 *182:14 *923:B 0.000221997
11 *182:14 *183:8 9.84794e-05
12 *182:14 *183:21 2.96154e-05
13 *182:14 *313:14 1.62015e-05
14 *182:25 *941:B 2.72055e-05
15 *182:25 *311:8 6.6869e-05
16 *182:25 *313:29 5.31444e-05
17 *182:25 *372:14 0
18 *1068:A *182:25 1.14452e-05
*RES
1 *923:X *182:6 25.0507 
2 *182:6 *182:14 33.3764 
3 *182:14 *939:A1 23 
4 *182:6 *182:25 32.61 
5 *182:25 *941:A 23 
*END

*D_NET *183 0.00221294
*CONN
*I *960:A2 I *D sky130_fd_sc_hd__o221a_1
*I *939:B1_N I *D sky130_fd_sc_hd__a21bo_1
*I *941:B I *D sky130_fd_sc_hd__nand2_1
*I *924:Y O *D sky130_fd_sc_hd__nand2_1
*CAP
1 *960:A2 0.000303093
2 *939:B1_N 3.62338e-05
3 *941:B 0.000141767
4 *924:Y 0.000219427
5 *183:21 0.000386525
6 *183:8 0.000408391
7 *939:B1_N *923:B 9.5877e-05
8 *939:B1_N *939:A2 2.02872e-05
9 *939:B1_N *313:29 5.50106e-05
10 *941:B *1112:A 0
11 *941:B *278:12 0
12 *941:B *313:14 3.7122e-06
13 *941:B *313:29 9.98159e-05
14 *960:A2 *1112:A 0
15 *960:A2 *311:8 0
16 *960:A2 *313:29 3.70187e-05
17 *960:A2 *354:18 0
18 *183:8 *923:B 6.51843e-05
19 *183:8 *198:8 9.84794e-05
20 *183:21 *313:29 8.4047e-05
21 *1070:A *941:B 2.76611e-06
22 *182:14 *183:8 9.84794e-05
23 *182:14 *183:21 2.96154e-05
24 *182:25 *941:B 2.72055e-05
*RES
1 *924:Y *183:8 41.48 
2 *183:8 *941:B 40.8793 
3 *183:8 *183:21 1.20143 
4 *183:21 *939:B1_N 39.0979 
5 *183:21 *960:A2 43.4271 
*END

*D_NET *184 0.00299947
*CONN
*I *961:A1 I *D sky130_fd_sc_hd__o21a_1
*I *927:A I *D sky130_fd_sc_hd__nand2_1
*I *925:Y O *D sky130_fd_sc_hd__nand2_1
*CAP
1 *961:A1 0
2 *927:A 0
3 *925:Y 0.000191576
4 *184:29 0.000343642
5 *184:14 0.000535219
6 *184:14 *938:A1 2.46468e-05
7 *184:14 *938:B1 0.000138727
8 *184:14 *185:8 6.68793e-05
9 *184:14 *196:8 1.14452e-05
10 *184:14 *312:12 0.0001157
11 *184:14 *365:26 2.32101e-05
12 *184:29 *958:A 5.29672e-05
13 *184:29 *958:B 4.79641e-05
14 *184:29 *960:B2 9.11651e-05
15 *184:29 *961:A2 2.93747e-05
16 *184:29 *185:8 6.07611e-06
17 *184:29 *186:8 0.000114083
18 *184:29 *186:12 2.18409e-05
19 *184:29 *186:20 0.000274604
20 *184:29 *187:25 0.000573195
21 *184:29 *187:42 5.50049e-05
22 *184:29 *196:8 0.00016046
23 *184:29 *200:10 9.84794e-05
24 *184:29 *213:29 2.32101e-05
*RES
1 *925:Y *184:14 42.5986 
2 *184:14 *927:A 38 
3 *184:14 *184:29 27.7807 
4 *184:29 *961:A1 23 
*END

*D_NET *185 0.000268077
*CONN
*I *927:B I *D sky130_fd_sc_hd__nand2_1
*I *926:X O *D sky130_fd_sc_hd__or2_1
*CAP
1 *927:B 0
2 *926:X 9.7561e-05
3 *185:8 9.7561e-05
4 *185:8 *349:10 0
5 *184:14 *185:8 6.68793e-05
6 *184:29 *185:8 6.07611e-06
*RES
1 *926:X *185:8 39.9057 
2 *185:8 *927:B 38 
*END

*D_NET *186 0.00172745
*CONN
*I *937:B1 I *D sky130_fd_sc_hd__a21oi_1
*I *943:A I *D sky130_fd_sc_hd__and3_1
*I *958:A I *D sky130_fd_sc_hd__or2_1
*I *927:Y O *D sky130_fd_sc_hd__nand2_1
*CAP
1 *937:B1 0
2 *943:A 0
3 *958:A 0.000150627
4 *927:Y 0.000110902
5 *186:20 0.000324303
6 *186:12 0.000237853
7 *186:8 0.000175078
8 *958:A *960:B2 9.84794e-05
9 *958:A *213:29 5.3304e-05
10 *186:8 *187:42 0
11 *186:20 *937:A2 5.67058e-05
12 *186:20 *943:C 5.67018e-05
13 *184:29 *958:A 5.29672e-05
14 *184:29 *186:8 0.000114083
15 *184:29 *186:12 2.18409e-05
16 *184:29 *186:20 0.000274604
*RES
1 *927:Y *186:8 40.2579 
2 *186:8 *186:12 16.0979 
3 *186:12 *186:20 5.44786 
4 *186:20 *958:A 26.0036 
5 *186:20 *943:A 23 
6 *186:12 *937:B1 23 
*END

*D_NET *187 0.0040174
*CONN
*I *930:A I *D sky130_fd_sc_hd__nand2_1
*I *937:A1 I *D sky130_fd_sc_hd__a21oi_1
*I *943:B I *D sky130_fd_sc_hd__and3_1
*I *960:B1 I *D sky130_fd_sc_hd__o221a_1
*I *928:Y O *D sky130_fd_sc_hd__nand2_1
*CAP
1 *930:A 4.01156e-05
2 *937:A1 0
3 *943:B 0
4 *960:B1 0
5 *928:Y 0
6 *187:42 0.000270514
7 *187:25 0.000909938
8 *187:17 0.00101593
9 *187:10 8.86203e-05
10 *187:4 0.000425008
11 *930:A *928:A 0
12 *187:10 *311:8 0
13 *187:10 *354:18 7.03869e-05
14 *187:17 *928:A 4.19743e-05
15 *187:17 *929:B 9.84851e-05
16 *187:17 *930:B 2.32101e-05
17 *187:17 *189:10 3.82058e-06
18 *187:17 *311:12 0.000141954
19 *187:25 *960:B2 2.07242e-05
20 *187:25 *961:A2 1.41077e-05
21 *187:25 *961:B1 1.94812e-05
22 *187:25 *216:8 8.62783e-05
23 *187:25 *311:8 4.41619e-05
24 *187:25 *372:14 6.70914e-05
25 *187:42 *937:A2 4.6318e-06
26 *187:42 *200:10 2.76611e-06
27 *187:42 *348:12 0
28 *184:29 *187:25 0.000573195
29 *184:29 *187:42 5.50049e-05
30 *186:8 *187:42 0
*RES
1 *928:Y *187:4 23 
2 *187:4 *187:10 31.9057 
3 *187:10 *960:B1 23 
4 *187:4 *187:17 4.90929 
5 *187:17 *187:25 41.2064 
6 *187:25 *943:B 23 
7 *187:25 *187:42 33.5421 
8 *187:42 *937:A1 23 
9 *187:17 *930:A 23.8493 
*END

*D_NET *188 0.000162522
*CONN
*I *930:B I *D sky130_fd_sc_hd__nand2_1
*I *929:X O *D sky130_fd_sc_hd__or2_1
*CAP
1 *930:B 4.21536e-05
2 *929:X 4.21536e-05
3 *930:B *311:12 5.50049e-05
4 *187:17 *930:B 2.32101e-05
*RES
1 *929:X *930:B 47.0979 
*END

*D_NET *189 0.00203604
*CONN
*I *959:C1 I *D sky130_fd_sc_hd__a2111o_1
*I *936:A I *D sky130_fd_sc_hd__or2_1
*I *945:A I *D sky130_fd_sc_hd__xor2_1
*I *930:Y O *D sky130_fd_sc_hd__nand2_1
*CAP
1 *959:C1 5.68098e-05
2 *936:A 0
3 *945:A 0
4 *930:Y 0.000310251
5 *189:19 0.000154569
6 *189:12 9.77592e-05
7 *189:10 0.000310251
8 *959:C1 *194:12 0.000317553
9 *959:C1 *195:10 0.000230604
10 *959:C1 *213:29 1.41077e-05
11 *189:10 *348:12 0
12 *189:10 *372:14 0.000169674
13 *189:19 *945:B 0.000228909
14 *189:19 *194:12 8.6949e-05
15 *189:19 *348:8 5.47808e-05
16 *187:17 *189:10 3.82058e-06
*RES
1 *930:Y *189:10 42.785 
2 *189:10 *189:12 15 
3 *189:12 *945:A 23 
4 *189:12 *189:19 3.48 
5 *189:19 *936:A 23 
6 *189:19 *959:C1 26.48 
*END

*D_NET *190 0.00176058
*CONN
*I *933:A2 I *D sky130_fd_sc_hd__o21ba_1
*I *932:B2 I *D sky130_fd_sc_hd__o221ai_1
*I *931:X O *D sky130_fd_sc_hd__or2_1
*CAP
1 *933:A2 0.000279029
2 *932:B2 0
3 *931:X 0.000222283
4 *190:10 0.000501312
5 *933:A2 *191:10 0.000383494
6 *933:A2 *321:10 0
7 *901:A *933:A2 0
8 *931:A *190:10 2.38424e-05
9 *931:B *190:10 1.11801e-05
10 *932:A1 *933:A2 1.14452e-05
11 *932:A1 *190:10 0.000169674
12 *932:B1 *933:A2 0
13 *932:C1 *190:10 5.61311e-05
14 *158:20 *190:10 3.70553e-06
15 *164:18 *933:A2 9.84851e-05
*RES
1 *931:X *190:10 42.3086 
2 *190:10 *932:B2 38 
3 *190:10 *933:A2 44.8771 
*END

*D_NET *191 0.00148487
*CONN
*I *933:B1_N I *D sky130_fd_sc_hd__o21ba_1
*I *934:A_N I *D sky130_fd_sc_hd__and2b_1
*I *932:Y O *D sky130_fd_sc_hd__o221ai_1
*CAP
1 *933:B1_N 0
2 *934:A_N 7.31673e-05
3 *932:Y 0.000268613
4 *191:12 7.31673e-05
5 *191:10 0.000268613
6 *934:A_N *192:8 7.42621e-05
7 *932:B1 *191:10 1.32314e-05
8 *933:A2 *191:10 0.000383494
9 *934:B *934:A_N 0.000128391
10 *934:B *191:10 6.25829e-05
11 *164:18 *934:A_N 0.000139346
*RES
1 *932:Y *191:10 44.1729 
2 *191:10 *191:12 15 
3 *191:12 *934:A_N 26.0036 
4 *191:12 *933:B1_N 23 
*END

*D_NET *192 0.0021922
*CONN
*I *935:B1 I *D sky130_fd_sc_hd__a21o_1
*I *959:D1 I *D sky130_fd_sc_hd__a2111o_1
*I *933:X O *D sky130_fd_sc_hd__o21ba_1
*CAP
1 *935:B1 7.74833e-05
2 *959:D1 0.000134629
3 *933:X 0.00051088
4 *192:8 0.000722992
5 *935:B1 *193:21 4.23714e-05
6 *959:D1 *193:21 2.22079e-05
7 *959:D1 *195:10 0.00011436
8 *959:D1 *213:29 9.84794e-05
9 *192:8 *959:A2 5.41288e-05
10 *192:8 *193:8 0.000103647
11 *934:A_N *192:8 7.42621e-05
12 *934:B *192:8 3.98818e-05
13 *164:18 *192:8 5.50106e-05
14 *173:26 *935:B1 7.48331e-05
15 *173:26 *959:D1 6.70363e-05
*RES
1 *933:X *192:8 45.7679 
2 *192:8 *959:D1 41.6043 
3 *192:8 *935:B1 39.9057 
*END

*D_NET *193 0.000765309
*CONN
*I *935:A2 I *D sky130_fd_sc_hd__a21o_1
*I *959:A2 I *D sky130_fd_sc_hd__a2111o_1
*I *934:X O *D sky130_fd_sc_hd__and2b_1
*CAP
1 *935:A2 0
2 *959:A2 4.22598e-05
3 *934:X 9.39118e-05
4 *193:21 0.000135305
5 *193:8 0.000271477
6 *935:B1 *193:21 4.23714e-05
7 *959:D1 *193:21 2.22079e-05
8 *192:8 *959:A2 5.41288e-05
9 *192:8 *193:8 0.000103647
*RES
1 *934:X *193:8 25.5479 
2 *193:8 *959:A2 24.0979 
3 *193:8 *193:21 32.61 
4 *193:21 *935:A2 23 
*END

*D_NET *194 0.00186952
*CONN
*I *936:B I *D sky130_fd_sc_hd__or2_1
*I *945:B I *D sky130_fd_sc_hd__xor2_1
*I *935:X O *D sky130_fd_sc_hd__a21o_1
*CAP
1 *936:B 0
2 *945:B 9.72256e-05
3 *935:X 6.90544e-05
4 *194:12 0.00022954
5 *194:8 0.000201368
6 *945:B *214:6 0.000272383
7 *194:12 *195:10 2.18409e-05
8 *194:12 *214:6 0.000230604
9 *959:C1 *194:12 0.000317553
10 *173:26 *194:8 0.000114092
11 *189:19 *945:B 0.000228909
12 *189:19 *194:12 8.6949e-05
*RES
1 *935:X *194:8 39.5536 
2 *194:8 *194:12 19.9093 
3 *194:12 *945:B 26.8529 
4 *194:12 *936:B 23 
*END

*D_NET *195 0.00152084
*CONN
*I *943:C I *D sky130_fd_sc_hd__and3_1
*I *937:A2 I *D sky130_fd_sc_hd__a21oi_1
*I *936:X O *D sky130_fd_sc_hd__or2_1
*CAP
1 *943:C 6.02594e-05
2 *937:A2 9.03425e-05
3 *936:X 0.00031789
4 *195:10 0.000468492
5 *937:A2 *213:29 0
6 *195:10 *213:29 9.90162e-05
7 *959:C1 *195:10 0.000230604
8 *959:D1 *195:10 0.00011436
9 *186:20 *937:A2 5.67058e-05
10 *186:20 *943:C 5.67018e-05
11 *187:42 *937:A2 4.6318e-06
12 *194:12 *195:10 2.18409e-05
*RES
1 *936:X *195:10 45.7264 
2 *195:10 *937:A2 39.4707 
3 *195:10 *943:C 38.9632 
*END

*D_NET *196 0.00123801
*CONN
*I *944:A I *D sky130_fd_sc_hd__nor2_1
*I *938:B1 I *D sky130_fd_sc_hd__a21o_1
*I *937:Y O *D sky130_fd_sc_hd__a21oi_1
*CAP
1 *944:A 0
2 *938:B1 0.000293717
3 *937:Y 5.43538e-05
4 *196:8 0.00034807
5 *938:B1 *938:A1 0.000143655
6 *938:B1 *200:10 6.07611e-06
7 *938:B1 *350:10 2.45549e-06
8 *938:B1 *365:26 0
9 *196:8 *200:10 7.90464e-05
10 *184:14 *938:B1 0.000138727
11 *184:14 *196:8 1.14452e-05
12 *184:29 *196:8 0.00016046
*RES
1 *937:Y *196:8 40.2579 
2 *196:8 *938:B1 43.2821 
3 *196:8 *944:A 38 
*END

*D_NET *197 0.00221841
*CONN
*I *939:A2 I *D sky130_fd_sc_hd__a21bo_1
*I *942:A I *D sky130_fd_sc_hd__xnor2_1
*I *938:X O *D sky130_fd_sc_hd__a21o_1
*CAP
1 *939:A2 0.000553816
2 *942:A 0
3 *938:X 0.000286675
4 *197:6 0.000840491
5 *939:A2 *923:B 4.56219e-05
6 *939:A2 *942:B 3.71369e-05
7 *939:A2 *313:29 0.000183733
8 *197:6 *350:10 0.000225863
9 *939:B1_N *939:A2 2.02872e-05
10 *182:6 *939:A2 2.47815e-05
*RES
1 *938:X *197:6 29.3386 
2 *197:6 *942:A 23 
3 *197:6 *939:A2 31.5136 
*END

*D_NET *198 0.00134076
*CONN
*I *940:B I *D sky130_fd_sc_hd__xnor2_1
*I *939:X O *D sky130_fd_sc_hd__a21bo_1
*CAP
1 *940:B 0
2 *939:X 0.000415818
3 *198:8 0.000415818
4 *198:8 *923:B 0.00012033
5 *198:8 *354:10 0.000118415
6 *181:12 *198:8 0.000171898
7 *183:8 *198:8 9.84794e-05
*RES
1 *939:X *198:8 31.7414 
2 *198:8 *940:B 23 
*END

*D_NET *199 0.00141305
*CONN
*I *957:B I *D sky130_fd_sc_hd__or2_1
*I *942:B I *D sky130_fd_sc_hd__xnor2_1
*I *941:Y O *D sky130_fd_sc_hd__nand2_1
*CAP
1 *957:B 0.000110436
2 *942:B 5.48742e-05
3 *941:Y 0.000401728
4 *199:14 0.000567038
5 *957:B *311:8 5.40762e-05
6 *957:B *372:14 5.93381e-05
7 *199:14 *311:8 2.83536e-05
8 *199:14 *372:14 4.52726e-05
9 *939:A2 *942:B 3.71369e-05
10 *1068:A *199:14 5.47927e-05
*RES
1 *941:Y *199:14 44.1521 
2 *199:14 *942:B 39.0979 
3 *199:14 *957:B 40.61 
*END

*D_NET *200 0.000516304
*CONN
*I *944:B I *D sky130_fd_sc_hd__nor2_1
*I *943:X O *D sky130_fd_sc_hd__and3_1
*CAP
1 *944:B 0
2 *943:X 0.000164968
3 *200:10 0.000164968
4 *200:10 *348:12 0
5 *938:B1 *200:10 6.07611e-06
6 *184:29 *200:10 9.84794e-05
7 *187:42 *200:10 2.76611e-06
8 *196:8 *200:10 7.90464e-05
*RES
1 *943:X *200:10 41.3557 
2 *200:10 *944:B 38 
*END

*D_NET *201 0.00111633
*CONN
*I *948:A I *D sky130_fd_sc_hd__nand2_1
*I *985:B I *D sky130_fd_sc_hd__nand2b_1
*I *946:X O *D sky130_fd_sc_hd__or2_1
*CAP
1 *948:A 6.0576e-05
2 *985:B 0
3 *946:X 7.45662e-05
4 *201:16 0.000233852
5 *201:8 0.000247842
6 *948:A *202:8 0.000172552
7 *948:A *236:10 5.67058e-05
8 *201:8 *284:24 0
9 *201:8 *319:10 0.000110386
10 *201:16 *947:B 0
11 *201:16 *202:8 0.000159852
*RES
1 *946:X *201:8 39.5536 
2 *201:8 *201:16 18.6509 
3 *201:16 *985:B 23 
4 *201:16 *948:A 25.0455 
*END

*D_NET *202 0.00208217
*CONN
*I *948:B I *D sky130_fd_sc_hd__nand2_1
*I *986:A I *D sky130_fd_sc_hd__and4_1
*I *947:Y O *D sky130_fd_sc_hd__nand2_1
*CAP
1 *948:B 0
2 *986:A 0
3 *947:Y 0.000116939
4 *202:16 0.000384615
5 *202:8 0.000501555
6 *202:8 *236:10 4.95081e-05
7 *202:8 *284:16 0.000530622
8 *202:16 *359:16 0.000166522
9 *948:A *202:8 0.000172552
10 *1076:A *202:16 0
11 *201:16 *202:8 0.000159852
*RES
1 *947:Y *202:8 29.3593 
2 *202:8 *202:16 36.6907 
3 *202:16 *986:A 23 
4 *202:8 *948:B 23 
*END

*D_NET *203 0.00241583
*CONN
*I *984:A I *D sky130_fd_sc_hd__or3_1
*I *980:A I *D sky130_fd_sc_hd__nor3_1
*I *966:A I *D sky130_fd_sc_hd__xnor2_1
*I *948:Y O *D sky130_fd_sc_hd__nand2_1
*CAP
1 *984:A 0
2 *980:A 0.000161925
3 *966:A 0.000128808
4 *948:Y 0.000150104
5 *203:21 0.000455219
6 *203:12 0.000422103
7 *203:10 0.000150104
8 *980:A *980:B 0.000102389
9 *980:A *980:C 5.79559e-05
10 *980:A *221:27 4.62515e-05
11 *203:10 *985:A_N 5.61414e-05
12 *203:10 *221:27 1.83667e-05
13 *203:10 *284:16 0.000140151
14 *203:21 *221:27 0.000526313
*RES
1 *948:Y *203:10 41.3557 
2 *203:10 *203:12 15 
3 *203:12 *966:A 25.0507 
4 *203:12 *203:21 6.815 
5 *203:21 *980:A 26.5007 
6 *203:21 *984:A 23 
*END

*D_NET *204 0.00173125
*CONN
*I *967:A I *D sky130_fd_sc_hd__nand2_1
*I *965:A1 I *D sky130_fd_sc_hd__a21bo_1
*I *949:X O *D sky130_fd_sc_hd__or2_1
*CAP
1 *967:A 0.000198222
2 *965:A1 2.34823e-05
3 *949:X 0.000269939
4 *204:14 0.000378178
5 *204:10 0.000426412
6 *965:A1 *967:B 0
7 *967:A *967:B 5.90075e-05
8 *967:A *205:16 6.70749e-05
9 *967:A *221:8 5.3304e-05
10 *204:10 *950:A 5.29672e-05
11 *204:10 *950:B 3.22879e-05
12 *204:10 *283:8 4.08641e-05
13 *204:10 *316:10 0.000111852
14 *204:14 *205:16 3.7122e-06
15 *204:14 *220:10 1.39431e-05
*RES
1 *949:X *204:10 42.5571 
2 *204:10 *204:14 17.0507 
3 *204:14 *965:A1 23.4971 
4 *204:14 *967:A 26.9771 
*END

*D_NET *205 0.0025453
*CONN
*I *985:A_N I *D sky130_fd_sc_hd__nand2b_1
*I *965:B1_N I *D sky130_fd_sc_hd__a21bo_1
*I *967:B I *D sky130_fd_sc_hd__nand2_1
*I *950:Y O *D sky130_fd_sc_hd__nand2_1
*CAP
1 *985:A_N 0.000432292
2 *965:B1_N 0
3 *967:B 4.71431e-05
4 *950:Y 0.000316394
5 *205:16 0.000173789
6 *205:10 0.000875332
7 *985:A_N *220:10 0.000189163
8 *985:A_N *221:27 0
9 *985:A_N *284:16 0
10 *985:A_N *316:10 4.98718e-06
11 *985:A_N *319:10 0
12 *985:A_N *357:10 0
13 *205:10 *950:A 5.67058e-05
14 *205:10 *968:B 0
15 *205:10 *219:16 0.000220541
16 *205:10 *221:27 0
17 *205:10 *316:10 4.30193e-05
18 *965:A1 *967:B 0
19 *967:A *967:B 5.90075e-05
20 *967:A *205:16 6.70749e-05
21 *47:13 *205:10 0
22 *203:10 *985:A_N 5.61414e-05
23 *204:14 *205:16 3.7122e-06
*RES
1 *950:Y *205:10 44.0693 
2 *205:10 *205:16 17.5479 
3 *205:16 *967:B 24.1186 
4 *205:16 *965:B1_N 23 
5 *205:10 *985:A_N 46.8657 
*END

*D_NET *206 0.00225071
*CONN
*I *984:B I *D sky130_fd_sc_hd__or3_1
*I *953:A I *D sky130_fd_sc_hd__nand2_1
*I *951:Y O *D sky130_fd_sc_hd__nand2_1
*CAP
1 *984:B 0.000415039
2 *953:A 0
3 *951:Y 0.000219321
4 *206:10 0.00063436
5 *984:B *980:B 0
6 *984:B *207:8 6.07611e-06
7 *984:B *208:10 0
8 *984:B *222:10 0
9 *984:B *235:10 3.70187e-05
10 *984:B *359:16 0
11 *206:10 *964:A1 0.000185368
12 *206:10 *207:8 6.93553e-05
13 *206:10 *218:22 8.51329e-05
14 *206:10 *282:10 6.16531e-05
15 *206:10 *317:14 0.000176146
16 *206:10 *354:10 0.000361236
17 *206:10 *359:16 0
*RES
1 *951:Y *206:10 45.2707 
2 *206:10 *953:A 38 
3 *206:10 *984:B 44.8357 
*END

*D_NET *207 0.000258132
*CONN
*I *953:B I *D sky130_fd_sc_hd__nand2_1
*I *952:X O *D sky130_fd_sc_hd__or2_1
*CAP
1 *953:B 0
2 *952:X 9.13502e-05
3 *207:8 9.13502e-05
4 *984:B *207:8 6.07611e-06
5 *206:10 *207:8 6.93553e-05
*RES
1 *952:X *207:8 39.9057 
2 *207:8 *953:B 38 
*END

*D_NET *208 0.00217481
*CONN
*I *980:B I *D sky130_fd_sc_hd__nor3_1
*I *963:B1 I *D sky130_fd_sc_hd__a21oi_1
*I *969:A I *D sky130_fd_sc_hd__and3_1
*I *953:Y O *D sky130_fd_sc_hd__nand2_1
*CAP
1 *980:B 0.000148935
2 *963:B1 7.01373e-06
3 *969:A 0
4 *953:Y 0.00038647
5 *208:14 0.000111577
6 *208:10 0.000639969
7 *963:B1 *963:A1 4.44329e-05
8 *963:B1 *969:C 5.79559e-05
9 *980:B *210:18 0.000167452
10 *980:B *231:10 3.42398e-05
11 *208:10 *210:18 6.25829e-05
12 *208:10 *218:22 6.71372e-05
13 *208:10 *222:10 3.83778e-05
14 *208:14 *963:A1 0.000102389
15 *208:14 *969:C 0.000110116
16 *208:14 *209:10 1.1674e-05
17 *208:14 *209:25 5.56356e-05
18 *208:14 *210:10 2.64616e-05
19 *980:A *980:B 0.000102389
20 *984:B *980:B 0
21 *984:B *208:10 0
*RES
1 *953:Y *208:10 43.6136 
2 *208:10 *208:14 17.5271 
3 *208:14 *969:A 23 
4 *208:14 *963:B1 23.6214 
5 *208:10 *980:B 41.8321 
*END

*D_NET *209 0.00530899
*CONN
*I *963:A1 I *D sky130_fd_sc_hd__a21oi_1
*I *956:A I *D sky130_fd_sc_hd__nand2_1
*I *983:A I *D sky130_fd_sc_hd__or2_1
*I *969:B I *D sky130_fd_sc_hd__and3_1
*I *954:Y O *D sky130_fd_sc_hd__nand2_1
*CAP
1 *963:A1 8.21313e-05
2 *956:A 4.07029e-05
3 *983:A 0.00037155
4 *969:B 1.15278e-05
5 *954:Y 0.000988651
6 *209:25 0.000616078
7 *209:19 0.000321981
8 *209:10 0.0010362
9 *956:A *210:18 8.02348e-05
10 *963:A1 *969:C 4.65096e-05
11 *963:A1 *218:10 3.42479e-05
12 *983:A *981:A 0.000162342
13 *983:A *983:B 3.52233e-06
14 *983:A *210:18 1.21972e-05
15 *983:A *211:8 2.45549e-06
16 *983:A *236:10 1.23407e-05
17 *209:10 *210:10 0.000862413
18 *209:10 *222:10 5.50049e-05
19 *209:25 *210:18 0.000354769
20 *963:B1 *963:A1 4.44329e-05
21 *208:14 *963:A1 0.000102389
22 *208:14 *209:10 1.1674e-05
23 *208:14 *209:25 5.56356e-05
*RES
1 *954:Y *209:10 38.5564 
2 *209:10 *969:B 23.4971 
3 *209:10 *209:19 0.849286 
4 *209:19 *209:25 20.3443 
5 *209:25 *983:A 43.1579 
6 *209:25 *956:A 39.2014 
7 *209:19 *963:A1 25.5271 
*END

*D_NET *210 0.00353405
*CONN
*I *956:B I *D sky130_fd_sc_hd__nand2_1
*I *955:X O *D sky130_fd_sc_hd__or2_1
*CAP
1 *956:B 0
2 *955:X 0.000620975
3 *210:18 0.000234589
4 *210:10 0.000855563
5 *210:10 *955:A 0.000141954
6 *210:18 *981:A 6.17437e-06
7 *210:18 *231:10 0.000108681
8 *210:18 *358:18 0
9 *956:A *210:18 8.02348e-05
10 *980:B *210:18 0.000167452
11 *983:A *210:18 1.21972e-05
12 *208:10 *210:18 6.25829e-05
13 *208:14 *210:10 2.64616e-05
14 *209:10 *210:10 0.000862413
15 *209:25 *210:18 0.000354769
*RES
1 *955:X *210:10 38.5564 
2 *210:10 *210:18 36.7529 
3 *210:18 *956:B 23 
*END

*D_NET *211 0.00120484
*CONN
*I *982:C1 I *D sky130_fd_sc_hd__a211o_1
*I *971:A I *D sky130_fd_sc_hd__nand3_1
*I *962:B1 I *D sky130_fd_sc_hd__a21o_1
*I *956:Y O *D sky130_fd_sc_hd__nand2_1
*CAP
1 *982:C1 0
2 *971:A 9.57009e-05
3 *962:B1 1.99836e-05
4 *956:Y 0
5 *211:32 0.000158721
6 *211:8 0.0003343
7 *211:4 0.000377337
8 *962:B1 *216:18 4.00259e-06
9 *971:A *971:B 1.14154e-05
10 *971:A *214:8 9.75779e-05
11 *971:A *216:18 4.77059e-05
12 *211:32 *232:23 5.56356e-05
13 *983:A *211:8 2.45549e-06
*RES
1 *956:Y *211:4 23 
2 *211:4 *211:8 3.50071 
3 *211:8 *962:B1 23.4971 
4 *211:8 *971:A 25.5479 
5 *211:4 *211:32 32.5271 
6 *211:32 *982:C1 23 
*END

*D_NET *212 0.000849111
*CONN
*I *958:B I *D sky130_fd_sc_hd__or2_1
*I *961:A2 I *D sky130_fd_sc_hd__o21a_1
*I *957:X O *D sky130_fd_sc_hd__or2_1
*CAP
1 *958:B 2.06886e-05
2 *961:A2 3.55869e-05
3 *957:X 0.00018411
4 *212:12 5.62755e-05
5 *212:10 0.00018411
6 *958:B *960:B2 9.84851e-05
7 *961:A2 *960:B2 9.67842e-05
8 *212:10 *348:12 0
9 *212:10 *372:14 8.16253e-05
10 *184:29 *958:B 4.79641e-05
11 *184:29 *961:A2 2.93747e-05
12 *187:25 *961:A2 1.41077e-05
*RES
1 *957:X *212:10 40.8793 
2 *212:10 *212:12 15 
3 *212:12 *961:A2 24.0979 
4 *212:12 *958:B 24.0979 
*END

*D_NET *213 0.00318717
*CONN
*I *959:B1 I *D sky130_fd_sc_hd__a2111o_1
*I *960:B2 I *D sky130_fd_sc_hd__o221a_1
*I *958:X O *D sky130_fd_sc_hd__or2_1
*CAP
1 *959:B1 0
2 *960:B2 0.000485847
3 *958:X 0
4 *213:29 0.000431062
5 *213:4 0.000916909
6 *960:B2 *961:B1 0.000225399
7 *213:29 *348:12 0.000352538
8 *937:A2 *213:29 0
9 *958:A *960:B2 9.84794e-05
10 *958:A *213:29 5.3304e-05
11 *958:B *960:B2 9.84851e-05
12 *959:C1 *213:29 1.41077e-05
13 *959:D1 *213:29 9.84794e-05
14 *960:A1 *960:B2 8.1656e-05
15 *961:A2 *960:B2 9.67842e-05
16 *184:29 *960:B2 9.11651e-05
17 *184:29 *213:29 2.32101e-05
18 *187:25 *960:B2 2.07242e-05
19 *195:10 *213:29 9.90162e-05
*RES
1 *958:X *213:4 23 
2 *213:4 *960:B2 33.9579 
3 *213:4 *213:29 38.8243 
4 *213:29 *959:B1 23 
*END

*D_NET *214 0.00444149
*CONN
*I *971:B I *D sky130_fd_sc_hd__nand3_1
*I *962:A1 I *D sky130_fd_sc_hd__a21o_1
*I *982:A1 I *D sky130_fd_sc_hd__a211o_1
*I *959:X O *D sky130_fd_sc_hd__a2111o_1
*CAP
1 *971:B 2.0995e-05
2 *962:A1 0
3 *982:A1 0
4 *959:X 0.00114109
5 *214:18 0.000185476
6 *214:8 0.000291149
7 *214:6 0.00126776
8 *214:6 *216:12 0.00054921
9 *214:6 *216:18 2.9938e-05
10 *214:8 *216:18 1.76557e-05
11 *214:18 *216:26 0.000251826
12 *214:18 *232:23 1.8788e-05
13 *214:18 *358:18 5.56203e-05
14 *945:B *214:6 0.000272383
15 *971:A *971:B 1.14154e-05
16 *971:A *214:8 9.75779e-05
17 *194:12 *214:6 0.000230604
*RES
1 *959:X *214:6 41.7257 
2 *214:6 *214:8 1.57429 
3 *214:8 *214:18 34.1014 
4 *214:18 *982:A1 23 
5 *214:8 *962:A1 23 
6 *214:6 *971:B 23.4971 
*END

*D_NET *215 0.000433131
*CONN
*I *961:B1 I *D sky130_fd_sc_hd__o21a_1
*I *960:X O *D sky130_fd_sc_hd__o221a_1
*CAP
1 *961:B1 9.41253e-05
2 *960:X 9.41253e-05
3 *960:B2 *961:B1 0.000225399
4 *187:25 *961:B1 1.94812e-05
*RES
1 *960:X *961:B1 48.5271 
*END

*D_NET *216 0.00304639
*CONN
*I *971:C I *D sky130_fd_sc_hd__nand3_1
*I *962:A2 I *D sky130_fd_sc_hd__a21o_1
*I *982:A2 I *D sky130_fd_sc_hd__a211o_1
*I *961:X O *D sky130_fd_sc_hd__o21a_1
*CAP
1 *971:C 0
2 *962:A2 0
3 *982:A2 0
4 *961:X 0.00025467
5 *216:26 0.000238831
6 *216:18 0.000341199
7 *216:12 0.000466755
8 *216:8 0.000619056
9 *216:8 *311:8 5.21024e-05
10 *216:8 *372:14 0
11 *216:18 *223:10 2.93747e-05
12 *216:26 *233:10 3.41017e-05
13 *216:26 *358:18 2.36844e-05
14 *962:B1 *216:18 4.00259e-06
15 *971:A *216:18 4.77059e-05
16 *187:25 *216:8 8.62783e-05
17 *214:6 *216:12 0.00054921
18 *214:6 *216:18 2.9938e-05
19 *214:8 *216:18 1.76557e-05
20 *214:18 *216:26 0.000251826
*RES
1 *961:X *216:8 43.075 
2 *216:8 *216:12 25.6264 
3 *216:12 *216:18 3.045 
4 *216:18 *216:26 34.6607 
5 *216:26 *982:A2 23 
6 *216:18 *962:A2 23 
7 *216:12 *971:C 23 
*END

*D_NET *217 0.00181778
*CONN
*I *972:A I *D sky130_fd_sc_hd__and2_1
*I *969:C I *D sky130_fd_sc_hd__and3_1
*I *963:A2 I *D sky130_fd_sc_hd__a21oi_1
*I *962:X O *D sky130_fd_sc_hd__a21o_1
*CAP
1 *972:A 0.000113511
2 *969:C 0.000211128
3 *963:A2 3.35343e-05
4 *962:X 9.66032e-05
5 *217:16 0.000337181
6 *217:12 0.000318008
7 *217:8 0.000208582
8 *963:A2 *358:18 6.25829e-05
9 *217:8 *358:18 6.47651e-05
10 *217:16 *223:10 0
11 *217:16 *358:18 0.000157299
12 *963:A1 *969:C 4.65096e-05
13 *963:B1 *969:C 5.79559e-05
14 *208:14 *969:C 0.000110116
*RES
1 *962:X *217:8 39.9057 
2 *217:8 *217:12 16.5743 
3 *217:12 *217:16 17.2579 
4 *217:16 *963:A2 38.8493 
5 *217:16 *969:C 41.0864 
6 *217:12 *972:A 25.0507 
*END

*D_NET *218 0.0016986
*CONN
*I *970:A I *D sky130_fd_sc_hd__nor2_1
*I *964:B1 I *D sky130_fd_sc_hd__a21o_1
*I *963:Y O *D sky130_fd_sc_hd__a21oi_1
*CAP
1 *970:A 0
2 *964:B1 0
3 *963:Y 0.000193626
4 *218:22 0.000494565
5 *218:12 0.000494565
6 *218:10 0.000193626
7 *218:10 *222:10 7.84014e-05
8 *218:22 *355:10 5.72975e-05
9 *218:22 *359:16 0
10 *963:A1 *218:10 3.42479e-05
11 *206:10 *218:22 8.51329e-05
12 *208:10 *218:22 6.71372e-05
*RES
1 *963:Y *218:10 41.3557 
2 *218:10 *218:12 15 
3 *218:12 *218:22 39.0936 
4 *218:22 *964:B1 23 
5 *218:12 *970:A 23 
*END

*D_NET *219 0.00166621
*CONN
*I *968:A I *D sky130_fd_sc_hd__xnor2_1
*I *965:A2 I *D sky130_fd_sc_hd__a21bo_1
*I *964:X O *D sky130_fd_sc_hd__a21o_1
*CAP
1 *968:A 0
2 *965:A2 0
3 *964:X 0.000237398
4 *219:16 0.000156468
5 *219:8 0.000393866
6 *219:8 *950:A 0
7 *219:8 *968:B 2.32004e-05
8 *219:8 *316:10 0.000223687
9 *219:8 *354:10 1.73399e-05
10 *219:8 *356:10 1.40958e-05
11 *219:16 *283:8 0
12 *219:16 *316:10 0.000133771
13 *1097:A *219:8 2.4754e-05
14 *47:13 *219:8 0.000221084
15 *205:10 *219:16 0.000220541
*RES
1 *964:X *219:8 28.8829 
2 *219:8 *219:16 34.1843 
3 *219:16 *965:A2 23 
4 *219:8 *968:A 23 
*END

*D_NET *220 0.000867395
*CONN
*I *966:B I *D sky130_fd_sc_hd__xnor2_1
*I *965:X O *D sky130_fd_sc_hd__a21bo_1
*CAP
1 *966:B 0
2 *965:X 0.000252049
3 *220:10 0.000252049
4 *220:10 *281:8 0
5 *220:10 *316:10 0.000160191
6 *985:A_N *220:10 0.000189163
7 *1038:A *220:10 0
8 *204:14 *220:10 1.39431e-05
*RES
1 *965:X *220:10 43.6964 
2 *220:10 *966:B 38 
*END

*D_NET *221 0.00325458
*CONN
*I *980:C I *D sky130_fd_sc_hd__nor3_1
*I *984:C I *D sky130_fd_sc_hd__or3_1
*I *968:B I *D sky130_fd_sc_hd__xnor2_1
*I *967:Y O *D sky130_fd_sc_hd__nand2_1
*CAP
1 *980:C 1.63643e-05
2 *984:C 0
3 *968:B 0.000163984
4 *967:Y 4.99221e-05
5 *221:27 0.000603492
6 *221:8 0.000801034
7 *968:B *284:16 0.00015795
8 *221:27 *235:10 0.000141677
9 *221:27 *284:16 0.000506685
10 *967:A *221:8 5.3304e-05
11 *980:A *980:C 5.79559e-05
12 *980:A *221:27 4.62515e-05
13 *985:A_N *221:27 0
14 *47:13 *968:B 8.80821e-05
15 *203:10 *221:27 1.83667e-05
16 *203:21 *221:27 0.000526313
17 *205:10 *968:B 0
18 *205:10 *221:27 0
19 *219:8 *968:B 2.32004e-05
*RES
1 *967:Y *221:8 38.6214 
2 *221:8 *968:B 41.3557 
3 *221:8 *221:27 29.1479 
4 *221:27 *984:C 23 
5 *221:27 *980:C 23.6214 
*END

*D_NET *222 0.000440318
*CONN
*I *970:B I *D sky130_fd_sc_hd__nor2_1
*I *969:X O *D sky130_fd_sc_hd__and3_1
*CAP
1 *970:B 0
2 *969:X 0.000134267
3 *222:10 0.000134267
4 *984:B *222:10 0
5 *208:10 *222:10 3.83778e-05
6 *209:10 *222:10 5.50049e-05
7 *218:10 *222:10 7.84014e-05
*RES
1 *969:X *222:10 40.8793 
2 *222:10 *970:B 38 
*END

*D_NET *223 0.000375912
*CONN
*I *972:B I *D sky130_fd_sc_hd__and2_1
*I *971:Y O *D sky130_fd_sc_hd__nand3_1
*CAP
1 *972:B 0
2 *971:Y 0.000173269
3 *223:10 0.000173269
4 *223:10 *358:18 0
5 *216:18 *223:10 2.93747e-05
6 *217:16 *223:10 0
*RES
1 *971:Y *223:10 40.8793 
2 *223:10 *972:B 38 
*END

*D_NET *224 0.00356784
*CONN
*I *994:A I *D sky130_fd_sc_hd__xor2_1
*I *1012:A I *D sky130_fd_sc_hd__or4_1
*I *1015:C1 I *D sky130_fd_sc_hd__a211o_1
*I *973:Y O *D sky130_fd_sc_hd__xnor2_1
*CAP
1 *994:A 0
2 *1012:A 0
3 *1015:C1 0.000131195
4 *973:Y 0.000402661
5 *224:35 0.000285687
6 *224:16 0.00072118
7 *224:10 0.000706959
8 *1015:C1 *1015:A1 8.1421e-05
9 *1015:C1 *1015:B1 1.86564e-05
10 *1015:C1 *335:14 9.88574e-06
11 *224:10 *1018:A3 0
12 *224:10 *1118:A 5.47808e-05
13 *224:10 *244:10 2.77955e-05
14 *224:10 *262:10 0
15 *224:10 *264:23 0
16 *224:10 *324:29 0
17 *224:10 *360:12 0.000190102
18 *224:16 *241:12 0.00030233
19 *224:16 *243:12 0.000110952
20 *224:16 *244:10 0.000215782
21 *224:16 *262:10 0
22 *224:35 *239:33 5.50106e-05
23 *224:35 *241:12 0.000131169
24 *224:35 *260:10 0
25 *224:35 *262:8 5.50049e-05
26 *224:35 *300:16 3.22879e-05
27 *224:35 *335:14 3.4979e-05
*RES
1 *973:Y *224:10 47.0107 
2 *224:10 *224:16 23.0371 
3 *224:16 *1015:C1 25.5479 
4 *224:16 *224:35 35.8621 
5 *224:35 *1012:A 23 
6 *224:10 *994:A 38 
*END

*D_NET *225 0.00120594
*CONN
*I *992:A_N I *D sky130_fd_sc_hd__nand2b_1
*I *993:B1 I *D sky130_fd_sc_hd__a31o_1
*I *974:Y O *D sky130_fd_sc_hd__nor2_1
*CAP
1 *992:A_N 5.09943e-05
2 *993:B1 0
3 *974:Y 0.000221606
4 *225:10 5.09943e-05
5 *225:8 0.000221606
6 *992:A_N *992:B 0.000272383
7 *992:A_N *993:A1 5.67058e-05
8 *992:A_N *227:12 2.4754e-05
9 *992:A_N *227:21 6.9805e-05
10 *992:A_N *244:10 5.67058e-05
11 *225:8 *226:8 0.00018039
12 *225:8 *360:12 0
*RES
1 *974:Y *225:8 42.7229 
2 *225:8 *225:10 15 
3 *225:10 *993:B1 23 
4 *225:10 *992:A_N 26.0036 
*END

*D_NET *226 0.00171229
*CONN
*I *993:A1 I *D sky130_fd_sc_hd__a31o_1
*I *992:B I *D sky130_fd_sc_hd__nand2b_1
*I *975:Y O *D sky130_fd_sc_hd__nand2_1
*CAP
1 *993:A1 1.23827e-05
2 *992:B 0.00022126
3 *975:Y 0.000186396
4 *226:12 0.000254912
5 *226:8 0.000207666
6 *992:B *993:A2 4.00259e-06
7 *992:B *243:12 9.72057e-06
8 *992:B *244:10 3.09241e-05
9 *992:B *360:12 5.90675e-06
10 *993:A1 *227:12 8.6949e-05
11 *226:8 *243:12 0
12 *226:8 *286:10 8.51225e-05
13 *226:8 *361:10 4.08641e-05
14 *226:12 *227:12 5.67058e-05
15 *992:A_N *992:B 0.000272383
16 *992:A_N *993:A1 5.67058e-05
17 *1043:A *226:8 0
18 *225:8 *226:8 0.00018039
*RES
1 *975:Y *226:8 43.075 
2 *226:8 *226:12 15.6214 
3 *226:12 *992:B 28.453 
4 *226:12 *993:A1 24.0979 
*END

*D_NET *227 0.00339594
*CONN
*I *991:A I *D sky130_fd_sc_hd__nand2_1
*I *978:A I *D sky130_fd_sc_hd__nand2_1
*I *1015:A1 I *D sky130_fd_sc_hd__a211o_1
*I *993:A2 I *D sky130_fd_sc_hd__a31o_1
*I *976:Y O *D sky130_fd_sc_hd__nand2_1
*CAP
1 *991:A 0.000140646
2 *978:A 0
3 *1015:A1 8.75048e-05
4 *993:A2 2.1727e-05
5 *976:Y 5.29452e-05
6 *227:29 0.000354627
7 *227:21 0.000472887
8 *227:12 0.000205582
9 *227:8 0.000171681
10 *991:A *991:B 0.000339245
11 *991:A *995:A 6.23433e-05
12 *991:A *995:B 6.51763e-05
13 *991:A *241:20 0.000210461
14 *991:A *244:10 0.000141052
15 *1015:A1 *978:B 2.02517e-05
16 *1015:A1 *1015:B1 1.9847e-05
17 *1015:A1 *335:14 0.000102093
18 *227:8 *241:20 0
19 *227:8 *286:10 0.000116314
20 *227:21 *241:20 0.000182832
21 *227:21 *244:10 9.75779e-05
22 *227:29 *977:B 0
23 *227:29 *1012:D 1.14452e-05
24 *227:29 *241:20 9.48381e-06
25 *227:29 *243:12 0.000186584
26 *227:29 *286:10 0
27 *227:29 *322:23 0
28 *992:A_N *227:12 2.4754e-05
29 *992:A_N *227:21 6.9805e-05
30 *992:B *993:A2 4.00259e-06
31 *993:A1 *227:12 8.6949e-05
32 *1015:C1 *1015:A1 8.1421e-05
33 *1092:A *227:29 0
34 *226:12 *227:12 5.67058e-05
*RES
1 *976:Y *227:8 39.5536 
2 *227:8 *227:12 17.5271 
3 *227:12 *993:A2 23.4971 
4 *227:12 *227:21 2.52714 
5 *227:21 *227:29 35.6964 
6 *227:29 *1015:A1 26.045 
7 *227:29 *978:A 23 
8 *227:21 *991:A 29.235 
*END

*D_NET *228 0.000912081
*CONN
*I *978:B I *D sky130_fd_sc_hd__nand2_1
*I *1014:B I *D sky130_fd_sc_hd__nand2b_1
*I *977:X O *D sky130_fd_sc_hd__or2_1
*CAP
1 *978:B 5.62779e-05
2 *1014:B 0
3 *977:X 0.00011198
4 *228:14 0.000141123
5 *228:6 0.000309381
6 *978:B *335:14 8.60475e-05
7 *228:6 *335:14 5.50049e-05
8 *228:14 *1014:A_N 1.14452e-05
9 *228:14 *229:8 3.81554e-05
10 *228:14 *229:10 3.2457e-05
11 *228:14 *300:16 2.74078e-05
12 *1015:A1 *978:B 2.02517e-05
13 *1092:A *228:14 2.25493e-05
*RES
1 *977:X *228:6 25.0507 
2 *228:6 *228:14 33.2625 
3 *228:14 *1014:B 23 
4 *228:6 *978:B 24.595 
*END

*D_NET *229 0.00233688
*CONN
*I *1012:B I *D sky130_fd_sc_hd__or4_1
*I *990:B1 I *D sky130_fd_sc_hd__a21o_1
*I *996:A I *D sky130_fd_sc_hd__nand3_1
*I *978:Y O *D sky130_fd_sc_hd__nand2_1
*CAP
1 *1012:B 0.000234514
2 *990:B1 0.000176447
3 *996:A 0
4 *978:Y 0.000119545
5 *229:10 0.00048417
6 *229:8 0.000661783
7 *990:B1 *239:14 1.82866e-05
8 *990:B1 *240:8 5.67058e-05
9 *1012:B *239:18 2.18409e-05
10 *1012:B *261:10 0.00026808
11 *229:8 *1012:D 6.33614e-05
12 *229:10 *1012:D 4.43614e-05
13 *229:10 *1014:A_N 0
14 *229:10 *230:10 0
15 *229:10 *239:14 0.000117175
16 *229:10 *245:10 0
17 *229:10 *359:16 0
18 *228:14 *229:8 3.81554e-05
19 *228:14 *229:10 3.2457e-05
*RES
1 *978:Y *229:8 39.9057 
2 *229:8 *229:10 6.83571 
3 *229:10 *996:A 38 
4 *229:10 *990:B1 40.1957 
5 *229:8 *1012:B 41.48 
*END

*D_NET *230 0.00214283
*CONN
*I *1014:A_N I *D sky130_fd_sc_hd__nand2b_1
*I *988:A I *D sky130_fd_sc_hd__nand2_1
*I *990:A1 I *D sky130_fd_sc_hd__a21o_1
*I *996:B I *D sky130_fd_sc_hd__nand3_1
*I *979:Y O *D sky130_fd_sc_hd__nand2_1
*CAP
1 *1014:A_N 0.00034281
2 *988:A 0
3 *990:A1 5.97353e-05
4 *996:B 0
5 *979:Y 0.000378335
6 *230:16 0.000159005
7 *230:12 9.92699e-05
8 *230:10 0.000721145
9 *990:A1 *990:A2 5.52882e-05
10 *990:A1 *996:C 5.03153e-05
11 *1014:A_N *320:8 0
12 *230:10 *979:A 0
13 *230:10 *359:16 0
14 *230:16 *996:C 6.84574e-05
15 *230:16 *239:14 9.8971e-06
16 *1057:A *1014:A_N 0
17 *1077:A *1014:A_N 0
18 *19:15 *230:10 0.000187129
19 *228:14 *1014:A_N 1.14452e-05
20 *229:10 *1014:A_N 0
21 *229:10 *230:10 0
*RES
1 *979:Y *230:10 44.3179 
2 *230:10 *230:12 15 
3 *230:12 *230:16 2.07143 
4 *230:16 *996:B 23 
5 *230:16 *990:A1 24.5743 
6 *230:12 *988:A 23 
7 *230:10 *1014:A_N 44.4007 
*END

*D_NET *231 0.000807
*CONN
*I *981:A I *D sky130_fd_sc_hd__inv_2
*I *980:Y O *D sky130_fd_sc_hd__nor3_1
*CAP
1 *981:A 8.05608e-05
2 *980:Y 0.000160158
3 *231:10 0.000240719
4 *981:A *983:B 1.41244e-05
5 *980:B *231:10 3.42398e-05
6 *983:A *981:A 0.000162342
7 *210:18 *981:A 6.17437e-06
8 *210:18 *231:10 0.000108681
*RES
1 *980:Y *231:10 40.6514 
2 *231:10 *981:A 40.4236 
*END

*D_NET *232 0.000929805
*CONN
*I *982:B1 I *D sky130_fd_sc_hd__a211o_1
*I *983:B I *D sky130_fd_sc_hd__or2_1
*I *981:Y O *D sky130_fd_sc_hd__inv_2
*CAP
1 *982:B1 0
2 *983:B 0.000102935
3 *981:Y 0
4 *232:23 0.000292349
5 *232:4 0.000395284
6 *232:23 *236:10 2.23884e-05
7 *232:23 *237:10 2.47772e-05
8 *981:A *983:B 1.41244e-05
9 *983:A *983:B 3.52233e-06
10 *211:32 *232:23 5.56356e-05
11 *214:18 *232:23 1.8788e-05
*RES
1 *981:Y *232:4 23 
2 *232:4 *983:B 24.595 
3 *232:4 *232:23 35.0543 
4 *232:23 *982:B1 23 
*END

*D_NET *233 0.00284392
*CONN
*I *1013:A1 I *D sky130_fd_sc_hd__a21o_1
*I *998:A I *D sky130_fd_sc_hd__nand3_1
*I *989:A1 I *D sky130_fd_sc_hd__a21o_1
*I *982:X O *D sky130_fd_sc_hd__a211o_1
*CAP
1 *1013:A1 0.000466948
2 *998:A 0
3 *989:A1 0
4 *982:X 0.000240765
5 *233:27 0.000584673
6 *233:18 0.000475605
7 *233:10 0.000834095
8 *1013:A1 *1013:A2 5.56279e-05
9 *233:10 *237:10 0
10 *233:10 *358:18 8.29264e-05
11 *233:18 *358:8 3.76854e-05
12 *233:18 *358:14 3.14888e-05
13 *233:27 *237:10 0
14 *216:26 *233:10 3.41017e-05
*RES
1 *982:X *233:10 42.06 
2 *233:10 *233:18 36.1107 
3 *233:18 *989:A1 38 
4 *233:10 *233:27 1.90571 
5 *233:27 *998:A 38 
6 *233:27 *1013:A1 46.0993 
*END

*D_NET *234 0.000331542
*CONN
*I *986:B I *D sky130_fd_sc_hd__and4_1
*I *983:X O *D sky130_fd_sc_hd__or2_1
*CAP
1 *986:B 0
2 *983:X 9.42745e-05
3 *234:10 9.42745e-05
4 *234:10 *235:10 8.62876e-05
5 *234:10 *236:10 5.67058e-05
6 *234:10 *359:16 0
*RES
1 *983:X *234:10 39.8229 
2 *234:10 *986:B 38 
*END

*D_NET *235 0.00111649
*CONN
*I *986:C I *D sky130_fd_sc_hd__and4_1
*I *984:X O *D sky130_fd_sc_hd__or3_1
*CAP
1 *986:C 0
2 *984:X 0.000369603
3 *235:10 0.000369603
4 *235:10 *236:10 0.000112303
5 *984:B *235:10 3.70187e-05
6 *221:27 *235:10 0.000141677
7 *234:10 *235:10 8.62876e-05
*RES
1 *984:X *235:10 43.945 
2 *235:10 *986:C 38 
*END

*D_NET *236 0.00135296
*CONN
*I *986:D I *D sky130_fd_sc_hd__and4_1
*I *985:Y O *D sky130_fd_sc_hd__nand2b_1
*CAP
1 *986:D 0
2 *985:Y 0.000521502
3 *236:10 0.000521502
4 *948:A *236:10 5.67058e-05
5 *983:A *236:10 1.23407e-05
6 *202:8 *236:10 4.95081e-05
7 *232:23 *236:10 2.23884e-05
8 *234:10 *236:10 5.67058e-05
9 *235:10 *236:10 0.000112303
*RES
1 *985:Y *236:10 47.3214 
2 *236:10 *986:D 38 
*END

*D_NET *237 0.00225142
*CONN
*I *998:B I *D sky130_fd_sc_hd__nand3_1
*I *1013:A2 I *D sky130_fd_sc_hd__a21o_1
*I *989:A2 I *D sky130_fd_sc_hd__a21o_1
*I *986:X O *D sky130_fd_sc_hd__and4_1
*CAP
1 *998:B 0.000233295
2 *1013:A2 0.000212398
3 *989:A2 5.31112e-05
4 *986:X 0.00034508
5 *237:12 0.00028725
6 *237:10 0.000600116
7 *989:A2 *999:A 0.000100061
8 *998:B *998:C 1.46286e-05
9 *998:B *999:A 6.17437e-06
10 *998:B *999:B 0.000101226
11 *237:10 *358:8 0.000217678
12 *1013:A1 *1013:A2 5.56279e-05
13 *232:23 *237:10 2.47772e-05
14 *233:10 *237:10 0
15 *233:27 *237:10 0
*RES
1 *986:X *237:10 44.1211 
2 *237:10 *237:12 0.321071 
3 *237:12 *989:A2 39.0979 
4 *237:12 *1013:A2 41.9357 
5 *237:10 *998:B 41.4696 
*END

*D_NET *238 6.69045e-05
*CONN
*I *988:B I *D sky130_fd_sc_hd__nand2_1
*I *987:X O *D sky130_fd_sc_hd__or2_1
*CAP
1 *988:B 3.34522e-05
2 *987:X 3.34522e-05
*RES
1 *987:X *988:B 46.6214 
*END

*D_NET *239 0.00437072
*CONN
*I *998:C I *D sky130_fd_sc_hd__nand3_1
*I *989:B1 I *D sky130_fd_sc_hd__a21o_1
*I *1012:C I *D sky130_fd_sc_hd__or4_1
*I *988:Y O *D sky130_fd_sc_hd__nand2_1
*CAP
1 *998:C 0.000261949
2 *989:B1 0
3 *1012:C 0
4 *988:Y 0.000531852
5 *239:33 0.000817081
6 *239:18 0.000620379
7 *239:14 0.000597099
8 *998:C *999:A 0.000369617
9 *998:C *999:B 4.00259e-06
10 *998:C *240:8 1.37232e-05
11 *239:14 *996:C 7.27085e-05
12 *239:14 *1012:D 3.70187e-05
13 *239:14 *241:12 0
14 *239:14 *245:10 9.84851e-05
15 *239:18 *1012:D 0.000183733
16 *239:18 *261:10 0.00014196
17 *239:18 *300:16 1.5769e-05
18 *239:33 *999:A 5.79559e-05
19 *239:33 *241:12 0
20 *239:33 *241:44 0
21 *239:33 *259:10 6.16484e-05
22 *239:33 *260:10 7.56417e-05
23 *239:33 *300:16 0.000173252
24 *990:B1 *239:14 1.82866e-05
25 *998:B *998:C 1.46286e-05
26 *1012:B *239:18 2.18409e-05
27 *224:35 *239:33 5.50106e-05
28 *229:10 *239:14 0.000117175
29 *230:16 *239:14 9.8971e-06
*RES
1 *988:Y *239:14 47.3214 
2 *239:14 *239:18 17.5271 
3 *239:18 *1012:C 23 
4 *239:18 *239:33 41.1857 
5 *239:33 *989:B1 23 
6 *239:33 *998:C 29.2764 
*END

*D_NET *240 0.00254711
*CONN
*I *999:A I *D sky130_fd_sc_hd__and2_1
*I *990:A2 I *D sky130_fd_sc_hd__a21o_1
*I *996:C I *D sky130_fd_sc_hd__nand3_1
*I *989:X O *D sky130_fd_sc_hd__a21o_1
*CAP
1 *999:A 0.000190752
2 *990:A2 2.25373e-05
3 *996:C 6.21859e-05
4 *989:X 0
5 *240:8 0.000385237
6 *240:4 0.000491266
7 *996:C *245:10 9.84851e-05
8 *999:A *999:B 5.44911e-05
9 *240:8 *241:44 2.02872e-05
10 *240:8 *245:10 0.000315852
11 *240:8 *359:8 5.50106e-05
12 *989:A2 *999:A 0.000100061
13 *990:A1 *990:A2 5.52882e-05
14 *990:A1 *996:C 5.03153e-05
15 *990:B1 *240:8 5.67058e-05
16 *998:B *999:A 6.17437e-06
17 *998:C *999:A 0.000369617
18 *998:C *240:8 1.37232e-05
19 *230:16 *996:C 6.84574e-05
20 *239:14 *996:C 7.27085e-05
21 *239:33 *999:A 5.79559e-05
*RES
1 *989:X *240:4 23 
2 *240:4 *240:8 7.66429 
3 *240:8 *996:C 26.0243 
4 *240:8 *990:A2 24.103 
5 *240:4 *999:A 28.9036 
*END

*D_NET *241 0.00447992
*CONN
*I *997:A I *D sky130_fd_sc_hd__and2_1
*I *991:B I *D sky130_fd_sc_hd__nand2_1
*I *993:A3 I *D sky130_fd_sc_hd__a31o_1
*I *990:X O *D sky130_fd_sc_hd__a21o_1
*CAP
1 *997:A 0
2 *991:B 0.000291518
3 *993:A3 0
4 *990:X 3.83793e-05
5 *241:44 0.000165798
6 *241:20 0.000358547
7 *241:12 0.00123057
8 *241:6 0.000784682
9 *991:B *995:A 1.98679e-05
10 *241:6 *245:10 5.67058e-05
11 *241:12 *1012:D 0
12 *241:12 *243:12 0
13 *241:12 *260:10 0
14 *241:12 *261:10 0.000191148
15 *241:12 *262:10 0
16 *241:20 *243:12 0
17 *241:20 *286:10 0
18 *241:44 *245:10 0.000146892
19 *991:A *991:B 0.000339245
20 *991:A *241:20 0.000210461
21 *224:16 *241:12 0.00030233
22 *224:35 *241:12 0.000131169
23 *227:8 *241:20 0
24 *227:21 *241:20 0.000182832
25 *227:29 *241:20 9.48381e-06
26 *239:14 *241:12 0
27 *239:33 *241:12 0
28 *239:33 *241:44 0
29 *240:8 *241:44 2.02872e-05
*RES
1 *990:X *241:6 23.6214 
2 *241:6 *241:12 42.47 
3 *241:12 *241:20 35.2821 
4 *241:20 *993:A3 23 
5 *241:12 *991:B 28.3029 
6 *241:6 *241:44 32.7757 
7 *241:44 *997:A 23 
*END

*D_NET *242 0.0003465
*CONN
*I *995:A I *D sky130_fd_sc_hd__xnor2_1
*I *991:Y O *D sky130_fd_sc_hd__nand2_1
*CAP
1 *995:A 0.000112575
2 *991:Y 0.000112575
3 *995:A *995:B 3.91386e-05
4 *991:A *995:A 6.23433e-05
5 *991:B *995:A 1.98679e-05
*RES
1 *991:Y *995:A 48.5479 
*END

*D_NET *243 0.00252102
*CONN
*I *995:B I *D sky130_fd_sc_hd__xnor2_1
*I *1015:B1 I *D sky130_fd_sc_hd__a211o_1
*I *1012:D I *D sky130_fd_sc_hd__or4_1
*I *992:Y O *D sky130_fd_sc_hd__nand2b_1
*CAP
1 *995:B 0.000111918
2 *1015:B1 5.25277e-06
3 *1012:D 0.000283861
4 *992:Y 0
5 *243:12 0.000572136
6 *243:4 0.000394941
7 *995:B *360:12 5.3304e-05
8 *1012:D *261:10 2.02872e-05
9 *1012:D *300:16 0.000139274
10 *243:12 *244:10 0.000112665
11 *243:12 *261:10 2.76611e-06
12 *243:12 *360:12 3.46158e-05
13 *991:A *995:B 6.51763e-05
14 *992:B *243:12 9.72057e-06
15 *995:A *995:B 3.91386e-05
16 *1015:A1 *1015:B1 1.9847e-05
17 *1015:C1 *1015:B1 1.86564e-05
18 *1092:A *1012:D 0
19 *224:16 *243:12 0.000110952
20 *226:8 *243:12 0
21 *227:29 *1012:D 1.14452e-05
22 *227:29 *243:12 0.000186584
23 *229:8 *1012:D 6.33614e-05
24 *229:10 *1012:D 4.43614e-05
25 *239:14 *1012:D 3.70187e-05
26 *239:18 *1012:D 0.000183733
27 *241:12 *1012:D 0
28 *241:12 *243:12 0
29 *241:20 *243:12 0
*RES
1 *992:Y *243:4 23 
2 *243:4 *243:12 22.3743 
3 *243:12 *1012:D 44.4629 
4 *243:12 *1015:B1 38.2175 
5 *243:4 *995:B 25.9 
*END

*D_NET *244 0.00121519
*CONN
*I *994:B I *D sky130_fd_sc_hd__xor2_1
*I *993:X O *D sky130_fd_sc_hd__a31o_1
*CAP
1 *994:B 0
2 *993:X 0.000168071
3 *244:10 0.000168071
4 *244:10 *360:12 0.00019654
5 *991:A *244:10 0.000141052
6 *992:A_N *244:10 5.67058e-05
7 *992:B *244:10 3.09241e-05
8 *224:10 *244:10 2.77955e-05
9 *224:16 *244:10 0.000215782
10 *227:21 *244:10 9.75779e-05
11 *243:12 *244:10 0.000112665
*RES
1 *993:X *244:10 43.8414 
2 *244:10 *994:B 38 
*END

*D_NET *245 0.00103247
*CONN
*I *997:B I *D sky130_fd_sc_hd__and2_1
*I *996:Y O *D sky130_fd_sc_hd__nand3_1
*CAP
1 *997:B 0
2 *996:Y 0.000156644
3 *245:10 0.000156644
4 *245:10 *359:16 2.76611e-06
5 *996:C *245:10 9.84851e-05
6 *229:10 *245:10 0
7 *239:14 *245:10 9.84851e-05
8 *240:8 *245:10 0.000315852
9 *241:6 *245:10 5.67058e-05
10 *241:44 *245:10 0.000146892
*RES
1 *996:Y *245:10 43.2821 
2 *245:10 *997:B 38 
*END

*D_NET *246 0.000516118
*CONN
*I *999:B I *D sky130_fd_sc_hd__and2_1
*I *998:Y O *D sky130_fd_sc_hd__nand3_1
*CAP
1 *999:B 0.000178199
2 *998:Y 0.000178199
3 *998:B *999:B 0.000101226
4 *998:C *999:B 4.00259e-06
5 *999:A *999:B 5.44911e-05
*RES
1 *998:Y *999:B 49.19 
*END

*D_NET *247 0.00138772
*CONN
*I *1022:A I *D sky130_fd_sc_hd__xor2_1
*I *1032:A I *D sky130_fd_sc_hd__nand2_1
*I *1000:X O *D sky130_fd_sc_hd__xor2_1
*CAP
1 *1022:A 5.97544e-05
2 *1032:A 0
3 *1000:X 0.000141075
4 *247:14 0.000259331
5 *247:8 0.00046016
6 *247:8 *1000:A 0.000141052
7 *247:14 *1000:A 5.56306e-05
8 *247:14 *252:12 6.07611e-06
9 *247:14 *323:8 0.000113749
10 *247:14 *329:25 0.000150888
11 *247:14 *367:12 0
*RES
1 *1000:X *247:8 26.0243 
2 *247:8 *247:14 35.7793 
3 *247:14 *1032:A 23 
4 *247:8 *1022:A 24.0979 
*END

*D_NET *248 0.00167223
*CONN
*I *1005:A_N I *D sky130_fd_sc_hd__and2b_1
*I *1004:B1 I *D sky130_fd_sc_hd__a21oi_1
*I *1001:Y O *D sky130_fd_sc_hd__nor2_1
*CAP
1 *1005:A_N 0
2 *1004:B1 0.000143429
3 *1001:Y 0.000324961
4 *248:10 0.000468391
5 *1004:B1 *249:14 9.7382e-05
6 *1004:B1 *251:10 4.04598e-06
7 *1004:B1 *362:12 0
8 *1004:B1 *367:12 0
9 *248:10 *1001:B 1.32314e-05
10 *248:10 *249:14 1.4471e-05
11 *248:10 *291:20 9.24795e-06
12 *248:10 *326:6 0.000228903
13 *248:10 *328:10 0.000352415
14 *248:10 *362:12 0
15 *248:10 *367:12 0
16 *56:15 *248:10 1.57571e-05
*RES
1 *1001:Y *248:10 45.5193 
2 *248:10 *1004:B1 40.8793 
3 *248:10 *1005:A_N 38 
*END

*D_NET *249 0.00135643
*CONN
*I *1005:B I *D sky130_fd_sc_hd__and2b_1
*I *1004:A1 I *D sky130_fd_sc_hd__a21oi_1
*I *1002:Y O *D sky130_fd_sc_hd__nand2_1
*CAP
1 *1005:B 0
2 *1004:A1 0
3 *1002:Y 0.000141321
4 *249:14 0.000335162
5 *249:6 0.000476483
6 *249:6 *1033:A1 0.000221992
7 *249:14 *251:10 1.02949e-05
8 *249:14 *367:12 5.93278e-05
9 *1004:B1 *249:14 9.7382e-05
10 *248:10 *249:14 1.4471e-05
*RES
1 *1002:Y *249:6 25.5271 
2 *249:6 *249:14 35.6136 
3 *249:14 *1004:A1 23 
4 *249:6 *1005:B 23 
*END

*D_NET *250 0.00521904
*CONN
*I *1025:A I *D sky130_fd_sc_hd__nand4_1
*I *1023:A1 I *D sky130_fd_sc_hd__a31o_1
*I *1026:A1 I *D sky130_fd_sc_hd__a22o_1
*I *1004:A2 I *D sky130_fd_sc_hd__a21oi_1
*I *1008:A I *D sky130_fd_sc_hd__and3_1
*I *1003:Y O *D sky130_fd_sc_hd__nand2_1
*CAP
1 *1025:A 0
2 *1023:A1 0
3 *1026:A1 0.000438542
4 *1004:A2 0.000304895
5 *1008:A 0.00018741
6 *1003:Y 0
7 *250:62 0.000363758
8 *250:18 0.000550615
9 *250:14 0.000719852
10 *250:8 0.000702873
11 *250:4 0.000843631
12 *1004:A2 *251:10 3.16665e-05
13 *1008:A *252:36 0.000167443
14 *1008:A *254:18 0.000100803
15 *1008:A *266:10 0
16 *1008:A *298:6 3.59884e-05
17 *1026:A1 *1025:D 2.36894e-05
18 *1026:A1 *257:40 5.50106e-05
19 *1026:A1 *266:14 2.64616e-05
20 *250:8 *1003:A 9.76261e-05
21 *250:8 *1023:A2 7.53303e-06
22 *250:8 *1023:B1 4.50098e-05
23 *250:8 *326:16 9.67842e-05
24 *250:8 *326:23 6.33627e-05
25 *250:14 *1023:A2 3.22051e-05
26 *250:14 *1023:A3 1.47394e-05
27 *250:14 *252:36 6.43005e-05
28 *250:18 *252:36 2.84912e-05
29 *250:62 *1003:A 2.4754e-05
30 *250:62 *257:10 2.46933e-05
31 *250:62 *257:23 5.22571e-05
32 *250:62 *290:8 0
33 *250:62 *363:10 0.000114645
34 *250:62 *371:10 0
*RES
1 *1003:Y *250:4 23 
2 *250:4 *250:8 7.18786 
3 *250:8 *250:14 18.8321 
4 *250:14 *250:18 1.47071 
5 *250:18 *1008:A 42.7643 
6 *250:18 *1004:A2 42.4329 
7 *250:14 *1026:A1 43.8829 
8 *250:8 *1023:A1 23 
9 *250:4 *250:62 36.5457 
10 *250:62 *1025:A 23 
*END

*D_NET *251 0.00121924
*CONN
*I *1020:B1 I *D sky130_fd_sc_hd__a21o_1
*I *1004:Y O *D sky130_fd_sc_hd__a21oi_1
*CAP
1 *1020:B1 0
2 *1004:Y 0.000368289
3 *251:10 0.000368289
4 *251:10 *255:8 8.50457e-05
5 *251:10 *362:12 0.000351608
6 *1004:A2 *251:10 3.16665e-05
7 *1004:B1 *251:10 4.04598e-06
8 *249:14 *251:10 1.02949e-05
*RES
1 *1004:Y *251:10 45.25 
2 *251:10 *1020:B1 38 
*END

*D_NET *252 0.00324449
*CONN
*I *1008:B I *D sky130_fd_sc_hd__and3_1
*I *1024:A I *D sky130_fd_sc_hd__xnor2_1
*I *1032:B I *D sky130_fd_sc_hd__nand2_1
*I *1005:X O *D sky130_fd_sc_hd__and2b_1
*CAP
1 *1008:B 0
2 *1024:A 0
3 *1032:B 0
4 *1005:X 0
5 *252:36 0.000438566
6 *252:21 0.000806362
7 *252:12 0.000269832
8 *252:4 0.000637628
9 *252:12 *1002:A 2.93747e-05
10 *252:12 *1002:B 5.50106e-05
11 *252:12 *1033:A1 4.02485e-05
12 *252:12 *275:10 2.5415e-05
13 *252:12 *329:25 0
14 *252:21 *1033:A1 0.000153382
15 *252:21 *269:6 1.03836e-05
16 *252:36 *269:6 0.000319905
17 *252:36 *298:6 0.000146195
18 *252:36 *362:12 0
19 *1008:A *252:36 0.000167443
20 *53:11 *252:12 4.5882e-05
21 *247:14 *252:12 6.07611e-06
22 *250:14 *252:36 6.43005e-05
23 *250:18 *252:36 2.84912e-05
*RES
1 *1005:X *252:4 23 
2 *252:4 *252:12 34.4329 
3 *252:12 *1032:B 23 
4 *252:4 *252:21 5.75857 
5 *252:21 *1024:A 23 
6 *252:21 *252:36 39.7771 
7 *252:36 *1008:B 23 
*END

*D_NET *253 0.000277812
*CONN
*I *1023:B1 I *D sky130_fd_sc_hd__a31o_1
*I *1006:Y O *D sky130_fd_sc_hd__nor2_1
*CAP
1 *1023:B1 3.58205e-05
2 *1006:Y 3.58205e-05
3 *1023:B1 *1023:A2 4.94447e-05
4 *1023:B1 *291:28 5.50106e-05
5 *1023:B1 *326:16 5.67058e-05
6 *250:8 *1023:B1 4.50098e-05
*RES
1 *1006:Y *1023:B1 47.5743 
*END

*D_NET *254 0.00312008
*CONN
*I *1025:B I *D sky130_fd_sc_hd__nand4_1
*I *1026:A2 I *D sky130_fd_sc_hd__a22o_1
*I *1008:C I *D sky130_fd_sc_hd__and3_1
*I *1007:X O *D sky130_fd_sc_hd__or2_1
*CAP
1 *1025:B 0.000260099
2 *1026:A2 0
3 *1008:C 0
4 *1007:X 0.000124005
5 *254:18 0.000773706
6 *254:12 0.000822272
7 *254:10 0.00043267
8 *1025:B *1025:D 7.68523e-05
9 *1025:B *271:16 8.08139e-06
10 *254:10 *257:23 9.84794e-05
11 *254:10 *257:40 2.26489e-05
12 *254:10 *290:8 3.83778e-05
13 *254:12 *257:40 9.48381e-06
14 *254:12 *290:8 3.31127e-05
15 *254:12 *325:10 0
16 *254:18 *290:8 0.000155427
17 *254:18 *298:6 0.000123849
18 *254:18 *298:14 4.02103e-05
19 *254:18 *325:10 0
20 *1008:A *254:18 0.000100803
*RES
1 *1007:X *254:10 40.2993 
2 *254:10 *254:12 0.849286 
3 *254:12 *254:18 27.3457 
4 *254:18 *1008:C 23 
5 *254:12 *1026:A2 38 
6 *254:10 *1025:B 41.48 
*END

*D_NET *255 0.000769173
*CONN
*I *1020:A1 I *D sky130_fd_sc_hd__a21o_1
*I *1021:A1 I *D sky130_fd_sc_hd__a21o_1
*I *1008:X O *D sky130_fd_sc_hd__and3_1
*CAP
1 *1020:A1 5.43519e-05
2 *1021:A1 0.000208538
3 *1008:X 6.1555e-05
4 *255:10 0.00026289
5 *255:8 6.1555e-05
6 *1021:A1 *1021:B1 3.52383e-05
7 *251:10 *255:8 8.50457e-05
*RES
1 *1008:X *255:8 39.2014 
2 *255:8 *255:10 15 
3 *255:10 *1021:A1 25.5271 
4 *255:10 *1020:A1 23.6214 
*END

*D_NET *256 0.00318182
*CONN
*I *1019:C1 I *D sky130_fd_sc_hd__a311o_1
*I *1028:A1 I *D sky130_fd_sc_hd__o2111a_1
*I *1018:C1 I *D sky130_fd_sc_hd__a311oi_1
*I *1020:A2 I *D sky130_fd_sc_hd__a21o_1
*I *1009:X O *D sky130_fd_sc_hd__and2_1
*CAP
1 *1019:C1 0.000125404
2 *1028:A1 8.17762e-05
3 *1018:C1 0.000232415
4 *1020:A2 0.000112717
5 *1009:X 0.000164163
6 *256:19 0.000519463
7 *256:17 0.000577545
8 *256:6 0.000523748
9 *1018:C1 *1018:B1 0.000304005
10 *1018:C1 *260:10 0
11 *1018:C1 *265:10 7.51453e-06
12 *1019:C1 *1019:A1 8.19533e-05
13 *256:17 *258:20 4.24835e-05
14 *256:17 *258:29 0.000110913
15 *256:17 *265:22 0
16 *256:17 *266:10 0
17 *256:17 *362:12 0
18 *256:19 *1018:B1 6.48142e-05
19 *256:19 *258:20 2.94915e-05
20 *256:19 *258:29 0.000203416
21 *256:19 *265:10 0
*RES
1 *1009:X *256:6 26.0036 
2 *256:6 *1020:A2 24.5743 
3 *256:6 *256:17 20.075 
4 *256:17 *256:19 3.66643 
5 *256:19 *1018:C1 43.4893 
6 *256:19 *1028:A1 39.0979 
7 *256:17 *1019:C1 40.5686 
*END

*D_NET *257 0.00323748
*CONN
*I *1026:B1 I *D sky130_fd_sc_hd__a22o_1
*I *1023:A2 I *D sky130_fd_sc_hd__a31o_1
*I *1025:C I *D sky130_fd_sc_hd__nand4_1
*I *1010:Y O *D sky130_fd_sc_hd__nand2_1
*CAP
1 *1026:B1 0
2 *1023:A2 0.000121854
3 *1025:C 0
4 *1010:Y 0.00049214
5 *257:40 9.13525e-05
6 *257:23 0.000492768
7 *257:10 0.000771702
8 *1023:A2 *1023:A3 0.000269713
9 *1023:A2 *291:28 5.73288e-05
10 *1023:A2 *326:16 1.03836e-05
11 *1023:A2 *326:23 5.3304e-05
12 *257:10 *290:8 0
13 *257:10 *290:19 5.50049e-05
14 *257:23 *1003:A 6.67283e-05
15 *257:23 *1003:B 4.2573e-05
16 *257:23 *290:8 0
17 *257:23 *291:43 5.50049e-05
18 *257:23 *326:23 0.00014196
19 *257:40 *1025:D 2.51896e-05
20 *257:40 *290:8 0
21 *257:40 *325:10 0.000138718
22 *864:A_N *257:10 0
23 *1023:B1 *1023:A2 4.94447e-05
24 *1026:A1 *257:40 5.50106e-05
25 *250:8 *1023:A2 7.53303e-06
26 *250:14 *1023:A2 3.22051e-05
27 *250:62 *257:10 2.46933e-05
28 *250:62 *257:23 5.22571e-05
29 *254:10 *257:23 9.84794e-05
30 *254:10 *257:40 2.26489e-05
31 *254:12 *257:40 9.48381e-06
*RES
1 *1010:Y *257:10 45.9543 
2 *257:10 *1025:C 38 
3 *257:10 *257:23 21.3386 
4 *257:23 *1023:A2 26.9771 
5 *257:23 *257:40 32.5271 
6 *257:40 *1026:B1 23 
*END

*D_NET *258 0.00397516
*CONN
*I *1028:A2 I *D sky130_fd_sc_hd__o2111a_1
*I *1018:B1 I *D sky130_fd_sc_hd__a311oi_1
*I *1019:B1 I *D sky130_fd_sc_hd__a311o_1
*I *1011:Y O *D sky130_fd_sc_hd__nor2_1
*CAP
1 *1028:A2 0
2 *1018:B1 0.000448671
3 *1019:B1 0
4 *1011:Y 0.000128468
5 *258:29 0.000697055
6 *258:20 0.000203107
7 *258:12 0.000629952
8 *258:8 0.000306928
9 *1018:B1 *260:10 0
10 *1018:B1 *265:10 3.91683e-06
11 *258:8 *298:14 0.000141888
12 *258:8 *298:18 6.25829e-05
13 *258:12 *846:B 2.64616e-05
14 *258:12 *334:6 0.000432403
15 *258:20 *334:6 0.000138607
16 *258:29 *266:10 0
17 *258:29 *298:18 0
18 *1018:C1 *1018:B1 0.000304005
19 *256:17 *258:20 4.24835e-05
20 *256:17 *258:29 0.000110913
21 *256:19 *1018:B1 6.48142e-05
22 *256:19 *258:20 2.94915e-05
23 *256:19 *258:29 0.000203416
*RES
1 *1011:Y *258:8 40.61 
2 *258:8 *258:12 19.9093 
3 *258:12 *258:20 33.8321 
4 *258:20 *1019:B1 23 
5 *258:12 *258:29 19.3707 
6 *258:29 *1018:B1 46.2029 
7 *258:29 *1028:A2 38 
*END

*D_NET *259 0.00102371
*CONN
*I *1013:B1 I *D sky130_fd_sc_hd__a21o_1
*I *1012:X O *D sky130_fd_sc_hd__or4_1
*CAP
1 *1013:B1 0
2 *1012:X 0.000325229
3 *259:10 0.000325229
4 *259:10 *300:16 0.000311603
5 *239:33 *259:10 6.16484e-05
*RES
1 *1012:X *259:10 43.3857 
2 *259:10 *1013:B1 38 
*END

*D_NET *260 0.00498575
*CONN
*I *1019:A1 I *D sky130_fd_sc_hd__a311o_1
*I *1028:B1 I *D sky130_fd_sc_hd__o2111a_1
*I *1018:A1 I *D sky130_fd_sc_hd__a311oi_1
*I *1013:X O *D sky130_fd_sc_hd__a21o_1
*CAP
1 *1019:A1 0.000272722
2 *1028:B1 0.000244805
3 *1018:A1 0
4 *1013:X 9.34146e-05
5 *260:19 0.00055234
6 *260:10 0.000755931
7 *260:8 0.000814533
8 *1019:A1 *1019:A2 0.000560625
9 *1019:A1 *262:19 7.79942e-05
10 *1019:A1 *265:10 0.00026599
11 *1028:B1 *1028:C1 1.59071e-05
12 *1028:B1 *1028:D1 0.000123702
13 *260:10 *262:10 0.000808354
14 *260:10 *262:19 6.70363e-05
15 *260:10 *265:10 1.14452e-05
16 *260:19 *262:19 7.70737e-05
17 *260:19 *265:10 8.62783e-05
18 *1018:B1 *260:10 0
19 *1018:C1 *260:10 0
20 *1019:C1 *1019:A1 8.19533e-05
21 *224:35 *260:10 0
22 *239:33 *260:10 7.56417e-05
23 *241:12 *260:10 0
*RES
1 *1013:X *260:8 39.0979 
2 *260:8 *260:10 17.0479 
3 *260:10 *1018:A1 38 
4 *260:10 *260:19 1.20143 
5 *260:19 *1028:B1 41.48 
6 *260:19 *1019:A1 46.12 
*END

*D_NET *261 0.00113244
*CONN
*I *1015:A2 I *D sky130_fd_sc_hd__a211o_1
*I *1014:Y O *D sky130_fd_sc_hd__nand2b_1
*CAP
1 *1015:A2 0
2 *1014:Y 0.000230342
3 *261:10 0.000230342
4 *261:10 *300:16 4.75206e-05
5 *1012:B *261:10 0.00026808
6 *1012:D *261:10 2.02872e-05
7 *239:18 *261:10 0.00014196
8 *241:12 *261:10 0.000191148
9 *243:12 *261:10 2.76611e-06
*RES
1 *1014:Y *261:10 44.09 
2 *261:10 *1015:A2 38 
*END

*D_NET *262 0.00515934
*CONN
*I *1019:A2 I *D sky130_fd_sc_hd__a311o_1
*I *1028:C1 I *D sky130_fd_sc_hd__o2111a_1
*I *1018:A2 I *D sky130_fd_sc_hd__a311oi_1
*I *1015:X O *D sky130_fd_sc_hd__a211o_1
*CAP
1 *1019:A2 0.000229399
2 *1028:C1 0.000180225
3 *1018:A2 0
4 *1015:X 0.000194741
5 *262:19 0.000475849
6 *262:10 0.00054609
7 *262:8 0.000674606
8 *1019:A2 *1019:A3 0.000471556
9 *1019:A2 *264:23 0.000155059
10 *1028:C1 *1028:D1 0.000270667
11 *262:8 *335:14 6.46633e-05
12 *262:10 *1018:A3 1.14452e-05
13 *262:19 *1018:A3 0.000186025
14 *262:19 *264:23 3.70187e-05
15 *1019:A1 *1019:A2 0.000560625
16 *1019:A1 *262:19 7.79942e-05
17 *1028:B1 *1028:C1 1.59071e-05
18 *224:10 *262:10 0
19 *224:16 *262:10 0
20 *224:35 *262:8 5.50049e-05
21 *241:12 *262:10 0
22 *260:10 *262:10 0.000808354
23 *260:10 *262:19 6.70363e-05
24 *260:19 *262:19 7.70737e-05
*RES
1 *1015:X *262:8 41.0036 
2 *262:8 *262:10 10.7093 
3 *262:10 *1018:A2 38 
4 *262:10 *262:19 2.96214 
5 *262:19 *1028:C1 41.9771 
6 *262:19 *1019:A2 46.0164 
*END

*D_NET *263 0.0001479
*CONN
*I *1017:B1 I *D sky130_fd_sc_hd__o21ai_1
*I *1016:X O *D sky130_fd_sc_hd__a22o_1
*CAP
1 *1017:B1 5.92626e-05
2 *1016:X 5.92626e-05
3 *1017:B1 *1017:A2 2.93747e-05
*RES
1 *1016:X *1017:B1 47.1186 
*END

*D_NET *264 0.00413123
*CONN
*I *1028:D1 I *D sky130_fd_sc_hd__o2111a_1
*I *1018:A3 I *D sky130_fd_sc_hd__a311oi_1
*I *1019:A3 I *D sky130_fd_sc_hd__a311o_1
*I *1017:Y O *D sky130_fd_sc_hd__o21ai_1
*CAP
1 *1028:D1 0.000131301
2 *1018:A3 9.43755e-05
3 *1019:A3 0.000565887
4 *1017:Y 0.000480761
5 *264:23 0.00036804
6 *264:6 0.00118901
7 *264:6 *1017:A2 3.22879e-05
8 *264:6 *324:21 1.40958e-05
9 *1019:A2 *1019:A3 0.000471556
10 *1019:A2 *264:23 0.000155059
11 *1028:B1 *1028:D1 0.000123702
12 *1028:C1 *1028:D1 0.000270667
13 *224:10 *1018:A3 0
14 *224:10 *264:23 0
15 *262:10 *1018:A3 1.14452e-05
16 *262:19 *1018:A3 0.000186025
17 *262:19 *264:23 3.70187e-05
*RES
1 *1017:Y *264:6 31.2443 
2 *264:6 *1019:A3 31.6586 
3 *264:6 *264:23 17.61 
4 *264:23 *1018:A3 40.61 
5 *264:23 *1028:D1 41.48 
*END

*D_NET *265 0.00205894
*CONN
*I *1029:A I *D sky130_fd_sc_hd__nor2_1
*I *1021:A2 I *D sky130_fd_sc_hd__a21o_1
*I *1018:Y O *D sky130_fd_sc_hd__a311oi_1
*CAP
1 *1029:A 0
2 *1021:A2 0
3 *1018:Y 0.000394713
4 *265:22 0.000175314
5 *265:14 0.000203566
6 *265:10 0.000422965
7 *265:10 *272:8 0.000345286
8 *265:14 *334:6 2.18409e-05
9 *265:14 *362:8 3.7122e-06
10 *265:22 *334:6 3.22879e-05
11 *265:22 *362:12 8.41115e-05
12 *265:22 *367:12 0
13 *1018:B1 *265:10 3.91683e-06
14 *1018:C1 *265:10 7.51453e-06
15 *1019:A1 *265:10 0.00026599
16 *256:17 *265:22 0
17 *256:19 *265:10 0
18 *260:10 *265:10 1.14452e-05
19 *260:19 *265:10 8.62783e-05
*RES
1 *1018:Y *265:10 46.6379 
2 *265:10 *265:14 15.6214 
3 *265:14 *265:22 33.9357 
4 *265:22 *1021:A2 23 
5 *265:14 *1029:A 23 
*END

*D_NET *266 0.0040366
*CONN
*I *1023:A3 I *D sky130_fd_sc_hd__a31o_1
*I *1026:B2 I *D sky130_fd_sc_hd__a22o_1
*I *1025:D I *D sky130_fd_sc_hd__nand4_1
*I *1019:X O *D sky130_fd_sc_hd__a311o_1
*CAP
1 *1023:A3 0.000327736
2 *1026:B2 0
3 *1025:D 0.000266204
4 *1019:X 0.000195483
5 *266:14 0.000302871
6 *266:10 0.000819169
7 *266:8 0.00065025
8 *1023:A3 *325:10 0.000136486
9 *1025:D *1027:A 0
10 *1025:D *271:16 0.000116141
11 *266:10 *298:14 0.000190416
12 *266:10 *298:18 0.000163352
13 *266:10 *325:10 0.000431852
14 *1008:A *266:10 0
15 *1023:A2 *1023:A3 0.000269713
16 *1025:B *1025:D 7.68523e-05
17 *1026:A1 *1025:D 2.36894e-05
18 *1026:A1 *266:14 2.64616e-05
19 *250:14 *1023:A3 1.47394e-05
20 *256:17 *266:10 0
21 *257:40 *1025:D 2.51896e-05
22 *258:29 *266:10 0
*RES
1 *1019:X *266:8 40.5271 
2 *266:8 *266:10 10.7093 
3 *266:10 *266:14 15.6214 
4 *266:14 *1025:D 29.5664 
5 *266:14 *1026:B2 23 
6 *266:10 *1023:A3 43.7586 
*END

*D_NET *267 0.000301078
*CONN
*I *1021:B1 I *D sky130_fd_sc_hd__a21o_1
*I *1020:X O *D sky130_fd_sc_hd__a21o_1
*CAP
1 *1021:B1 0.00013292
2 *1020:X 0.00013292
3 *1021:A1 *1021:B1 3.52383e-05
*RES
1 *1020:X *1021:B1 48.5479 
*END

*D_NET *268 0.000406823
*CONN
*I *1022:B I *D sky130_fd_sc_hd__xor2_1
*I *1021:X O *D sky130_fd_sc_hd__a21o_1
*CAP
1 *1022:B 0.000203412
2 *1021:X 0.000203412
*RES
1 *1021:X *1022:B 49.48 
*END

*D_NET *269 0.00200968
*CONN
*I *1024:B I *D sky130_fd_sc_hd__xnor2_1
*I *1033:A1 I *D sky130_fd_sc_hd__o21ai_1
*I *1023:X O *D sky130_fd_sc_hd__a31o_1
*CAP
1 *1024:B 0
2 *1033:A1 0.000292862
3 *1023:X 0.000144487
4 *269:6 0.000437349
5 *1033:A1 *1002:A 5.3304e-05
6 *1033:A1 *1002:B 8.57986e-05
7 *1033:A1 *1030:B1 0.000143655
8 *269:6 *366:10 0.000106318
9 *249:6 *1033:A1 0.000221992
10 *252:12 *1033:A1 4.02485e-05
11 *252:21 *1033:A1 0.000153382
12 *252:21 *269:6 1.03836e-05
13 *252:36 *269:6 0.000319905
*RES
1 *1023:X *269:6 27.4329 
2 *269:6 *1033:A1 31.265 
3 *269:6 *1024:B 23 
*END

*D_NET *270 0.000242719
*CONN
*I *1027:A I *D sky130_fd_sc_hd__nand2_1
*I *1025:Y O *D sky130_fd_sc_hd__nand4_1
*CAP
1 *1027:A 7.68917e-05
2 *1025:Y 7.68917e-05
3 *1027:A *271:16 8.14015e-05
4 *1027:A *363:10 7.53384e-06
5 *1025:D *1027:A 0
*RES
1 *1025:Y *1027:A 47.9471 
*END

*D_NET *271 0.000938195
*CONN
*I *1027:B I *D sky130_fd_sc_hd__nand2_1
*I *1026:X O *D sky130_fd_sc_hd__a22o_1
*CAP
1 *1027:B 0
2 *1026:X 0.000357458
3 *271:16 0.000357458
4 *271:16 *363:10 1.76557e-05
5 *1025:B *271:16 8.08139e-06
6 *1025:D *271:16 0.000116141
7 *1027:A *271:16 8.14015e-05
*RES
1 *1026:X *271:16 29.6907 
2 *271:16 *1027:B 23 
*END

*D_NET *272 0.00077145
*CONN
*I *1029:B I *D sky130_fd_sc_hd__nor2_1
*I *1028:X O *D sky130_fd_sc_hd__o2111a_1
*CAP
1 *1029:B 0
2 *1028:X 0.000213082
3 *272:8 0.000213082
4 *265:10 *272:8 0.000345286
*RES
1 *1028:X *272:8 42.7229 
2 *272:8 *1029:B 38 
*END

*D_NET *273 0.000359136
*CONN
*I *1031:B1 I *D sky130_fd_sc_hd__a21oi_1
*I *1030:X O *D sky130_fd_sc_hd__o211a_1
*CAP
1 *1031:B1 0
2 *1030:X 0.000103461
3 *273:10 0.000103461
4 *27:15 *273:10 3.81391e-05
5 *59:15 *273:10 0.000114074
*RES
1 *1030:X *273:10 40.175 
2 *273:10 *1031:B1 38 
*END

*D_NET *274 0.00100396
*CONN
*I *1033:B1 I *D sky130_fd_sc_hd__o21ai_1
*I *1031:Y O *D sky130_fd_sc_hd__a21oi_1
*CAP
1 *1033:B1 0
2 *1031:Y 0.000298781
3 *274:10 0.000298781
4 *274:10 *1002:A 0
5 *274:10 *275:10 6.68793e-05
6 *274:10 *293:12 3.92407e-05
7 *274:10 *329:25 0.000223698
8 *27:15 *274:10 1.33122e-05
9 *31:17 *274:10 6.32688e-05
*RES
1 *1031:Y *274:10 43.2304 
2 *274:10 *1033:B1 38 
*END

*D_NET *275 0.000375247
*CONN
*I *1033:A2 I *D sky130_fd_sc_hd__o21ai_1
*I *1032:Y O *D sky130_fd_sc_hd__nand2_1
*CAP
1 *1033:A2 0
2 *1032:Y 0.00013879
3 *275:10 0.00013879
4 *275:10 *1002:A 0
5 *27:15 *275:10 5.37348e-06
6 *53:11 *275:10 0
7 *252:12 *275:10 2.5415e-05
8 *274:10 *275:10 6.68793e-05
*RES
1 *1032:Y *275:10 40.5271 
2 *275:10 *1033:A2 38 
*END

*D_NET *276 0.00280717
*CONN
*I *856:B1 I *D sky130_fd_sc_hd__a21o_1
*I *854:A1 I *D sky130_fd_sc_hd__o21ai_1
*I *827:A_N I *D sky130_fd_sc_hd__and2b_1
*I *825:Y O *D sky130_fd_sc_hd__nor2_1
*CAP
1 *856:B1 0.000137838
2 *854:A1 0
3 *827:A_N 7.36941e-05
4 *825:Y 0.000283294
5 *276:25 0.000252523
6 *276:10 0.000471673
7 *827:A_N *331:12 0.000166513
8 *827:A_N *374:14 0.000191148
9 *276:10 *826:B 1.94693e-05
10 *276:10 *364:10 7.44161e-06
11 *276:10 *374:14 0.000161121
12 *276:25 *331:8 5.3304e-05
13 *829:A *856:B1 3.623e-05
14 *829:A *276:25 8.52606e-05
15 *840:A1 *276:25 0.000139352
16 *856:A1 *856:B1 3.06608e-05
17 *856:A1 *276:25 0
18 *856:A2 *856:B1 0.000141954
19 *101:26 *856:B1 1.22822e-05
20 *101:26 *276:25 5.90075e-05
21 *103:38 *827:A_N 1.22803e-05
22 *103:38 *276:10 2.24973e-05
23 *103:38 *276:25 9.45591e-05
24 *105:12 *276:10 3.28979e-05
25 *114:18 *276:10 0.000135037
26 *125:10 *856:B1 0.000187129
*RES
1 *825:Y *276:10 42.785 
2 *276:10 *827:A_N 40.61 
3 *276:10 *276:25 18.9771 
4 *276:25 *854:A1 23 
5 *276:25 *856:B1 27.4743 
*END

*D_NET *277 0.00235261
*CONN
*I *834:B I *D sky130_fd_sc_hd__or2_1
*I *833:B I *D sky130_fd_sc_hd__nand2_1
*I *1034:X O *D sky130_fd_sc_hd__clkbuf_1
*CAP
1 *834:B 0
2 *833:B 0
3 *1034:X 7.54437e-05
4 *277:26 0.000343498
5 *277:12 0.000536543
6 *277:8 0.000268489
7 *277:8 *338:10 0.000166522
8 *277:8 *364:10 1.12487e-05
9 *277:12 *836:A1 0.000184527
10 *277:12 *338:14 0.000166987
11 *277:26 *833:A 0.000255507
12 *277:26 *836:A1 0.000124513
13 *835:A *277:26 2.76611e-06
14 *28:13 *277:8 0.000191157
15 *108:8 *277:26 2.54046e-05
*RES
1 *1034:X *277:8 40.61 
2 *277:8 *277:12 18.9564 
3 *277:12 *277:26 36.6493 
4 *277:26 *833:B 23 
5 *277:12 *834:B 23 
*END

*D_NET *278 0.00518464
*CONN
*I *923:B I *D sky130_fd_sc_hd__or2_1
*I *924:B I *D sky130_fd_sc_hd__nand2_1
*I *1035:X O *D sky130_fd_sc_hd__clkbuf_1
*CAP
1 *923:B 0.000197738
2 *924:B 0
3 *1035:X 0.000882092
4 *278:12 0.000303992
5 *278:6 0.000988345
6 *923:B *313:14 5.50049e-05
7 *923:B *313:29 2.4754e-05
8 *923:B *354:10 9.54409e-05
9 *278:6 *279:8 0.000157852
10 *278:6 *282:10 0.000274703
11 *278:6 *314:10 5.67058e-05
12 *278:6 *351:14 0.0010576
13 *278:6 *359:16 0.000225399
14 *278:12 *1112:A 0.000194327
15 *278:12 *313:14 5.26204e-05
16 sum[20] *278:6 2.7237e-05
17 *939:A2 *923:B 4.56219e-05
18 *939:B1_N *923:B 9.5877e-05
19 *941:B *278:12 0
20 *1071:A *278:6 2.93845e-05
21 *182:6 *923:B 1.24376e-05
22 *182:14 *923:B 0.000221997
23 *183:8 *923:B 6.51843e-05
24 *198:8 *923:B 0.00012033
*RES
1 *1035:X *278:6 44.1079 
2 *278:6 *278:12 32.61 
3 *278:12 *924:B 23 
4 *278:12 *923:B 29.525 
*END

*D_NET *279 0.00461609
*CONN
*I *920:B I *D sky130_fd_sc_hd__nor2_1
*I *921:B I *D sky130_fd_sc_hd__nand2_1
*I *1036:X O *D sky130_fd_sc_hd__buf_1
*CAP
1 *920:B 0
2 *921:B 0.000174995
3 *1036:X 0.000812608
4 *279:16 0.00052708
5 *279:8 0.00116469
6 *279:8 *1114:A 0.000274078
7 *279:8 *284:8 5.3304e-05
8 *279:8 *351:14 0.000348066
9 *279:8 *359:16 2.25419e-05
10 *279:16 *920:A 4.16764e-05
11 *279:16 *1112:A 0
12 *279:16 *314:10 6.85516e-05
13 *279:16 *358:18 0
14 sum[19] *279:8 5.3304e-05
15 sum[21] *279:8 9.5877e-05
16 sum[22] *279:8 0.000143543
17 *922:B *921:B 6.62056e-05
18 *957:A *921:B 0.000227208
19 *1071:A *279:16 3.70187e-05
20 *1074:A *279:8 5.50106e-05
21 *12:17 *279:8 9.58444e-05
22 *18:13 *279:8 9.41704e-05
23 *179:8 *921:B 9.49224e-05
24 *179:8 *279:16 7.53384e-06
25 *278:6 *279:8 0.000157852
*RES
1 *1036:X *279:8 41.27 
2 *279:8 *279:16 36.7529 
3 *279:16 *921:B 27.9507 
4 *279:16 *920:B 23 
*END

*D_NET *280 0.0011134
*CONN
*I *832:B I *D sky130_fd_sc_hd__and2_1
*I *837:B I *D sky130_fd_sc_hd__nor2_1
*I *1037:X O *D sky130_fd_sc_hd__clkbuf_1
*CAP
1 *832:B 8.38654e-05
2 *837:B 0.00011318
3 *1037:X 0.000294462
4 *280:10 0.000491507
5 *837:B *837:A 0
6 *280:10 *837:A 0
7 *280:10 *315:10 0
8 *107:6 *832:B 2.93747e-05
9 *107:10 *280:10 0
10 *111:29 *837:B 9.63815e-05
11 *111:29 *280:10 4.6318e-06
*RES
1 *1037:X *280:10 42.3086 
2 *280:10 *837:B 40.61 
3 *280:10 *832:B 39.5743 
*END

*D_NET *281 0.000605039
*CONN
*I *954:B I *D sky130_fd_sc_hd__nand2_1
*I *955:B I *D sky130_fd_sc_hd__or2_1
*I *1038:X O *D sky130_fd_sc_hd__clkbuf_1
*CAP
1 *954:B 0.000114193
2 *955:B 4.01985e-05
3 *1038:X 7.43404e-05
4 *281:10 0.000154392
5 *281:8 7.43404e-05
6 *954:B *955:A 9.17053e-05
7 *1038:A *281:8 5.58694e-05
8 *220:10 *281:8 0
*RES
1 *1038:X *281:8 39.5536 
2 *281:8 *281:10 15 
3 *281:10 *955:B 23.6214 
4 *281:10 *954:B 25.5479 
*END

*D_NET *282 0.00150463
*CONN
*I *951:B I *D sky130_fd_sc_hd__nand2_1
*I *952:B I *D sky130_fd_sc_hd__or2_1
*I *964:A2 I *D sky130_fd_sc_hd__a21o_1
*I *1039:X O *D sky130_fd_sc_hd__buf_1
*CAP
1 *951:B 4.14065e-05
2 *952:B 0
3 *964:A2 0
4 *1039:X 0.000315564
5 *282:21 0.000176497
6 *282:12 0.00013509
7 *282:10 0.000315564
8 *951:B *952:A 3.23857e-06
9 *951:B *317:14 3.06389e-05
10 *951:B *354:10 0
11 *282:10 *356:10 0
12 *282:21 *952:A 3.23857e-06
13 *282:21 *964:A1 9.01397e-05
14 *282:21 *317:14 5.68958e-05
15 *206:10 *282:10 6.16531e-05
16 *278:6 *282:10 0.000274703
*RES
1 *1039:X *282:10 43.2614 
2 *282:10 *282:12 15 
3 *282:12 *964:A2 23 
4 *282:12 *282:21 3.02429 
5 *282:21 *952:B 23 
6 *282:21 *951:B 24.1186 
*END

*D_NET *283 0.000399323
*CONN
*I *949:B I *D sky130_fd_sc_hd__or2_1
*I *950:B I *D sky130_fd_sc_hd__nand2_1
*I *1040:X O *D sky130_fd_sc_hd__clkbuf_1
*CAP
1 *949:B 0
2 *950:B 2.30335e-05
3 *1040:X 7.35209e-05
4 *283:10 2.30335e-05
5 *283:8 7.35209e-05
6 *950:B *950:A 8.09601e-05
7 *283:8 *318:10 5.21024e-05
8 *204:10 *950:B 3.22879e-05
9 *204:10 *283:8 4.08641e-05
10 *219:16 *283:8 0
*RES
1 *1040:X *283:8 39.5536 
2 *283:8 *283:10 15 
3 *283:10 *950:B 24.1186 
4 *283:10 *949:B 23 
*END

*D_NET *284 0.00470976
*CONN
*I *947:B I *D sky130_fd_sc_hd__nand2_1
*I *946:B I *D sky130_fd_sc_hd__or2_1
*I *1041:X O *D sky130_fd_sc_hd__clkbuf_1
*CAP
1 *947:B 2.34823e-05
2 *946:B 0
3 *1041:X 4.66415e-05
4 *284:24 0.000249305
5 *284:16 0.00102329
6 *284:8 0.000797148
7 *284:16 *359:16 0.000944474
8 *284:24 *319:10 0
9 *284:24 *357:10 1.83667e-05
10 *968:B *284:16 0.00015795
11 *985:A_N *284:16 0
12 *1076:A *284:24 0
13 *1097:A *284:16 3.01458e-05
14 *18:13 *284:16 6.16531e-05
15 *47:13 *284:16 0.000126538
16 *201:8 *284:24 0
17 *201:16 *947:B 0
18 *202:8 *284:16 0.000530622
19 *203:10 *284:16 0.000140151
20 *221:27 *284:16 0.000506685
21 *279:8 *284:8 5.3304e-05
*RES
1 *1041:X *284:8 38.6214 
2 *284:8 *284:16 36.4186 
3 *284:16 *284:24 34.1843 
4 *284:24 *946:B 23 
5 *284:16 *947:B 23.4971 
*END

*D_NET *285 0.000659357
*CONN
*I *987:B I *D sky130_fd_sc_hd__or2_1
*I *979:B I *D sky130_fd_sc_hd__nand2_1
*I *1042:X O *D sky130_fd_sc_hd__clkbuf_1
*CAP
1 *987:B 6.90834e-05
2 *979:B 3.0159e-05
3 *1042:X 0.000108644
4 *285:8 0.000207887
5 *979:B *979:A 6.48049e-05
6 *987:B *979:A 0.000114083
7 *285:8 *979:A 2.93845e-05
8 *19:15 *285:8 3.53115e-05
*RES
1 *1042:X *285:8 39.5743 
2 *285:8 *979:B 38.8493 
3 *285:8 *987:B 39.5536 
*END

*D_NET *286 0.00133497
*CONN
*I *976:B I *D sky130_fd_sc_hd__nand2_1
*I *977:B I *D sky130_fd_sc_hd__or2_1
*I *1043:X O *D sky130_fd_sc_hd__clkbuf_1
*CAP
1 *976:B 0
2 *977:B 0.000238833
3 *1043:X 0.000248003
4 *286:10 0.000486836
5 *977:B *322:23 0.000111852
6 *286:10 *361:10 8.91468e-07
7 *1043:A *286:10 3.89972e-05
8 *1079:A *977:B 8.11982e-06
9 *226:8 *286:10 8.51225e-05
10 *227:8 *286:10 0.000116314
11 *227:29 *977:B 0
12 *227:29 *286:10 0
13 *241:20 *286:10 0
*RES
1 *1043:X *286:10 43.6964 
2 *286:10 *977:B 41.6457 
3 *286:10 *976:B 38 
*END

*D_NET *287 0.0033546
*CONN
*I *1016:B2 I *D sky130_fd_sc_hd__a22o_1
*I *974:B I *D sky130_fd_sc_hd__nor2_1
*I *975:B I *D sky130_fd_sc_hd__nand2_1
*I *1044:X O *D sky130_fd_sc_hd__buf_1
*CAP
1 *1016:B2 0.000294559
2 *974:B 0
3 *975:B 9.62379e-05
4 *1044:X 0.000378455
5 *287:12 0.000453633
6 *287:8 0.00103041
7 *975:B *974:A 3.06608e-05
8 *975:B *975:A 1.73222e-05
9 *975:B *323:22 5.70419e-05
10 *1016:B2 *324:21 0.000181131
11 *287:8 *1000:A 5.56306e-05
12 *287:8 *1000:B 1.62615e-05
13 *287:8 *289:8 0.000247821
14 *287:8 *323:8 0
15 *287:8 *329:25 0.000107548
16 *287:12 *973:B 0.00011218
17 *287:12 *289:8 2.71291e-05
18 *287:12 *323:22 0
19 *287:12 *324:29 7.98259e-05
20 *287:12 *360:12 0
21 *287:12 *361:10 0
22 *31:17 *287:8 0.000168754
*RES
1 *1044:X *287:8 47.6529 
2 *287:8 *287:12 21.4836 
3 *287:12 *975:B 25.5686 
4 *287:12 *974:B 23 
5 *287:8 *1016:B2 42.4743 
*END

*D_NET *288 0.00110695
*CONN
*I *870:B I *D sky130_fd_sc_hd__nand2_1
*I *871:B I *D sky130_fd_sc_hd__or2_1
*I *1045:X O *D sky130_fd_sc_hd__clkbuf_1
*CAP
1 *870:B 0
2 *871:B 0.000208469
3 *1045:X 0.000167485
4 *288:10 0.000375954
5 *871:B *870:A 8.16356e-05
6 *871:B *871:A 0.000102109
7 *871:B *304:8 1.32939e-05
8 *906:B *288:10 0
9 *907:A1 *871:B 0
10 *1061:A *871:B 0.000158008
*RES
1 *1045:X *288:10 40.5271 
2 *288:10 *871:B 43.2407 
3 *288:10 *870:B 38 
*END

*D_NET *289 0.00218215
*CONN
*I *1017:A2 I *D sky130_fd_sc_hd__o21ai_1
*I *1016:A2 I *D sky130_fd_sc_hd__a22o_1
*I *973:B I *D sky130_fd_sc_hd__xnor2_1
*I *1046:X O *D sky130_fd_sc_hd__buf_1
*CAP
1 *1017:A2 5.88775e-05
2 *1016:A2 2.79296e-05
3 *973:B 0.000160811
4 *1046:X 0.00024637
5 *289:21 8.68071e-05
6 *289:8 0.000407181
7 *973:B *1118:A 7.73389e-05
8 *973:B *323:22 7.90939e-05
9 *1016:A2 *324:21 5.50049e-05
10 *1017:A2 *324:21 0.000182832
11 *289:8 *1000:B 0.000166532
12 *289:8 *323:22 6.02277e-06
13 *289:8 *324:10 0.000178558
14 *1017:B1 *1017:A2 2.93747e-05
15 *264:6 *1017:A2 3.22879e-05
16 *287:8 *289:8 0.000247821
17 *287:12 *973:B 0.00011218
18 *287:12 *289:8 2.71291e-05
*RES
1 *1046:X *289:8 45.54 
2 *289:8 *973:B 42.5364 
3 *289:8 *289:21 15 
4 *289:21 *1016:A2 23.6214 
5 *289:21 *1017:A2 25.0507 
*END

*D_NET *290 0.00220238
*CONN
*I *1011:B I *D sky130_fd_sc_hd__nor2_1
*I *1009:B I *D sky130_fd_sc_hd__and2_1
*I *1010:B I *D sky130_fd_sc_hd__nand2_1
*I *1047:X O *D sky130_fd_sc_hd__buf_1
*CAP
1 *1011:B 1.06156e-05
2 *1009:B 0.000136329
3 *1010:B 0
4 *1047:X 0.000530582
5 *290:19 0.000272552
6 *290:10 0.000125608
7 *290:8 0.000530582
8 *1009:B *325:18 3.23684e-05
9 *1011:B *325:18 1.73222e-05
10 *290:8 *291:43 0.000163361
11 *290:8 *298:14 0
12 *290:8 *363:10 0
13 *290:19 *1010:A 5.67058e-05
14 *290:19 *325:18 4.44329e-05
15 *250:62 *290:8 0
16 *254:10 *290:8 3.83778e-05
17 *254:12 *290:8 3.31127e-05
18 *254:18 *290:8 0.000155427
19 *257:10 *290:8 0
20 *257:10 *290:19 5.50049e-05
21 *257:23 *290:8 0
22 *257:40 *290:8 0
*RES
1 *1047:X *290:8 48.3571 
2 *290:8 *290:10 15 
3 *290:10 *1010:B 23 
4 *290:10 *290:19 3.02429 
5 *290:19 *1009:B 25.0714 
6 *290:19 *1011:B 23.4971 
*END

*D_NET *291 0.00500872
*CONN
*I *1003:B I *D sky130_fd_sc_hd__nand2_1
*I *1007:B I *D sky130_fd_sc_hd__or2_1
*I *1006:B I *D sky130_fd_sc_hd__nor2_1
*I *1048:X O *D sky130_fd_sc_hd__buf_1
*CAP
1 *1003:B 1.22655e-05
2 *1007:B 0
3 *1006:B 0
4 *1048:X 0.000959091
5 *291:43 0.00037288
6 *291:28 0.000153646
7 *291:20 0.00147335
8 *1003:B *1003:A 5.50106e-05
9 *291:20 *1001:B 0.000100922
10 *291:20 *1099:A 5.50106e-05
11 *291:20 *293:6 1.95443e-05
12 *291:20 *326:6 0.000127855
13 *291:20 *328:10 0.000214257
14 *291:20 *367:12 0.000103647
15 *291:28 *325:10 1.16814e-05
16 *291:28 *326:16 0.000109343
17 *291:28 *366:10 0
18 *291:43 *1003:A 5.3304e-05
19 *291:43 *325:10 5.50049e-05
20 *291:43 *326:6 4.08664e-05
21 *291:43 *363:10 0
22 cout *291:20 9.67842e-05
23 *1023:A2 *291:28 5.73288e-05
24 *1023:B1 *291:28 5.50106e-05
25 *23:9 *291:43 3.22879e-05
26 *24:11 *291:20 5.90675e-06
27 *56:15 *291:20 9.67842e-05
28 *58:13 *291:20 0.000188934
29 *89:8 *291:20 0.00014291
30 *92:8 *291:20 0.000144903
31 *248:10 *291:20 9.24795e-06
32 *257:23 *1003:B 4.2573e-05
33 *257:23 *291:43 5.50049e-05
34 *290:8 *291:43 0.000163361
*RES
1 *1048:X *291:20 43.9007 
2 *291:20 *291:28 33.2314 
3 *291:28 *1006:B 23 
4 *291:20 *291:43 37.1879 
5 *291:43 *1007:B 23 
6 *291:43 *1003:B 23.6214 
*END

*D_NET *292 0.00207809
*CONN
*I *828:B I *D sky130_fd_sc_hd__nand2_1
*I *830:B I *D sky130_fd_sc_hd__nor2_1
*I *1049:X O *D sky130_fd_sc_hd__clkbuf_1
*CAP
1 *828:B 0.000155906
2 *830:B 0.000111516
3 *1049:X 0.000374794
4 *292:10 0.000642216
5 *830:B *327:23 0
6 *292:10 *338:10 0.00016209
7 *292:10 *340:10 0.000108681
8 *292:10 *364:10 5.62433e-06
9 *292:10 *374:14 2.93747e-05
10 sum[0] *292:10 1.01436e-05
11 sum[2] *292:10 4.74706e-05
12 *1059:A *830:B 0.000164048
13 *1059:A *292:10 1.20966e-05
14 *1087:A *830:B 0
15 *3:11 *292:10 3.16665e-05
16 *91:8 *828:B 1.73399e-05
17 *100:8 *292:10 2.13847e-05
18 *103:10 *828:B 0.000183733
*RES
1 *1049:X *292:10 45.395 
2 *292:10 *830:B 40.2579 
3 *292:10 *828:B 41.5007 
*END

*D_NET *293 0.00200087
*CONN
*I *1001:B I *D sky130_fd_sc_hd__nor2_1
*I *1030:C1 I *D sky130_fd_sc_hd__o211a_1
*I *1002:B I *D sky130_fd_sc_hd__nand2_1
*I *1050:X O *D sky130_fd_sc_hd__buf_1
*CAP
1 *1001:B 0.000174192
2 *1030:C1 0
3 *1002:B 0.000204194
4 *1050:X 0.000199019
5 *293:12 0.000287605
6 *293:6 0.000456622
7 *1001:B *1099:A 5.50106e-05
8 *1001:B *328:10 2.02517e-05
9 *1002:B *1030:B1 7.11451e-05
10 *293:12 *1002:A 0
11 *293:12 *328:14 0
12 *293:12 *339:8 4.08537e-05
13 *1033:A1 *1002:B 8.57986e-05
14 *24:11 *293:6 1.39431e-05
15 *31:17 *293:12 0.000164291
16 *248:10 *1001:B 1.32314e-05
17 *252:12 *1002:B 5.50106e-05
18 *274:10 *293:12 3.92407e-05
19 *291:20 *1001:B 0.000100922
20 *291:20 *293:6 1.95443e-05
*RES
1 *1050:X *293:6 25.5271 
2 *293:6 *293:12 32.2579 
3 *293:12 *1002:B 27.4743 
4 *293:12 *1030:C1 23 
5 *293:6 *1001:B 27.35 
*END

*D_NET *294 0.00201614
*CONN
*I *1030:A2 I *D sky130_fd_sc_hd__o211a_1
*I *1031:A2 I *D sky130_fd_sc_hd__a21oi_1
*I *1000:B I *D sky130_fd_sc_hd__xor2_1
*I *1051:X O *D sky130_fd_sc_hd__buf_1
*CAP
1 *1030:A2 7.54177e-05
2 *1031:A2 0
3 *1000:B 0.000237674
4 *1051:X 0.000114292
5 *294:21 9.96148e-05
6 *294:8 0.000376163
7 *1000:B *1000:A 2.64616e-05
8 *1000:B *324:10 0.000164291
9 *1030:A2 *329:31 0.000166513
10 *1044:A *1000:B 4.75766e-05
11 *1044:A *1030:A2 1.14452e-05
12 *1044:A *294:21 6.16531e-05
13 *27:15 *294:8 0.000180218
14 *31:17 *1000:B 6.90424e-05
15 *31:17 *1030:A2 8.92738e-05
16 *54:11 *1000:B 0
17 *59:15 *1000:B 7.90171e-05
18 *59:15 *1030:A2 8.68016e-06
19 *59:15 *294:21 2.60152e-05
20 *287:8 *1000:B 1.62615e-05
21 *289:8 *1000:B 0.000166532
*RES
1 *1051:X *294:8 40.0507 
2 *294:8 *1000:B 44.0486 
3 *294:8 *294:21 0.849286 
4 *294:21 *1031:A2 38 
5 *294:21 *1030:A2 40.61 
*END

*D_NET *295 0.00136699
*CONN
*I *826:B I *D sky130_fd_sc_hd__nand2_1
*I *825:B I *D sky130_fd_sc_hd__nor2_1
*I *1052:X O *D sky130_fd_sc_hd__clkbuf_1
*CAP
1 *826:B 0.000210781
2 *825:B 0
3 *1052:X 9.75626e-05
4 *295:10 0.000210781
5 *295:8 9.75626e-05
6 *826:B *825:A 0.000158948
7 *826:B *364:10 9.5877e-05
8 *295:8 *302:10 8.41115e-05
9 *101:10 *826:B 0.000226306
10 *103:10 *295:8 0.000165593
11 *276:10 *826:B 1.94693e-05
*RES
1 *1052:X *295:8 40.2579 
2 *295:8 *295:10 15 
3 *295:10 *825:B 23 
4 *295:10 *826:B 28.9036 
*END

*D_NET *296 0.000968514
*CONN
*I *851:B I *D sky130_fd_sc_hd__nand2_1
*I *852:B I *D sky130_fd_sc_hd__or2_1
*I *1053:X O *D sky130_fd_sc_hd__clkbuf_1
*CAP
1 *851:B 0
2 *852:B 0.000107899
3 *1053:X 0.000348005
4 *296:8 0.000455904
5 *852:B *852:A 5.67058e-05
*RES
1 *1053:X *296:8 29.235 
2 *296:8 *852:B 25.0714 
3 *296:8 *851:B 23 
*END

*D_NET *297 0.000726423
*CONN
*I *847:B I *D sky130_fd_sc_hd__and2_1
*I *849:B I *D sky130_fd_sc_hd__nor2_1
*I *1054:X O *D sky130_fd_sc_hd__clkbuf_1
*CAP
1 *847:B 0.000104497
2 *849:B 0
3 *1054:X 0.000177767
4 *297:12 0.000104497
5 *297:10 0.000177767
6 *847:B *849:A 8.02708e-05
7 *297:10 *333:10 8.16253e-05
8 *297:10 *370:10 0
*RES
1 *1054:X *297:10 40.8793 
2 *297:10 *297:12 15 
3 *297:12 *849:B 23 
4 *297:12 *847:B 25.5686 
*END

*D_NET *298 0.00573173
*CONN
*I *846:B I *D sky130_fd_sc_hd__xor2_1
*I *878:B2 I *D sky130_fd_sc_hd__a22o_1
*I *861:A2 I *D sky130_fd_sc_hd__a21oi_1
*I *1055:X O *D sky130_fd_sc_hd__buf_1
*CAP
1 *846:B 0.000178613
2 *878:B2 0
3 *861:A2 0.000285321
4 *1055:X 0.00106061
5 *298:18 0.000396762
6 *298:14 0.00054214
7 *298:6 0.0013127
8 *846:B *846:A 0.000317553
9 *846:B *334:6 1.03836e-05
10 *861:A2 *861:A1 0.000221396
11 *298:14 *325:10 0.000246748
12 *298:18 *878:A1 4.21594e-06
13 *298:18 *334:12 5.561e-05
14 *1008:A *298:6 3.59884e-05
15 *59:15 *298:6 0.000139352
16 *145:10 *861:A2 2.93845e-05
17 *252:36 *298:6 0.000146195
18 *254:18 *298:6 0.000123849
19 *254:18 *298:14 4.02103e-05
20 *258:8 *298:14 0.000141888
21 *258:8 *298:18 6.25829e-05
22 *258:12 *846:B 2.64616e-05
23 *258:29 *298:18 0
24 *266:10 *298:14 0.000190416
25 *266:10 *298:18 0.000163352
26 *290:8 *298:14 0
*RES
1 *1055:X *298:6 41.2493 
2 *298:6 *298:14 21.8979 
3 *298:14 *298:18 17.9621 
4 *298:18 *861:A2 29.38 
5 *298:18 *878:B2 23 
6 *298:14 *846:B 42.4329 
*END

*D_NET *299 0.000783069
*CONN
*I *868:B I *D sky130_fd_sc_hd__nand2_1
*I *867:B I *D sky130_fd_sc_hd__nor2_1
*I *1056:X O *D sky130_fd_sc_hd__clkbuf_1
*CAP
1 *868:B 0
2 *867:B 6.53627e-05
3 *1056:X 0.000118955
4 *299:10 6.53627e-05
5 *299:8 0.000118955
6 *867:B *868:A 7.47622e-05
7 *867:B *336:12 0.000185428
8 *299:8 *301:18 2.76611e-06
9 *299:8 *305:16 0
10 *1056:A *299:8 2.14226e-05
11 *134:10 *867:B 9.24795e-06
12 *134:10 *299:8 8.85189e-05
13 *135:10 *867:B 3.22879e-05
14 *135:10 *299:8 0
*RES
1 *1056:X *299:8 40.2579 
2 *299:8 *299:10 15 
3 *299:10 *867:B 26.045 
4 *299:10 *868:B 23 
*END

*D_NET *300 0.00656259
*CONN
*I *878:A2 I *D sky130_fd_sc_hd__a22o_1
*I *879:A2 I *D sky130_fd_sc_hd__o21ai_1
*I *845:B I *D sky130_fd_sc_hd__xor2_1
*I *1057:X O *D sky130_fd_sc_hd__buf_1
*CAP
1 *878:A2 0
2 *879:A2 0
3 *845:B 0
4 *1057:X 0.0012859
5 *300:50 0.00014336
6 *300:37 0.000322149
7 *300:20 0.00073955
8 *300:16 0.00184666
9 *300:20 *335:18 0.000901224
10 *300:37 *335:18 3.92407e-05
11 *300:37 *335:27 0.000132665
12 *300:50 *878:A1 0.000249918
13 *300:50 *335:27 1.01436e-05
14 *1012:D *300:16 0.000139274
15 *145:10 *300:50 0.000140949
16 *146:6 *300:50 3.7122e-06
17 *224:35 *300:16 3.22879e-05
18 *228:14 *300:16 2.74078e-05
19 *239:18 *300:16 1.5769e-05
20 *239:33 *300:16 0.000173252
21 *259:10 *300:16 0.000311603
22 *261:10 *300:16 4.75206e-05
*RES
1 *1057:X *300:16 46.3657 
2 *300:16 *300:20 29.5829 
3 *300:20 *845:B 38 
4 *300:20 *300:37 18.8736 
5 *300:37 *879:A2 23 
6 *300:37 *300:50 33.9357 
7 *300:50 *878:A2 23 
*END

*D_NET *301 0.0057648
*CONN
*I *876:B I *D sky130_fd_sc_hd__and2_1
*I *883:B I *D sky130_fd_sc_hd__nor2_1
*I *1058:X O *D sky130_fd_sc_hd__buf_1
*CAP
1 *876:B 1.34103e-05
2 *883:B 0.000143058
3 *1058:X 9.98981e-05
4 *301:20 0.000496697
5 *301:18 0.00156825
6 *301:10 0.00132791
7 *876:B *883:A 4.00259e-06
8 *883:B *883:A 8.77027e-05
9 *301:10 *308:10 6.15861e-05
10 *301:10 *347:10 1.65135e-05
11 *301:18 *305:16 0
12 *301:18 *307:21 7.8128e-05
13 *301:18 *308:10 4.752e-05
14 *301:18 *310:8 7.38527e-05
15 *301:18 *321:10 0
16 *301:18 *321:27 0
17 *301:18 *336:12 0.000281758
18 *301:18 *346:10 0
19 *301:18 *347:10 2.96545e-05
20 *301:18 *365:8 0
21 *301:20 *883:A 5.70419e-05
22 *301:20 *336:12 0.000204569
23 *301:20 *336:28 0.000149251
24 sum[13] *301:18 0
25 *904:A *301:18 6.16531e-05
26 *915:A_N *301:18 0
27 *916:A *301:18 8.94487e-05
28 *919:A *301:20 0.000141954
29 *135:10 *301:18 5.50049e-05
30 *160:10 *301:18 0
31 *161:8 *301:18 8.62783e-05
32 *165:10 *301:18 8.4047e-05
33 *174:21 *301:18 0
34 *175:10 *301:18 0.000502845
35 *299:8 *301:18 2.76611e-06
*RES
1 *1058:X *301:10 39.5018 
2 *301:10 *301:18 42.0114 
3 *301:18 *301:20 8.00607 
4 *301:20 *883:B 26.0243 
5 *301:20 *876:B 23.4971 
*END

*D_NET *302 0.00429644
*CONN
*I *874:B I *D sky130_fd_sc_hd__or2_1
*I *873:B I *D sky130_fd_sc_hd__nand2_1
*I *1059:X O *D sky130_fd_sc_hd__clkbuf_1
*CAP
1 *874:B 0
2 *873:B 0.000112271
3 *1059:X 0.00011508
4 *302:10 0.0008333
5 *302:8 0.000836109
6 *873:B *337:21 0.000169674
7 *302:8 *327:8 0.000137651
8 *302:10 *341:8 0
9 *302:10 *368:10 0
10 *302:10 *374:14 0.00148371
11 *28:13 *302:10 5.94125e-05
12 *102:10 *302:10 7.28526e-05
13 *103:10 *302:10 2.69515e-05
14 *114:18 *302:10 0.000161121
15 *115:10 *302:10 8.15957e-05
16 *140:8 *873:B 5.37348e-06
17 *140:36 *873:B 0
18 *154:16 *873:B 9.64022e-05
19 *154:16 *302:10 2.08324e-05
20 *295:8 *302:10 8.41115e-05
*RES
1 *1059:X *302:8 39.5743 
2 *302:8 *302:10 20.9214 
3 *302:10 *873:B 41.2314 
4 *302:10 *874:B 38 
*END

*D_NET *303 0.00108055
*CONN
*I *834:A I *D sky130_fd_sc_hd__or2_1
*I *833:A I *D sky130_fd_sc_hd__nand2_1
*I *1060:X O *D sky130_fd_sc_hd__clkbuf_1
*CAP
1 *834:A 0
2 *833:A 0.000217438
3 *1060:X 0.000166171
4 *303:10 0.000383609
5 *835:A *833:A 0
6 *835:A *303:10 0
7 *57:11 *833:A 0
8 *57:11 *303:10 0
9 *109:23 *303:10 4.334e-05
10 *110:8 *303:10 1.44813e-05
11 *277:26 *833:A 0.000255507
*RES
1 *1060:X *303:10 40.8793 
2 *303:10 *833:A 42.6607 
3 *303:10 *834:A 38 
*END

*D_NET *304 0.000797943
*CONN
*I *870:A I *D sky130_fd_sc_hd__nand2_1
*I *871:A I *D sky130_fd_sc_hd__or2_1
*I *1061:X O *D sky130_fd_sc_hd__clkbuf_1
*CAP
1 *870:A 7.39303e-05
2 *871:A 0.00012097
3 *1061:X 4.25946e-05
4 *304:8 0.000237495
5 *871:B *870:A 8.16356e-05
6 *871:B *871:A 0.000102109
7 *871:B *304:8 1.32939e-05
8 *907:A1 *870:A 7.80354e-05
9 *907:A1 *871:A 4.78793e-05
*RES
1 *1061:X *304:8 38.6214 
2 *304:8 *871:A 40.7757 
3 *304:8 *870:A 40.2579 
*END

*D_NET *305 0.00277822
*CONN
*I *868:A I *D sky130_fd_sc_hd__nand2_1
*I *867:A I *D sky130_fd_sc_hd__nor2_1
*I *1062:X O *D sky130_fd_sc_hd__clkbuf_1
*CAP
1 *868:A 0.000109909
2 *867:A 0
3 *1062:X 0.000351053
4 *305:16 0.000455748
5 *305:12 0.000696892
6 *305:12 *310:8 0
7 *305:12 *336:12 0.000505505
8 *305:16 *336:12 0.000176918
9 sum[12] *305:16 2.33476e-05
10 *867:B *868:A 7.47622e-05
11 *1063:A *305:12 0.000108079
12 *65:13 *305:12 5.36306e-05
13 *134:10 *868:A 5.70419e-05
14 *166:8 *305:16 0.00016533
15 *299:8 *305:16 0
16 *301:18 *305:16 0
*RES
1 *1062:X *305:12 47.3111 
2 *305:12 *305:16 23.0682 
3 *305:16 *867:A 23 
4 *305:16 *868:A 26.045 
*END

*D_NET *306 0.000953743
*CONN
*I *903:A I *D sky130_fd_sc_hd__or2_1
*I *902:A I *D sky130_fd_sc_hd__nand2_1
*I *1063:X O *D sky130_fd_sc_hd__clkbuf_1
*CAP
1 *903:A 0
2 *902:A 0.000174476
3 *1063:X 0.000152979
4 *306:12 0.000174476
5 *306:10 0.000152979
6 *902:A *900:A 9.72057e-06
7 *902:A *903:B 5.50106e-05
8 *902:A *912:A2 5.90675e-06
9 *306:10 *310:8 5.01247e-05
10 *306:10 *336:12 0.000166522
11 *165:10 *902:A 5.37348e-06
12 *175:10 *902:A 6.17437e-06
*RES
1 *1063:X *306:10 40.8793 
2 *306:10 *306:12 15 
3 *306:12 *902:A 26.5214 
4 *306:12 *903:A 23 
*END

*D_NET *307 0.00158197
*CONN
*I *912:A1 I *D sky130_fd_sc_hd__a21oi_1
*I *900:A I *D sky130_fd_sc_hd__or2_1
*I *899:A I *D sky130_fd_sc_hd__nand2_1
*I *1064:X O *D sky130_fd_sc_hd__buf_1
*CAP
1 *912:A1 0
2 *900:A 0.000114385
3 *899:A 0.000190543
4 *1064:X 0.000221735
5 *307:21 0.000247556
6 *307:6 0.000545449
7 *900:A *912:A2 6.32849e-05
8 *900:A *321:27 5.70419e-05
9 *307:21 *321:27 0
10 *902:A *900:A 9.72057e-06
11 *175:10 *900:A 5.41288e-05
12 *301:18 *307:21 7.8128e-05
*RES
1 *1064:X *307:6 25.5271 
2 *307:6 *899:A 26.7286 
3 *307:6 *307:21 32.2579 
4 *307:21 *900:A 26.5214 
5 *307:21 *912:A1 23 
*END

*D_NET *308 0.000614676
*CONN
*I *898:A I *D sky130_fd_sc_hd__nand2_1
*I *897:A I *D sky130_fd_sc_hd__nor2_1
*I *1065:X O *D sky130_fd_sc_hd__clkbuf_1
*CAP
1 *898:A 1.49804e-05
2 *897:A 0
3 *1065:X 0.000126348
4 *308:12 1.49804e-05
5 *308:10 0.000126348
6 *898:A *898:B 5.50106e-05
7 *898:A *365:22 5.50106e-05
8 *308:10 *332:10 8.06039e-05
9 *8:11 *308:10 3.22879e-05
10 *301:10 *308:10 6.15861e-05
11 *301:18 *308:10 4.752e-05
*RES
1 *1065:X *308:10 40.8793 
2 *308:10 *308:12 15 
3 *308:12 *897:A 23 
4 *308:12 *898:A 23.6214 
*END

*D_NET *309 0.00111379
*CONN
*I *895:A I *D sky130_fd_sc_hd__nand2_1
*I *894:A I *D sky130_fd_sc_hd__nor2_1
*I *1066:X O *D sky130_fd_sc_hd__clkbuf_1
*CAP
1 *895:A 0.000157008
2 *894:A 0
3 *1066:X 0.000245004
4 *309:12 0.000157008
5 *309:10 0.000245004
6 *895:A *895:B 5.50049e-05
7 *895:A *365:22 6.51763e-05
8 *309:10 *321:10 0
9 *309:10 *332:10 5.67058e-05
10 *309:10 *343:10 7.91596e-05
11 *8:11 *309:10 4.95081e-05
12 *159:19 *309:10 4.21594e-06
13 *176:10 *309:10 0
*RES
1 *1066:X *309:10 42.3086 
2 *309:10 *309:12 15 
3 *309:12 *894:A 23 
4 *309:12 *895:A 26.5214 
*END

*D_NET *310 0.00142884
*CONN
*I *903:B I *D sky130_fd_sc_hd__or2_1
*I *902:B I *D sky130_fd_sc_hd__nand2_1
*I *1067:X O *D sky130_fd_sc_hd__clkbuf_1
*CAP
1 *903:B 2.95011e-05
2 *902:B 0
3 *1067:X 0.000366206
4 *310:10 2.95011e-05
5 *310:8 0.000366206
6 *310:8 *336:12 0
7 *310:8 *346:10 5.86165e-05
8 *902:A *903:B 5.50106e-05
9 *916:A *310:8 4.7869e-05
10 *1064:A *310:8 9.4987e-05
11 *65:13 *310:8 0
12 *175:10 *310:8 0.000256961
13 *301:18 *310:8 7.38527e-05
14 *305:12 *310:8 0
15 *306:10 *310:8 5.01247e-05
*RES
1 *1067:X *310:8 48.7093 
2 *310:8 *310:10 15 
3 *310:10 *902:B 23 
4 *310:10 *903:B 23.6214 
*END

*D_NET *311 0.00182088
*CONN
*I *928:A I *D sky130_fd_sc_hd__nand2_1
*I *929:A I *D sky130_fd_sc_hd__or2_1
*I *1068:X O *D sky130_fd_sc_hd__clkbuf_1
*CAP
1 *928:A 7.33352e-05
2 *929:A 0
3 *1068:X 0.000526081
4 *311:12 0.000113756
5 *311:8 0.000566502
6 *928:A *929:B 5.67058e-05
7 *311:8 *354:18 0
8 *311:8 *372:14 0
9 *930:A *928:A 0
10 *930:B *311:12 5.50049e-05
11 *957:B *311:8 5.40762e-05
12 *960:A2 *311:8 0
13 *182:25 *311:8 6.6869e-05
14 *187:10 *311:8 0
15 *187:17 *928:A 4.19743e-05
16 *187:17 *311:12 0.000141954
17 *187:25 *311:8 4.41619e-05
18 *199:14 *311:8 2.83536e-05
19 *216:8 *311:8 5.21024e-05
*RES
1 *1068:X *311:8 48.3571 
2 *311:8 *311:12 16.5743 
3 *311:12 *929:A 23 
4 *311:12 *928:A 25.0714 
*END

*D_NET *312 0.00100865
*CONN
*I *925:A I *D sky130_fd_sc_hd__nand2_1
*I *938:A1 I *D sky130_fd_sc_hd__a21o_1
*I *926:A I *D sky130_fd_sc_hd__or2_1
*I *1069:X O *D sky130_fd_sc_hd__clkbuf_1
*CAP
1 *925:A 0
2 *938:A1 6.08977e-05
3 *926:A 0
4 *1069:X 0.000151935
5 *312:12 8.71202e-05
6 *312:10 2.62225e-05
7 *312:8 0.000151935
8 *938:A1 *925:B 0
9 *938:A1 *938:A2 5.67058e-05
10 *938:A1 *365:26 4.7881e-05
11 *312:8 *349:10 0
12 *312:8 *350:10 0
13 *312:12 *365:26 0.000141954
14 *938:B1 *938:A1 0.000143655
15 *184:14 *938:A1 2.46468e-05
16 *184:14 *312:12 0.0001157
*RES
1 *1069:X *312:8 40.2579 
2 *312:8 *312:10 15 
3 *312:10 *312:12 1.57429 
4 *312:12 *926:A 23 
5 *312:12 *938:A1 25.5479 
6 *312:10 *925:A 23 
*END

*D_NET *313 0.00186861
*CONN
*I *923:A I *D sky130_fd_sc_hd__or2_1
*I *924:A I *D sky130_fd_sc_hd__nand2_1
*I *1070:X O *D sky130_fd_sc_hd__clkbuf_1
*CAP
1 *923:A 0
2 *924:A 0
3 *1070:X 0
4 *313:29 0.000218444
5 *313:14 0.000331157
6 *313:4 0.000549601
7 *313:14 *354:10 5.50049e-05
8 *923:B *313:14 5.50049e-05
9 *923:B *313:29 2.4754e-05
10 *939:A2 *313:29 0.000183733
11 *939:B1_N *313:29 5.50106e-05
12 *941:B *313:14 3.7122e-06
13 *941:B *313:29 9.98159e-05
14 *960:A2 *313:29 3.70187e-05
15 *1070:A *313:14 1.94812e-05
16 *182:6 *313:29 2.98648e-05
17 *182:14 *313:14 1.62015e-05
18 *182:25 *313:29 5.31444e-05
19 *183:21 *313:29 8.4047e-05
20 *278:12 *313:14 5.26204e-05
*RES
1 *1070:X *313:4 23 
2 *313:4 *313:14 35.4064 
3 *313:14 *924:A 23 
4 *313:4 *313:29 35.2821 
5 *313:29 *923:A 23 
*END

*D_NET *314 0.0019661
*CONN
*I *920:A I *D sky130_fd_sc_hd__nor2_1
*I *921:A I *D sky130_fd_sc_hd__nand2_1
*I *1071:X O *D sky130_fd_sc_hd__clkbuf_1
*CAP
1 *920:A 7.39614e-05
2 *921:A 0
3 *1071:X 0.00018112
4 *314:18 0.000341725
5 *314:10 0.000596806
6 *920:A *1112:A 0
7 *314:10 *1112:A 0
8 *314:18 *1112:A 6.33614e-05
9 *314:18 *354:10 0.000354122
10 *314:18 *354:18 4.23714e-05
11 *922:A_N *920:A 0
12 *181:12 *920:A 8.62876e-05
13 *181:12 *314:10 5.94125e-05
14 *278:6 *314:10 5.67058e-05
15 *279:16 *920:A 4.16764e-05
16 *279:16 *314:10 6.85516e-05
*RES
1 *1071:X *314:10 41.5836 
2 *314:10 *314:18 35.8621 
3 *314:18 *921:A 38 
4 *314:10 *920:A 39.9057 
*END

*D_NET *315 0.00101584
*CONN
*I *832:A I *D sky130_fd_sc_hd__and2_1
*I *837:A I *D sky130_fd_sc_hd__nor2_1
*I *1072:X O *D sky130_fd_sc_hd__clkbuf_1
*CAP
1 *832:A 0
2 *837:A 0.000242579
3 *1072:X 0.000265342
4 *315:10 0.000507922
5 *837:A *370:10 0
6 *315:10 *370:10 0
7 *837:B *837:A 0
8 *280:10 *837:A 0
9 *280:10 *315:10 0
*RES
1 *1072:X *315:10 41.9564 
2 *315:10 *837:A 42.5364 
3 *315:10 *832:A 38 
*END

*D_NET *316 0.0023184
*CONN
*I *954:A I *D sky130_fd_sc_hd__nand2_1
*I *955:A I *D sky130_fd_sc_hd__or2_1
*I *1073:X O *D sky130_fd_sc_hd__clkbuf_1
*CAP
1 *954:A 0
2 *955:A 0.000116129
3 *1073:X 0.000584803
4 *316:12 0.000116129
5 *316:10 0.000584803
6 *316:10 *950:A 5.37348e-06
7 *954:B *955:A 9.17053e-05
8 *985:A_N *316:10 4.98718e-06
9 *1075:A *316:10 0
10 *204:10 *316:10 0.000111852
11 *205:10 *316:10 4.30193e-05
12 *210:10 *955:A 0.000141954
13 *219:8 *316:10 0.000223687
14 *219:16 *316:10 0.000133771
15 *220:10 *316:10 0.000160191
*RES
1 *1073:X *316:10 47.9843 
2 *316:10 *316:12 15 
3 *316:12 *955:A 26.5214 
4 *316:12 *954:A 23 
*END

*D_NET *317 0.00124687
*CONN
*I *951:A I *D sky130_fd_sc_hd__nand2_1
*I *952:A I *D sky130_fd_sc_hd__or2_1
*I *964:A1 I *D sky130_fd_sc_hd__a21o_1
*I *1074:X O *D sky130_fd_sc_hd__buf_1
*CAP
1 *951:A 0
2 *952:A 8.07648e-06
3 *964:A1 8.3032e-05
4 *1074:X 0.000166599
5 *317:14 0.000167531
6 *317:10 7.64221e-05
7 *317:8 0.000166599
8 *317:14 *354:10 3.29446e-05
9 *951:B *952:A 3.23857e-06
10 *951:B *317:14 3.06389e-05
11 *1097:A *964:A1 0
12 *206:10 *964:A1 0.000185368
13 *206:10 *317:14 0.000176146
14 *282:21 *952:A 3.23857e-06
15 *282:21 *964:A1 9.01397e-05
16 *282:21 *317:14 5.68958e-05
*RES
1 *1074:X *317:8 40.2579 
2 *317:8 *317:10 15 
3 *317:10 *317:14 3.02429 
4 *317:14 *964:A1 25.5479 
5 *317:14 *952:A 23.4971 
6 *317:10 *951:A 23 
*END

*D_NET *318 0.000805563
*CONN
*I *949:A I *D sky130_fd_sc_hd__or2_1
*I *950:A I *D sky130_fd_sc_hd__nand2_1
*I *1075:X O *D sky130_fd_sc_hd__clkbuf_1
*CAP
1 *949:A 0
2 *950:A 0.000131417
3 *1075:X 0.000119807
4 *318:12 0.000131417
5 *318:10 0.000119807
6 *950:B *950:A 8.09601e-05
7 *17:15 *318:10 5.50049e-05
8 *204:10 *950:A 5.29672e-05
9 *205:10 *950:A 5.67058e-05
10 *219:8 *950:A 0
11 *283:8 *318:10 5.21024e-05
12 *316:10 *950:A 5.37348e-06
*RES
1 *1075:X *318:10 40.175 
2 *318:10 *318:12 15 
3 *318:12 *950:A 26.8736 
4 *318:12 *949:A 23 
*END

*D_NET *319 0.00057432
*CONN
*I *946:A I *D sky130_fd_sc_hd__or2_1
*I *947:A I *D sky130_fd_sc_hd__nand2_1
*I *1076:X O *D sky130_fd_sc_hd__clkbuf_1
*CAP
1 *946:A 0.00012622
2 *947:A 0
3 *1076:X 0
4 *319:10 9.87065e-05
5 *319:4 0.000224926
6 *319:10 *357:10 4.21594e-06
7 *985:A_N *319:10 0
8 *1076:A *319:10 9.86551e-06
9 *201:8 *319:10 0.000110386
10 *284:24 *319:10 0
*RES
1 *1076:X *319:4 23 
2 *319:4 *319:10 31.9057 
3 *319:10 *947:A 23 
4 *319:4 *946:A 25.0714 
*END

*D_NET *320 0.000895797
*CONN
*I *987:A I *D sky130_fd_sc_hd__or2_1
*I *979:A I *D sky130_fd_sc_hd__nand2_1
*I *1077:X O *D sky130_fd_sc_hd__clkbuf_1
*CAP
1 *987:A 4.24211e-05
2 *979:A 0.000134001
3 *1077:X 0.000108156
4 *320:8 0.000284578
5 *979:B *979:A 6.48049e-05
6 *987:B *979:A 0.000114083
7 *1014:A_N *320:8 0
8 *1077:A *320:8 6.16635e-05
9 *19:15 *979:A 5.67058e-05
10 *230:10 *979:A 0
11 *285:8 *979:A 2.93845e-05
*RES
1 *1077:X *320:8 40.2579 
2 *320:8 *979:A 41.2314 
3 *320:8 *987:A 38.6214 
*END

*D_NET *321 0.00263042
*CONN
*I *912:A2 I *D sky130_fd_sc_hd__a21oi_1
*I *900:B I *D sky130_fd_sc_hd__or2_1
*I *899:B I *D sky130_fd_sc_hd__nand2_1
*I *1078:X O *D sky130_fd_sc_hd__buf_1
*CAP
1 *912:A2 0.00016904
2 *900:B 0
3 *899:B 0
4 *1078:X 0.0006739
5 *321:27 0.000474538
6 *321:10 0.000979398
7 *321:10 *332:10 5.67058e-05
8 *900:A *912:A2 6.32849e-05
9 *900:A *321:27 5.70419e-05
10 *901:A *321:10 0
11 *901:A *321:27 0
12 *902:A *912:A2 5.90675e-06
13 *913:A1 *321:10 6.84987e-06
14 *932:A1 *321:10 0
15 *932:B1 *321:10 0
16 *933:A2 *321:10 0
17 *159:19 *321:10 0
18 *160:10 *321:10 0
19 *161:30 *321:10 3.98859e-05
20 *165:10 *912:A2 1.32314e-05
21 *175:10 *912:A2 1.14876e-05
22 *176:10 *321:10 7.91493e-05
23 *301:18 *321:10 0
24 *301:18 *321:27 0
25 *307:21 *321:27 0
26 *309:10 *321:10 0
*RES
1 *1078:X *321:10 48.9786 
2 *321:10 *899:B 38 
3 *321:10 *321:27 21.0071 
4 *321:27 *900:B 23 
5 *321:27 *912:A2 26.6871 
*END

*D_NET *322 0.000599348
*CONN
*I *977:A I *D sky130_fd_sc_hd__or2_1
*I *976:A I *D sky130_fd_sc_hd__nand2_1
*I *1079:X O *D sky130_fd_sc_hd__clkbuf_1
*CAP
1 *977:A 0
2 *976:A 0.000127156
3 *1079:X 0
4 *322:23 0.000116592
5 *322:4 0.000243748
6 *977:B *322:23 0.000111852
7 *227:29 *322:23 0
*RES
1 *1079:X *322:4 23 
2 *322:4 *976:A 25.5686 
3 *322:4 *322:23 32.175 
4 *322:23 *977:A 23 
*END

*D_NET *323 0.00339339
*CONN
*I *1016:B1 I *D sky130_fd_sc_hd__a22o_1
*I *974:A I *D sky130_fd_sc_hd__nor2_1
*I *975:A I *D sky130_fd_sc_hd__nand2_1
*I *1080:X O *D sky130_fd_sc_hd__buf_1
*CAP
1 *1016:B1 0
2 *974:A 0.000102267
3 *975:A 1.46693e-05
4 *1080:X 0.000329366
5 *323:22 0.000524351
6 *323:16 0.000741982
7 *323:8 0.000663934
8 *323:8 *367:12 0.000136712
9 *323:16 *324:10 0.000163352
10 *323:16 *334:6 0.000288298
11 *323:22 *324:10 1.14452e-05
12 sum[26] *323:22 2.26497e-05
13 *973:B *323:22 7.90939e-05
14 *975:B *974:A 3.06608e-05
15 *975:B *975:A 1.73222e-05
16 *975:B *323:22 5.70419e-05
17 *1091:A *323:16 8.06103e-05
18 *1091:A *323:22 9.86551e-06
19 *247:14 *323:8 0.000113749
20 *287:8 *323:8 0
21 *287:12 *323:22 0
22 *289:8 *323:22 6.02277e-06
*RES
1 *1080:X *323:8 45.8921 
2 *323:8 *323:16 38.12 
3 *323:16 *323:22 22.83 
4 *323:22 *975:A 23.4971 
5 *323:22 *974:A 25.0714 
6 *323:16 *1016:B1 38 
*END

*D_NET *324 0.00252789
*CONN
*I *1017:A1 I *D sky130_fd_sc_hd__o21ai_1
*I *973:A I *D sky130_fd_sc_hd__xnor2_1
*I *1016:A1 I *D sky130_fd_sc_hd__a22o_1
*I *1081:X O *D sky130_fd_sc_hd__buf_1
*CAP
1 *1017:A1 0
2 *973:A 0
3 *1016:A1 0
4 *1081:X 0.000298971
5 *324:29 0.000185523
6 *324:21 0.000336914
7 *324:12 0.00015139
8 *324:10 0.000298971
9 *324:29 *1118:A 5.67058e-05
10 *1000:B *324:10 0.000164291
11 *1016:A2 *324:21 5.50049e-05
12 *1016:B2 *324:21 0.000181131
13 *1017:A2 *324:21 0.000182832
14 *22:19 *324:10 5.50049e-05
15 *54:11 *324:10 0.000113875
16 *224:10 *324:29 0
17 *264:6 *324:21 1.40958e-05
18 *287:12 *324:29 7.98259e-05
19 *289:8 *324:10 0.000178558
20 *323:16 *324:10 0.000163352
21 *323:22 *324:10 1.14452e-05
*RES
1 *1081:X *324:10 45.8093 
2 *324:10 *324:12 15 
3 *324:12 *1016:A1 23 
4 *324:12 *324:21 3.97714 
5 *324:21 *324:29 33.9357 
6 *324:29 *973:A 23 
7 *324:21 *1017:A1 23 
*END

*D_NET *325 0.00249673
*CONN
*I *1009:A I *D sky130_fd_sc_hd__and2_1
*I *1010:A I *D sky130_fd_sc_hd__nand2_1
*I *1011:A I *D sky130_fd_sc_hd__nor2_1
*I *1082:X O *D sky130_fd_sc_hd__buf_1
*CAP
1 *1009:A 0
2 *1010:A 1.54697e-05
3 *1011:A 0
4 *1082:X 0.000513593
5 *325:18 0.0001243
6 *325:12 0.000108831
7 *325:10 0.000513593
8 *325:10 *326:16 4.96264e-05
9 *1009:B *325:18 3.23684e-05
10 *1011:B *325:18 1.73222e-05
11 *1023:A3 *325:10 0.000136486
12 *254:12 *325:10 0
13 *254:18 *325:10 0
14 *257:40 *325:10 0.000138718
15 *266:10 *325:10 0.000431852
16 *290:19 *1010:A 5.67058e-05
17 *290:19 *325:18 4.44329e-05
18 *291:28 *325:10 1.16814e-05
19 *291:43 *325:10 5.50049e-05
20 *298:14 *325:10 0.000246748
*RES
1 *1082:X *325:10 48.9786 
2 *325:10 *325:12 15 
3 *325:12 *325:18 2.56857 
4 *325:18 *1011:A 23 
5 *325:18 *1010:A 23.6214 
6 *325:12 *1009:A 23 
*END

*D_NET *326 0.00366251
*CONN
*I *1003:A I *D sky130_fd_sc_hd__nand2_1
*I *1007:A I *D sky130_fd_sc_hd__or2_1
*I *1006:A I *D sky130_fd_sc_hd__nor2_1
*I *1083:X O *D sky130_fd_sc_hd__buf_1
*CAP
1 *1003:A 9.02841e-05
2 *1007:A 0
3 *1006:A 0
4 *1083:X 0.000800472
5 *326:23 0.000137946
6 *326:16 0.00018025
7 *326:6 0.00093306
8 *326:6 *328:10 0.000214397
9 *1003:B *1003:A 5.50106e-05
10 *1023:A2 *326:16 1.03836e-05
11 *1023:A2 *326:23 5.3304e-05
12 *1023:B1 *326:16 5.67058e-05
13 *58:13 *326:6 2.95866e-05
14 *248:10 *326:6 0.000228903
15 *250:8 *1003:A 9.76261e-05
16 *250:8 *326:16 9.67842e-05
17 *250:8 *326:23 6.33627e-05
18 *250:62 *1003:A 2.4754e-05
19 *257:23 *1003:A 6.67283e-05
20 *257:23 *326:23 0.00014196
21 *291:20 *326:6 0.000127855
22 *291:28 *326:16 0.000109343
23 *291:43 *1003:A 5.3304e-05
24 *291:43 *326:6 4.08664e-05
25 *325:10 *326:16 4.96264e-05
*RES
1 *1083:X *326:6 35.0557 
2 *326:6 *326:16 33.5007 
3 *326:16 *1006:A 23 
4 *326:16 *326:23 2.05071 
5 *326:23 *1007:A 23 
6 *326:23 *1003:A 26.5214 
*END

*D_NET *327 0.00131649
*CONN
*I *828:A I *D sky130_fd_sc_hd__nand2_1
*I *830:A I *D sky130_fd_sc_hd__nor2_1
*I *1084:X O *D sky130_fd_sc_hd__clkbuf_1
*CAP
1 *828:A 0
2 *830:A 2.34823e-05
3 *1084:X 0.000262209
4 *327:23 0.000232293
5 *327:8 0.000517985
6 *830:B *327:23 0
7 *28:13 *327:8 5.3304e-05
8 *105:10 *327:8 8.95707e-05
9 *302:8 *327:8 0.000137651
*RES
1 *1084:X *327:8 27.93 
2 *327:8 *830:A 23.4971 
3 *327:8 *327:23 33.3557 
4 *327:23 *828:A 23 
*END

*D_NET *328 0.0031317
*CONN
*I *1001:A I *D sky130_fd_sc_hd__nor2_1
*I *1002:A I *D sky130_fd_sc_hd__nand2_1
*I *1030:B1 I *D sky130_fd_sc_hd__o211a_1
*I *1085:X O *D sky130_fd_sc_hd__buf_1
*CAP
1 *1001:A 0
2 *1002:A 6.31514e-05
3 *1030:B1 0.000317464
4 *1085:X 0.000221443
5 *328:14 0.000506869
6 *328:10 0.000347696
7 *328:10 *367:12 0.000185434
8 *328:14 *339:8 0
9 *1001:B *328:10 2.02517e-05
10 *1002:B *1030:B1 7.11451e-05
11 *1033:A1 *1002:A 5.3304e-05
12 *1033:A1 *1030:B1 0.000143655
13 *53:11 *1002:A 5.94125e-05
14 *53:11 *328:14 0.000191166
15 *56:15 *1030:B1 0
16 *56:15 *328:10 3.7877e-05
17 *58:13 *328:10 0.000102389
18 *248:10 *328:10 0.000352415
19 *252:12 *1002:A 2.93747e-05
20 *274:10 *1002:A 0
21 *275:10 *1002:A 0
22 *291:20 *328:10 0.000214257
23 *293:12 *1002:A 0
24 *293:12 *328:14 0
25 *326:6 *328:10 0.000214397
*RES
1 *1085:X *328:10 32.2386 
2 *328:10 *328:14 17.61 
3 *328:14 *1030:B1 44.0486 
4 *328:14 *1002:A 39.4707 
5 *328:10 *1001:A 23 
*END

*D_NET *329 0.00247639
*CONN
*I *1031:A1 I *D sky130_fd_sc_hd__a21oi_1
*I *1030:A1 I *D sky130_fd_sc_hd__o211a_1
*I *1000:A I *D sky130_fd_sc_hd__xor2_1
*I *1086:X O *D sky130_fd_sc_hd__buf_1
*CAP
1 *1031:A1 0
2 *1030:A1 0
3 *1000:A 0.000299274
4 *1086:X 0
5 *329:31 5.66322e-05
6 *329:25 0.00030524
7 *329:6 0.000547882
8 *1000:B *1000:A 2.64616e-05
9 *1030:A2 *329:31 0.000166513
10 *27:15 *329:25 0.000139754
11 *31:17 *329:25 3.14377e-05
12 *59:15 *329:31 0.000168744
13 *247:8 *1000:A 0.000141052
14 *247:14 *1000:A 5.56306e-05
15 *247:14 *329:25 0.000150888
16 *252:12 *329:25 0
17 *274:10 *329:25 0.000223698
18 *287:8 *1000:A 5.56306e-05
19 *287:8 *329:25 0.000107548
*RES
1 *1086:X *329:6 38 
2 *329:6 *1000:A 43.5307 
3 *329:6 *329:25 22.3743 
4 *329:25 *329:31 32.2579 
5 *329:31 *1030:A1 23 
6 *329:25 *1031:A1 23 
*END

*D_NET *330 0.000845892
*CONN
*I *826:A I *D sky130_fd_sc_hd__nand2_1
*I *825:A I *D sky130_fd_sc_hd__nor2_1
*I *1087:X O *D sky130_fd_sc_hd__clkbuf_1
*CAP
1 *826:A 0
2 *825:A 0.000193263
3 *1087:X 0.000143838
4 *330:10 0.000193263
5 *330:8 0.000143838
6 *330:8 *364:10 0
7 *826:B *825:A 0.000158948
8 *1087:A *330:8 1.27424e-05
9 *101:10 *330:8 0
*RES
1 *1087:X *330:8 40.2579 
2 *330:8 *330:10 15 
3 *330:10 *825:A 26.9979 
4 *330:10 *826:A 23 
*END

*D_NET *331 0.00237553
*CONN
*I *851:A I *D sky130_fd_sc_hd__nand2_1
*I *852:A I *D sky130_fd_sc_hd__or2_1
*I *1088:X O *D sky130_fd_sc_hd__clkbuf_1
*CAP
1 *851:A 0
2 *852:A 7.5092e-05
3 *1088:X 0.000374812
4 *331:12 0.00041235
5 *331:8 0.00071207
6 *331:12 *374:14 0.000160507
7 *827:A_N *331:12 0.000166513
8 *840:A1 *331:8 4.05745e-05
9 *852:B *852:A 5.67058e-05
10 *103:21 *331:8 5.10805e-05
11 *103:38 *331:12 3.70187e-05
12 *115:10 *331:8 9.67842e-05
13 *122:8 *331:12 0.000138718
14 *123:8 *331:12 0
15 *276:25 *331:8 5.3304e-05
*RES
1 *1088:X *331:8 44.3386 
2 *331:8 *331:12 23.2443 
3 *331:12 *852:A 24.5743 
4 *331:12 *851:A 23 
*END

*D_NET *332 0.00180757
*CONN
*I *897:B I *D sky130_fd_sc_hd__nor2_1
*I *898:B I *D sky130_fd_sc_hd__nand2_1
*I *1089:X O *D sky130_fd_sc_hd__clkbuf_1
*CAP
1 *897:B 0
2 *898:B 9.84215e-05
3 *1089:X 0.000311569
4 *332:12 9.84215e-05
5 *332:10 0.000311569
6 *898:B *347:10 0.000223704
7 *898:B *365:22 0.000110354
8 *332:10 *347:10 0
9 *898:A *898:B 5.50106e-05
10 *6:15 *898:B 0
11 *8:11 *332:10 0.000404502
12 *308:10 *332:10 8.06039e-05
13 *309:10 *332:10 5.67058e-05
14 *321:10 *332:10 5.67058e-05
*RES
1 *1089:X *332:10 45.0429 
2 *332:10 *332:12 15 
3 *332:12 *898:B 26.5214 
4 *332:12 *897:B 23 
*END

*D_NET *333 0.000985255
*CONN
*I *847:A I *D sky130_fd_sc_hd__and2_1
*I *849:A I *D sky130_fd_sc_hd__nor2_1
*I *1090:X O *D sky130_fd_sc_hd__clkbuf_1
*CAP
1 *847:A 0
2 *849:A 0.000139869
3 *1090:X 0.000269955
4 *333:12 0.000139869
5 *333:10 0.000269955
6 *333:10 *371:10 0
7 *847:B *849:A 8.02708e-05
8 *30:9 *333:10 3.7122e-06
9 *297:10 *333:10 8.16253e-05
*RES
1 *1090:X *333:10 42.3086 
2 *333:10 *333:12 15 
3 *333:12 *849:A 26.045 
4 *333:12 *847:A 23 
*END

*D_NET *334 0.00560624
*CONN
*I *846:A I *D sky130_fd_sc_hd__xor2_1
*I *861:A1 I *D sky130_fd_sc_hd__a21oi_1
*I *878:B1 I *D sky130_fd_sc_hd__a22o_1
*I *1091:X O *D sky130_fd_sc_hd__buf_1
*CAP
1 *846:A 0.000183683
2 *861:A1 0.000235312
3 *878:B1 0
4 *1091:X 0.00153499
5 *334:12 0.000323795
6 *334:6 0.00180716
7 *334:6 *362:8 2.92911e-06
8 *846:B *846:A 0.000317553
9 *846:B *334:6 1.03836e-05
10 *861:A2 *861:A1 0.000221396
11 *258:12 *334:6 0.000432403
12 *258:20 *334:6 0.000138607
13 *265:14 *334:6 2.18409e-05
14 *265:22 *334:6 3.22879e-05
15 *298:18 *334:12 5.561e-05
16 *323:16 *334:6 0.000288298
*RES
1 *1091:X *334:6 44.5843 
2 *334:6 *334:12 31.5536 
3 *334:12 *878:B1 23 
4 *334:12 *861:A1 27.9093 
5 *334:6 *846:A 27.8057 
*END

*D_NET *335 0.00562326
*CONN
*I *878:A1 I *D sky130_fd_sc_hd__a22o_1
*I *879:A1 I *D sky130_fd_sc_hd__o21ai_1
*I *845:A I *D sky130_fd_sc_hd__xor2_1
*I *1092:X O *D sky130_fd_sc_hd__buf_1
*CAP
1 *878:A1 0.000127449
2 *879:A1 3.82951e-05
3 *845:A 0
4 *1092:X 0.00123933
5 *335:27 0.000309765
6 *335:18 0.000561515
7 *335:14 0.00165683
8 *978:B *335:14 8.60475e-05
9 *1015:A1 *335:14 0.000102093
10 *1015:C1 *335:14 9.88574e-06
11 *224:35 *335:14 3.4979e-05
12 *228:6 *335:14 5.50049e-05
13 *262:8 *335:14 6.46633e-05
14 *298:18 *878:A1 4.21594e-06
15 *300:20 *335:18 0.000901224
16 *300:37 *335:18 3.92407e-05
17 *300:37 *335:27 0.000132665
18 *300:50 *878:A1 0.000249918
19 *300:50 *335:27 1.01436e-05
*RES
1 *1092:X *335:14 43.4864 
2 *335:14 *335:18 27.1179 
3 *335:18 *845:A 38 
4 *335:18 *335:27 2.61 
5 *335:27 *879:A1 38.6214 
6 *335:27 *878:A1 41.3143 
*END

*D_NET *336 0.00553373
*CONN
*I *876:A I *D sky130_fd_sc_hd__and2_1
*I *883:A I *D sky130_fd_sc_hd__nor2_1
*I *1093:X O *D sky130_fd_sc_hd__buf_1
*CAP
1 *876:A 0
2 *883:A 0.000100397
3 *1093:X 0
4 *336:28 0.000408814
5 *336:12 0.001478
6 *336:6 0.00116958
7 *336:28 *344:8 1.14452e-05
8 sum[12] *336:12 2.5343e-05
9 sum[13] *336:12 5.58873e-06
10 *867:B *336:12 0.000185428
11 *876:B *883:A 4.00259e-06
12 *883:B *883:A 8.77027e-05
13 *905:A *336:28 1.58805e-05
14 *919:A *336:28 0.000141954
15 *1064:A *336:12 9.1176e-05
16 *135:10 *336:12 4.5707e-05
17 *143:10 *883:A 3.22879e-05
18 *166:8 *336:12 0.00016533
19 *167:10 *336:28 2.3529e-05
20 *173:8 *336:28 0
21 *301:18 *336:12 0.000281758
22 *301:20 *883:A 5.70419e-05
23 *301:20 *336:12 0.000204569
24 *301:20 *336:28 0.000149251
25 *305:12 *336:12 0.000505505
26 *305:16 *336:12 0.000176918
27 *306:10 *336:12 0.000166522
28 *310:8 *336:12 0
*RES
1 *1093:X *336:6 38 
2 *336:6 *336:12 39.9814 
3 *336:12 *336:28 37.395 
4 *336:28 *883:A 26.0243 
5 *336:28 *876:A 23 
*END

*D_NET *337 0.00132348
*CONN
*I *873:A I *D sky130_fd_sc_hd__nand2_1
*I *874:A I *D sky130_fd_sc_hd__or2_1
*I *1094:X O *D sky130_fd_sc_hd__clkbuf_1
*CAP
1 *873:A 0
2 *874:A 3.75247e-05
3 *1094:X 0.000331672
4 *337:21 6.89247e-05
5 *337:8 0.000438121
6 *873:B *337:21 0.000169674
7 *890:A *337:8 0.000141954
8 *140:23 *337:21 7.03663e-05
9 *154:8 *874:A 1.94693e-05
10 *154:8 *337:8 4.57742e-05
*RES
1 *1094:X *337:8 28.8829 
2 *337:8 *874:A 23.6214 
3 *337:8 *337:21 32.2579 
4 *337:21 *873:A 23 
*END

*D_NET *338 0.00273709
*CONN
*I *844:A I *D sky130_fd_sc_hd__xnor2_1
*I *836:A1 I *D sky130_fd_sc_hd__a21bo_1
*I *1095:X O *D sky130_fd_sc_hd__buf_1
*CAP
1 *844:A 0
2 *836:A1 0.000251702
3 *1095:X 0.000328902
4 *338:14 0.000372758
5 *338:10 0.000449958
6 *338:10 *340:10 3.83778e-05
7 *338:10 *364:10 1.01436e-05
8 *338:14 *340:10 2.81066e-05
9 *836:A2 *836:A1 6.51763e-05
10 *836:B1_N *836:A1 5.50106e-05
11 *844:B *836:A1 0.000279987
12 *3:11 *338:10 4.61549e-05
13 *103:10 *338:14 6.17437e-06
14 *277:8 *338:10 0.000166522
15 *277:12 *836:A1 0.000184527
16 *277:12 *338:14 0.000166987
17 *277:26 *836:A1 0.000124513
18 *292:10 *338:10 0.00016209
*RES
1 *1095:X *338:10 43.7379 
2 *338:10 *338:14 17.5271 
3 *338:14 *836:A1 30.4779 
4 *338:14 *844:A 23 
*END

*D_NET *339 0.000421465
*CONN
*I *1099:A I *D sky130_fd_sc_hd__buf_2
*I *1033:Y O *D sky130_fd_sc_hd__o21ai_1
*CAP
1 *1099:A 1.49804e-05
2 *1033:Y 0.000105469
3 *339:8 0.000120449
4 *1001:B *1099:A 5.50106e-05
5 *31:17 *339:8 2.96909e-05
6 *291:20 *1099:A 5.50106e-05
7 *293:12 *339:8 4.08537e-05
8 *328:14 *339:8 0
*RES
1 *1033:Y *339:8 40.2579 
2 *339:8 *1099:A 38.6214 
*END

*D_NET *340 0.000788796
*CONN
*I *1100:A I *D sky130_fd_sc_hd__buf_2
*I *844:Y O *D sky130_fd_sc_hd__xnor2_1
*CAP
1 *1100:A 0
2 *844:Y 0.000282928
3 *340:10 0.000282928
4 *340:10 *1122:A 1.94812e-05
5 sum[0] *340:10 2.6255e-05
6 *28:13 *340:10 0
7 *103:10 *340:10 2.03764e-06
8 *292:10 *340:10 0.000108681
9 *338:10 *340:10 3.83778e-05
10 *338:14 *340:10 2.81066e-05
*RES
1 *844:Y *340:10 42.3086 
2 *340:10 *1100:A 38 
*END

*D_NET *341 0.000419414
*CONN
*I *1101:A I *D sky130_fd_sc_hd__buf_2
*I *890:Y O *D sky130_fd_sc_hd__xnor2_1
*CAP
1 *1101:A 6.80678e-05
2 *890:Y 0.000141639
3 *341:8 0.000209707
4 sum[10] *341:8 0
5 *302:10 *341:8 0
*RES
1 *890:Y *341:8 40.61 
2 *341:8 *1101:A 39.0979 
*END

*D_NET *342 0.000806917
*CONN
*I *1102:A I *D sky130_fd_sc_hd__buf_2
*I *889:Y O *D sky130_fd_sc_hd__xnor2_1
*CAP
1 *1102:A 0
2 *889:Y 0.000291272
3 *342:10 0.000291272
4 *869:A_N *342:10 9.84794e-05
5 *869:B *342:10 6.91871e-05
6 *136:6 *342:10 5.67058e-05
*RES
1 *889:Y *342:10 28.4271 
2 *342:10 *1102:A 23 
*END

*D_NET *343 0.000519771
*CONN
*I *894:B I *D sky130_fd_sc_hd__nor2_1
*I *895:B I *D sky130_fd_sc_hd__nand2_1
*I *1096:X O *D sky130_fd_sc_hd__clkbuf_1
*CAP
1 *894:B 0
2 *895:B 1.80505e-05
3 *1096:X 0.000160066
4 *343:12 1.80505e-05
5 *343:10 0.000160066
6 *895:B *365:22 2.93747e-05
7 *343:10 *349:10 0
8 *895:A *895:B 5.50049e-05
9 *309:10 *343:10 7.91596e-05
*RES
1 *1096:X *343:10 40.8793 
2 *343:10 *343:12 15 
3 *343:12 *895:B 23.6214 
4 *343:12 *894:B 23 
*END

*D_NET *344 0.00156048
*CONN
*I *1103:A I *D sky130_fd_sc_hd__buf_2
*I *919:Y O *D sky130_fd_sc_hd__xnor2_1
*CAP
1 *1103:A 0.000629554
2 *919:Y 7.29088e-05
3 *344:8 0.000702462
4 *167:10 *344:8 0.00014411
5 *173:8 *344:8 0
6 *336:28 *344:8 1.14452e-05
*RES
1 *919:Y *344:8 39.9057 
2 *344:8 *1103:A 49.1029 
*END

*D_NET *345 0.000825204
*CONN
*I *1104:A I *D sky130_fd_sc_hd__buf_2
*I *918:Y O *D sky130_fd_sc_hd__nor2_1
*CAP
1 *1104:A 0
2 *918:Y 0.000176427
3 *345:8 0.000176427
4 *904:B *345:8 4.37033e-05
5 *165:14 *345:8 0.000269775
6 *167:8 *345:8 4.27353e-05
7 *174:8 *345:8 1.76557e-05
8 *174:21 *345:8 9.84794e-05
*RES
1 *918:Y *345:8 27.93 
2 *345:8 *1104:A 23 
*END

*D_NET *346 0.000446464
*CONN
*I *1105:A I *D sky130_fd_sc_hd__buf_2
*I *916:X O *D sky130_fd_sc_hd__xor2_1
*CAP
1 *1105:A 0
2 *916:X 0.000170752
3 *346:10 0.000170752
4 *346:10 *365:8 3.70094e-05
5 *1062:A *346:10 9.33529e-06
6 *65:13 *346:10 0
7 *301:18 *346:10 0
8 *310:8 *346:10 5.86165e-05
*RES
1 *916:X *346:10 41.5836 
2 *346:10 *1105:A 38 
*END

*D_NET *347 0.00096157
*CONN
*I *1106:A I *D sky130_fd_sc_hd__buf_2
*I *914:Y O *D sky130_fd_sc_hd__xnor2_1
*CAP
1 *1106:A 0
2 *914:Y 0.000330923
3 *347:10 0.000330923
4 *347:10 *365:8 0
5 *347:10 *365:22 2.9853e-05
6 *898:B *347:10 0.000223704
7 *1065:A *347:10 0
8 *1098:A *347:10 0
9 *65:13 *347:10 0
10 *301:10 *347:10 1.65135e-05
11 *301:18 *347:10 2.96545e-05
12 *332:10 *347:10 0
*RES
1 *914:Y *347:10 44.09 
2 *347:10 *1106:A 38 
*END

*D_NET *348 0.00199163
*CONN
*I *1107:A I *D sky130_fd_sc_hd__buf_2
*I *945:X O *D sky130_fd_sc_hd__xor2_1
*CAP
1 *1107:A 0
2 *945:X 0.000105388
3 *348:12 0.00068677
4 *348:8 0.000792158
5 *348:12 *350:10 0
6 *348:12 *372:14 0
7 *187:42 *348:12 0
8 *189:10 *348:12 0
9 *189:19 *348:8 5.47808e-05
10 *200:10 *348:12 0
11 *212:10 *348:12 0
12 *213:29 *348:12 0.000352538
*RES
1 *945:X *348:8 39.5743 
2 *348:8 *348:12 28.5264 
3 *348:12 *1107:A 23 
*END

*D_NET *349 0.00127215
*CONN
*I *1108:A I *D sky130_fd_sc_hd__buf_2
*I *944:Y O *D sky130_fd_sc_hd__nor2_1
*CAP
1 *1108:A 0
2 *944:Y 0.000636074
3 *349:10 0.000636074
4 *932:C1 *349:10 0
5 *1096:A *349:10 0
6 *158:8 *349:10 0
7 *185:8 *349:10 0
8 *312:8 *349:10 0
9 *343:10 *349:10 0
*RES
1 *944:Y *349:10 48.3364 
2 *349:10 *1108:A 38 
*END

*D_NET *350 0.00104056
*CONN
*I *1109:A I *D sky130_fd_sc_hd__buf_2
*I *942:Y O *D sky130_fd_sc_hd__xnor2_1
*CAP
1 *1109:A 0
2 *942:Y 0.00040612
3 *350:10 0.00040612
4 *938:B1 *350:10 2.45549e-06
5 *1069:A *350:10 0
6 *197:6 *350:10 0.000225863
7 *312:8 *350:10 0
8 *348:12 *350:10 0
*RES
1 *942:Y *350:10 45.9957 
2 *350:10 *1109:A 38 
*END

*D_NET *351 0.00263305
*CONN
*I *1110:A I *D sky130_fd_sc_hd__buf_2
*I *940:Y O *D sky130_fd_sc_hd__xnor2_1
*CAP
1 *1110:A 0
2 *940:Y 9.81247e-05
3 *351:14 0.000236482
4 *351:8 0.000334607
5 *351:8 *355:10 0.000136609
6 *351:14 *1114:A 0.000272383
7 *1074:A *351:14 5.50106e-05
8 *18:13 *351:14 9.41704e-05
9 *278:6 *351:14 0.0010576
10 *279:8 *351:14 0.000348066
*RES
1 *940:Y *351:8 39.9057 
2 *351:8 *351:14 27.0764 
3 *351:14 *1110:A 23 
*END

*D_NET *352 0.0012649
*CONN
*I *1111:A I *D sky130_fd_sc_hd__buf_2
*I *843:X O *D sky130_fd_sc_hd__xor2_1
*CAP
1 *1111:A 0
2 *843:X 0.000510086
3 *352:10 0.000510086
4 *352:10 *373:10 0
5 *835:A *352:10 0
6 *836:A2 *352:10 1.32314e-05
7 *838:A *352:10 0.000143655
8 *111:16 *352:10 8.7843e-05
*RES
1 *843:X *352:10 46.12 
2 *352:10 *1111:A 38 
*END

*D_NET *353 0.00206091
*CONN
*I *1112:A I *D sky130_fd_sc_hd__buf_2
*I *972:X O *D sky130_fd_sc_hd__and2_1
*CAP
1 *1112:A 0.000555287
2 *972:X 0.000161295
3 *353:8 0.000716582
4 *1112:A *354:18 0
5 *920:A *1112:A 0
6 *922:A_N *1112:A 6.16439e-05
7 *941:B *1112:A 0
8 *960:A1 *1112:A 0.000139657
9 *960:A2 *1112:A 0
10 *1070:A *1112:A 0
11 *180:25 *1112:A 0.000168754
12 *278:12 *1112:A 0.000194327
13 *279:16 *1112:A 0
14 *314:10 *1112:A 0
15 *314:18 *1112:A 6.33614e-05
*RES
1 *972:X *353:8 40.0507 
2 *353:8 *1112:A 48.7093 
*END

*D_NET *354 0.00487696
*CONN
*I *928:B I *D sky130_fd_sc_hd__nand2_1
*I *929:B I *D sky130_fd_sc_hd__or2_1
*I *1097:X O *D sky130_fd_sc_hd__buf_1
*CAP
1 *928:B 0
2 *929:B 7.55653e-05
3 *1097:X 0.00108016
4 *354:18 0.000551774
5 *354:10 0.00155637
6 *923:B *354:10 9.54409e-05
7 *928:A *929:B 5.67058e-05
8 *951:B *354:10 0
9 *960:A2 *354:18 0
10 *1112:A *354:18 0
11 *180:25 *354:18 0
12 *181:12 *354:10 0.000310641
13 *187:10 *354:18 7.03869e-05
14 *187:17 *929:B 9.84851e-05
15 *198:8 *354:10 0.000118415
16 *206:10 *354:10 0.000361236
17 *219:8 *354:10 1.73399e-05
18 *311:8 *354:18 0
19 *313:14 *354:10 5.50049e-05
20 *314:18 *354:10 0.000354122
21 *314:18 *354:18 4.23714e-05
22 *317:14 *354:10 3.29446e-05
*RES
1 *1097:X *354:10 42.9479 
2 *354:10 *354:18 38.5136 
3 *354:18 *929:B 25.0714 
4 *354:18 *928:B 23 
*END

*D_NET *355 0.0013113
*CONN
*I *1113:A I *D sky130_fd_sc_hd__buf_2
*I *970:Y O *D sky130_fd_sc_hd__nor2_1
*CAP
1 *1113:A 0
2 *970:Y 0.000371862
3 *355:10 0.000371862
4 *355:10 *358:18 0.000373672
5 *218:22 *355:10 5.72975e-05
6 *351:8 *355:10 0.000136609
*RES
1 *970:Y *355:10 45.1257 
2 *355:10 *1113:A 38 
*END

*D_NET *356 0.00142351
*CONN
*I *1114:A I *D sky130_fd_sc_hd__buf_2
*I *968:Y O *D sky130_fd_sc_hd__xnor2_1
*CAP
1 *1114:A 3.67217e-05
2 *968:Y 0.000295863
3 *356:10 0.000332585
4 *1039:A *356:10 4.6318e-06
5 *1097:A *356:10 0.000152572
6 *47:13 *356:10 4.05745e-05
7 *219:8 *356:10 1.40958e-05
8 *279:8 *1114:A 0.000274078
9 *282:10 *356:10 0
10 *351:14 *1114:A 0.000272383
*RES
1 *968:Y *356:10 43.1371 
2 *356:10 *1114:A 41.0036 
*END

*D_NET *357 0.000676813
*CONN
*I *1115:A I *D sky130_fd_sc_hd__buf_2
*I *966:Y O *D sky130_fd_sc_hd__xnor2_1
*CAP
1 *1115:A 0
2 *966:Y 0.00031094
3 *357:10 0.00031094
4 sum[23] *357:10 3.23515e-05
5 *985:A_N *357:10 0
6 *284:24 *357:10 1.83667e-05
7 *319:10 *357:10 4.21594e-06
*RES
1 *966:Y *357:10 42.3086 
2 *357:10 *1115:A 38 
*END

*D_NET *358 0.00768243
*CONN
*I *1116:A I *D sky130_fd_sc_hd__buf_2
*I *999:X O *D sky130_fd_sc_hd__and2_1
*CAP
1 *1116:A 0
2 *999:X 0.000113345
3 *358:24 0.0016946
4 *358:18 0.00275694
5 *358:14 0.00142403
6 *358:8 0.000475038
7 sum[21] *358:18 8.31289e-05
8 sum[25] *358:24 0
9 *963:A2 *358:18 6.25829e-05
10 *1036:A *358:24 2.79355e-05
11 *12:17 *358:24 0
12 *210:18 *358:18 0
13 *214:18 *358:18 5.56203e-05
14 *216:26 *358:18 2.36844e-05
15 *217:8 *358:18 6.47651e-05
16 *217:16 *358:18 0.000157299
17 *223:10 *358:18 0
18 *233:10 *358:18 8.29264e-05
19 *233:18 *358:8 3.76854e-05
20 *233:18 *358:14 3.14888e-05
21 *237:10 *358:8 0.000217678
22 *279:16 *358:18 0
23 *355:10 *358:18 0.000373672
*RES
1 *999:X *358:8 40.9621 
2 *358:8 *358:14 34.4329 
3 *358:14 *358:18 35.9214 
4 *358:18 *358:24 36.1079 
5 *358:24 *1116:A 38 
*END

*D_NET *359 0.00448911
*CONN
*I *1117:A I *D sky130_fd_sc_hd__buf_2
*I *997:X O *D sky130_fd_sc_hd__and2_1
*CAP
1 *1117:A 0
2 *997:X 2.95011e-05
3 *359:16 0.00140082
4 *359:8 0.00143032
5 *984:B *359:16 0
6 *1036:A *359:16 2.87553e-05
7 *1076:A *359:16 0
8 *1097:A *359:16 0.000138727
9 *12:17 *359:16 4.42658e-05
10 *202:16 *359:16 0.000166522
11 *206:10 *359:16 0
12 *218:22 *359:16 0
13 *229:10 *359:16 0
14 *230:10 *359:16 0
15 *234:10 *359:16 0
16 *240:8 *359:8 5.50106e-05
17 *245:10 *359:16 2.76611e-06
18 *278:6 *359:16 0.000225399
19 *279:8 *359:16 2.25419e-05
20 *284:16 *359:16 0.000944474
*RES
1 *997:X *359:8 38.6214 
2 *359:8 *359:16 43.2129 
3 *359:16 *1117:A 23 
*END

*D_NET *360 0.00226703
*CONN
*I *1118:A I *D sky130_fd_sc_hd__buf_2
*I *995:Y O *D sky130_fd_sc_hd__xnor2_1
*CAP
1 *1118:A 0.000357666
2 *995:Y 0.0004412
3 *360:12 0.000798866
4 *973:B *1118:A 7.73389e-05
5 *992:B *360:12 5.90675e-06
6 *995:B *360:12 5.3304e-05
7 *224:10 *1118:A 5.47808e-05
8 *224:10 *360:12 0.000190102
9 *225:8 *360:12 0
10 *243:12 *360:12 3.46158e-05
11 *244:10 *360:12 0.00019654
12 *287:12 *360:12 0
13 *324:29 *1118:A 5.67058e-05
*RES
1 *995:Y *360:12 47.135 
2 *360:12 *1118:A 44.8357 
*END

*D_NET *361 0.00117893
*CONN
*I *1119:A I *D sky130_fd_sc_hd__buf_2
*I *994:X O *D sky130_fd_sc_hd__xor2_1
*CAP
1 *1119:A 0
2 *994:X 0.000563656
3 *361:10 0.000563656
4 sum[27] *361:10 9.86551e-06
5 *226:8 *361:10 4.08641e-05
6 *286:10 *361:10 8.91468e-07
7 *287:12 *361:10 0
*RES
1 *994:X *361:10 45.6436 
2 *361:10 *1119:A 38 
*END

*D_NET *362 0.00205304
*CONN
*I *1120:A I *D sky130_fd_sc_hd__buf_2
*I *1029:Y O *D sky130_fd_sc_hd__nor2_1
*CAP
1 *1120:A 0
2 *1029:Y 5.72975e-05
3 *362:12 0.000745005
4 *362:8 0.000802302
5 *362:12 *366:10 0
6 *1004:B1 *362:12 0
7 *58:13 *362:12 6.07611e-06
8 *248:10 *362:12 0
9 *251:10 *362:12 0.000351608
10 *252:36 *362:12 0
11 *256:17 *362:12 0
12 *265:14 *362:8 3.7122e-06
13 *265:22 *362:12 8.41115e-05
14 *334:6 *362:8 2.92911e-06
*RES
1 *1029:Y *362:8 38.6214 
2 *362:8 *362:12 28.5264 
3 *362:12 *1120:A 23 
*END

*D_NET *363 0.000791513
*CONN
*I *1121:A I *D sky130_fd_sc_hd__buf_2
*I *1027:Y O *D sky130_fd_sc_hd__nand2_1
*CAP
1 *1121:A 4.24511e-05
2 *1027:Y 0.000283388
3 *363:10 0.000325839
4 *363:10 *371:10 0
5 *1027:A *363:10 7.53384e-06
6 *250:62 *363:10 0.000114645
7 *271:16 *363:10 1.76557e-05
8 *290:8 *363:10 0
9 *291:43 *363:10 0
*RES
1 *1027:Y *363:10 43.6964 
2 *363:10 *1121:A 38.6214 
*END

*D_NET *364 0.00198351
*CONN
*I *1122:A I *D sky130_fd_sc_hd__buf_2
*I *842:Y O *D sky130_fd_sc_hd__xnor2_1
*CAP
1 *1122:A 2.83571e-05
2 *842:Y 0.000519893
3 *364:10 0.00054825
4 *826:B *364:10 9.5877e-05
5 *842:A *364:10 0.00010018
6 *1059:A *364:10 0.00017884
7 *1087:A *364:10 0
8 *28:13 *364:10 4.98718e-06
9 *101:10 *364:10 4.6318e-06
10 *103:10 *1122:A 2.64616e-05
11 *103:10 *364:10 0.000318429
12 *114:18 *364:10 0.000103667
13 *276:10 *364:10 7.44161e-06
14 *277:8 *364:10 1.12487e-05
15 *292:10 *364:10 5.62433e-06
16 *330:8 *364:10 0
17 *338:10 *364:10 1.01436e-05
18 *340:10 *1122:A 1.94812e-05
*RES
1 *842:Y *364:10 48.9371 
2 *364:10 *1122:A 38.6214 
*END

*D_NET *365 0.00371115
*CONN
*I *925:B I *D sky130_fd_sc_hd__nand2_1
*I *926:B I *D sky130_fd_sc_hd__or2_1
*I *938:A2 I *D sky130_fd_sc_hd__a21o_1
*I *1098:X O *D sky130_fd_sc_hd__buf_1
*CAP
1 *925:B 1.51656e-05
2 *926:B 0
3 *938:A2 1.54697e-05
4 *1098:X 0.000146216
5 *365:26 0.000177239
6 *365:22 0.0012806
7 *365:8 0.00124988
8 sum[14] *365:8 2.47015e-05
9 *895:A *365:22 6.51763e-05
10 *895:B *365:22 2.93747e-05
11 *898:A *365:22 5.50106e-05
12 *898:B *365:22 0.000110354
13 *914:B *365:22 3.22879e-05
14 *938:A1 *925:B 0
15 *938:A1 *938:A2 5.67058e-05
16 *938:A1 *365:26 4.7881e-05
17 *938:B1 *365:26 0
18 *6:15 *365:22 5.41288e-05
19 *65:13 *365:8 0
20 *159:19 *365:22 6.22151e-05
21 *160:10 *365:22 5.67058e-05
22 *184:14 *365:26 2.32101e-05
23 *301:18 *365:8 0
24 *312:12 *365:26 0.000141954
25 *346:10 *365:8 3.70094e-05
26 *347:10 *365:8 0
27 *347:10 *365:22 2.9853e-05
*RES
1 *1098:X *365:8 40.61 
2 *365:8 *365:22 35.1343 
3 *365:22 *365:26 3.97714 
4 *365:26 *938:A2 23.6214 
5 *365:26 *926:B 23 
6 *365:22 *925:B 23.4971 
*END

*D_NET *366 0.000649312
*CONN
*I *1123:A I *D sky130_fd_sc_hd__buf_2
*I *1024:Y O *D sky130_fd_sc_hd__xnor2_1
*CAP
1 *1123:A 0
2 *1024:Y 0.000271497
3 *366:10 0.000271497
4 *55:11 *366:10 0
5 *269:6 *366:10 0.000106318
6 *291:28 *366:10 0
7 *362:12 *366:10 0
*RES
1 *1024:Y *366:10 42.3086 
2 *366:10 *1123:A 38 
*END

*D_NET *367 0.00199931
*CONN
*I *1124:A I *D sky130_fd_sc_hd__buf_2
*I *1022:X O *D sky130_fd_sc_hd__xor2_1
*CAP
1 *1124:A 0
2 *1022:X 0
3 *367:12 0.000544795
4 *367:6 0.000544795
5 *1004:B1 *367:12 0
6 *53:11 *367:12 0.0004246
7 *247:14 *367:12 0
8 *248:10 *367:12 0
9 *249:14 *367:12 5.93278e-05
10 *265:22 *367:12 0
11 *291:20 *367:12 0.000103647
12 *323:8 *367:12 0.000136712
13 *328:10 *367:12 0.000185434
*RES
1 *1022:X *367:6 38 
2 *367:6 *367:12 29.1686 
3 *367:12 *1124:A 23 
*END

*D_NET *368 0.00128353
*CONN
*I *1125:A I *D sky130_fd_sc_hd__buf_2
*I *841:Y O *D sky130_fd_sc_hd__xnor2_1
*CAP
1 *1125:A 0
2 *841:Y 0.000338744
3 *368:10 0.000338744
4 *368:10 *369:8 1.73399e-05
5 *1088:A *368:10 0
6 *101:10 *368:10 0.000348456
7 *103:10 *368:10 9.53602e-05
8 *115:10 *368:10 0.000144884
9 *302:10 *368:10 0
*RES
1 *841:Y *368:10 46.1614 
2 *368:10 *1125:A 38 
*END

*D_NET *369 0.00216963
*CONN
*I *1126:A I *D sky130_fd_sc_hd__buf_2
*I *866:Y O *D sky130_fd_sc_hd__xnor2_1
*CAP
1 *1126:A 0
2 *866:Y 0.000759172
3 *369:8 0.000759172
4 *122:14 *369:8 0.000528014
5 *124:6 *369:8 0.000105934
6 *368:10 *369:8 1.73399e-05
*RES
1 *866:Y *369:8 37.8107 
2 *369:8 *1126:A 23 
*END

*D_NET *370 0.000974561
*CONN
*I *1127:A I *D sky130_fd_sc_hd__buf_2
*I *865:Y O *D sky130_fd_sc_hd__xnor2_1
*CAP
1 *1127:A 0
2 *865:Y 0.000458928
3 *370:10 0.000458928
4 *837:A *370:10 0
5 *865:A *370:10 5.67058e-05
6 *46:9 *370:10 0
7 *120:8 *370:10 0
8 *297:10 *370:10 0
9 *315:10 *370:10 0
*RES
1 *865:Y *370:10 46.5136 
2 *370:10 *1127:A 38 
*END

*D_NET *371 0.000984619
*CONN
*I *1128:A I *D sky130_fd_sc_hd__buf_2
*I *864:X O *D sky130_fd_sc_hd__and2b_1
*CAP
1 *1128:A 0
2 *864:X 0.000463957
3 *371:10 0.000463957
4 *864:B *371:10 5.67058e-05
5 *62:9 *371:10 0
6 *118:8 *371:10 0
7 *250:62 *371:10 0
8 *333:10 *371:10 0
9 *363:10 *371:10 0
*RES
1 *864:X *371:10 46.5136 
2 *371:10 *1128:A 38 
*END

*D_NET *372 0.00559243
*CONN
*I *1129:A I *D sky130_fd_sc_hd__buf_2
*I *862:Y O *D sky130_fd_sc_hd__xnor2_1
*CAP
1 *1129:A 0
2 *862:Y 0.000291882
3 *372:14 0.00228906
4 *372:8 0.00258095
5 *957:B *372:14 5.93381e-05
6 *116:21 *372:8 7.53384e-06
7 *182:25 *372:14 0
8 *187:25 *372:14 6.70914e-05
9 *189:10 *372:14 0.000169674
10 *199:14 *372:14 4.52726e-05
11 *212:10 *372:14 8.16253e-05
12 *216:8 *372:14 0
13 *311:8 *372:14 0
14 *348:12 *372:14 0
*RES
1 *862:Y *372:8 42.9093 
2 *372:8 *372:14 42.8164 
3 *372:14 *1129:A 38 
*END

*D_NET *373 0.00229518
*CONN
*I *1130:A I *D sky130_fd_sc_hd__buf_2
*I *893:Y O *D sky130_fd_sc_hd__nor2_1
*CAP
1 *1130:A 0
2 *893:Y 0
3 *373:10 0.00110678
4 *373:6 0.00110678
5 *14:9 *373:10 0
6 *112:10 *373:10 0
7 *113:19 *373:10 0
8 *122:24 *373:10 0
9 *124:14 *373:10 0
10 *125:10 *373:10 0
11 *126:8 *373:10 0
12 *127:8 *373:10 0
13 *128:10 *373:10 8.16253e-05
14 *147:21 *373:10 0
15 *352:10 *373:10 0
*RES
1 *893:Y *373:6 38 
2 *373:6 *373:10 34.1607 
3 *373:10 *1130:A 23 
*END

*D_NET *374 0.00602745
*CONN
*I *1131:A I *D sky130_fd_sc_hd__buf_2
*I *891:Y O *D sky130_fd_sc_hd__xnor2_1
*CAP
1 *1131:A 0
2 *891:Y 0.000471427
3 *374:14 0.000893173
4 *374:8 0.0013646
5 *827:A_N *374:14 0.000191148
6 *887:A2 *374:8 4.95081e-05
7 *28:13 *374:14 0.000177522
8 *57:11 *374:14 0.000211921
9 *100:8 *374:14 2.93747e-05
10 *105:10 *374:14 0
11 *105:12 *374:14 0
12 *122:8 *374:14 0.000138718
13 *154:8 *374:8 0.000665349
14 *276:10 *374:14 0.000161121
15 *292:10 *374:14 2.93747e-05
16 *302:10 *374:14 0.00148371
17 *331:12 *374:14 0.000160507
*RES
1 *891:Y *374:8 46.2443 
2 *374:8 *374:14 40.4164 
3 *374:14 *1131:A 23 
*END
