*SPEF "ieee 1481-1999"
*DESIGN "acc32"
*DATE "16:13:34 Saturday September 19, 2026"
*VENDOR "The OpenROAD Project"
*PROGRAM "OpenROAD"
*VERSION "edf00dff99f6c40d67a30c0e22a8191c5d2ed9d6"
*DESIGN_FLOW "NAME_SCOPE LOCAL" "PIN_CAP NONE"
*DIVIDER /
*DELIMITER :
*BUS_DELIMITER []
*T_UNIT 1 NS
*C_UNIT 1 PF
*R_UNIT 1 OHM
*L_UNIT 1 HENRY

*NAME_MAP
*3 acc[0]
*4 acc[10]
*5 acc[11]
*6 acc[12]
*7 acc[13]
*8 acc[14]
*9 acc[15]
*10 acc[16]
*11 acc[17]
*12 acc[18]
*13 acc[19]
*14 acc[1]
*15 acc[20]
*16 acc[21]
*17 acc[22]
*18 acc[23]
*19 acc[24]
*20 acc[25]
*21 acc[26]
*22 acc[27]
*23 acc[28]
*24 acc[29]
*25 acc[2]
*26 acc[30]
*27 acc[31]
*28 acc[3]
*29 acc[4]
*30 acc[5]
*31 acc[6]
*32 acc[7]
*33 acc[8]
*34 acc[9]
*35 clk
*36 data_in[0]
*37 data_in[10]
*38 data_in[11]
*39 data_in[12]
*40 data_in[13]
*41 data_in[14]
*42 data_in[15]
*43 data_in[16]
*44 data_in[17]
*45 data_in[18]
*46 data_in[19]
*47 data_in[1]
*48 data_in[20]
*49 data_in[21]
*50 data_in[22]
*51 data_in[23]
*52 data_in[24]
*53 data_in[25]
*54 data_in[26]
*55 data_in[27]
*56 data_in[28]
*57 data_in[29]
*58 data_in[2]
*59 data_in[30]
*60 data_in[31]
*61 data_in[3]
*62 data_in[4]
*63 data_in[5]
*64 data_in[6]
*65 data_in[7]
*66 data_in[8]
*67 data_in[9]
*68 rst
*69 _000_
*70 _001_
*71 _002_
*72 _003_
*73 _004_
*74 _005_
*75 _006_
*76 _007_
*77 _008_
*78 _009_
*79 _010_
*80 _011_
*81 _012_
*82 _013_
*83 _014_
*84 _015_
*85 _016_
*86 _017_
*87 _018_
*88 _019_
*89 _020_
*90 _021_
*91 _022_
*92 _023_
*93 _024_
*94 _025_
*95 _026_
*96 _027_
*97 _028_
*98 _029_
*99 _030_
*100 _031_
*101 _032_
*102 _033_
*103 _034_
*104 _035_
*105 _036_
*106 _037_
*107 _038_
*108 _039_
*109 _040_
*110 _041_
*111 _042_
*112 _043_
*113 _044_
*114 _045_
*115 _046_
*116 _047_
*117 _048_
*118 _049_
*119 _050_
*120 _051_
*121 _052_
*122 _053_
*123 _054_
*124 _055_
*125 _056_
*126 _057_
*127 _058_
*128 _059_
*129 _060_
*130 _061_
*131 _062_
*132 _063_
*133 _064_
*134 _065_
*135 _066_
*136 _067_
*137 _068_
*138 _069_
*139 _070_
*140 _071_
*141 _072_
*142 _073_
*143 _074_
*144 _075_
*145 _076_
*146 _077_
*147 _078_
*148 _079_
*149 _080_
*150 _081_
*151 _082_
*152 _083_
*153 _084_
*154 _085_
*155 _086_
*156 _087_
*157 _088_
*158 _089_
*159 _090_
*160 _091_
*161 _092_
*162 _093_
*163 _094_
*164 _095_
*165 _096_
*166 _097_
*167 _098_
*168 _099_
*169 _100_
*170 _101_
*171 _102_
*172 _103_
*173 _104_
*174 _105_
*175 _106_
*176 _107_
*177 _108_
*178 _109_
*179 _110_
*180 _111_
*181 _112_
*182 _113_
*183 _114_
*184 _115_
*185 _116_
*186 _117_
*187 _118_
*188 _119_
*189 _120_
*190 _121_
*191 _122_
*192 _123_
*193 _124_
*194 _125_
*195 _126_
*196 _127_
*197 _128_
*198 _129_
*199 _130_
*200 _131_
*201 _132_
*202 _133_
*203 _134_
*204 _135_
*205 _136_
*206 _137_
*207 _138_
*208 _139_
*209 _140_
*210 _141_
*211 _142_
*212 _143_
*213 _144_
*214 _145_
*215 _146_
*216 _147_
*217 _148_
*218 _149_
*219 _150_
*220 _151_
*221 _152_
*222 _153_
*223 _154_
*224 _155_
*225 _156_
*226 _157_
*227 _158_
*228 _159_
*229 _160_
*230 _161_
*231 _162_
*232 _163_
*233 _164_
*234 _165_
*235 _166_
*236 _167_
*237 _168_
*238 _169_
*239 _170_
*240 _171_
*241 _172_
*242 _173_
*243 _174_
*244 _175_
*245 _176_
*246 _177_
*247 _178_
*248 _179_
*249 _180_
*250 _181_
*251 _182_
*252 _183_
*253 _184_
*254 _185_
*255 _186_
*256 _187_
*257 _188_
*258 _189_
*259 _190_
*260 _191_
*261 _192_
*262 _193_
*263 _194_
*264 _195_
*265 _196_
*266 _197_
*267 _198_
*268 _199_
*269 adder\.cla_blocks\[0\]\.block\.p\[0\]
*270 adder\.cla_blocks\[0\]\.block\.sum\[1\]
*271 adder\.cla_blocks\[0\]\.block\.sum\[2\]
*272 adder\.cla_blocks\[0\]\.block\.sum\[3\]
*273 adder\.cla_blocks\[1\]\.block\.sum\[0\]
*274 adder\.cla_blocks\[1\]\.block\.sum\[1\]
*275 adder\.cla_blocks\[1\]\.block\.sum\[2\]
*276 adder\.cla_blocks\[1\]\.block\.sum\[3\]
*277 adder\.cla_blocks\[2\]\.block\.sum\[0\]
*278 adder\.cla_blocks\[2\]\.block\.sum\[1\]
*279 adder\.cla_blocks\[2\]\.block\.sum\[2\]
*280 adder\.cla_blocks\[2\]\.block\.sum\[3\]
*281 adder\.cla_blocks\[3\]\.block\.sum\[0\]
*282 adder\.cla_blocks\[3\]\.block\.sum\[1\]
*283 adder\.cla_blocks\[3\]\.block\.sum\[2\]
*284 adder\.cla_blocks\[3\]\.block\.sum\[3\]
*285 adder\.cla_blocks\[4\]\.block\.sum\[0\]
*286 adder\.cla_blocks\[4\]\.block\.sum\[1\]
*287 adder\.cla_blocks\[4\]\.block\.sum\[2\]
*288 adder\.cla_blocks\[4\]\.block\.sum\[3\]
*289 adder\.cla_blocks\[5\]\.block\.sum\[0\]
*290 adder\.cla_blocks\[5\]\.block\.sum\[1\]
*291 adder\.cla_blocks\[5\]\.block\.sum\[2\]
*292 adder\.cla_blocks\[5\]\.block\.sum\[3\]
*293 adder\.cla_blocks\[6\]\.block\.sum\[0\]
*294 adder\.cla_blocks\[6\]\.block\.sum\[1\]
*295 adder\.cla_blocks\[6\]\.block\.sum\[2\]
*296 adder\.cla_blocks\[6\]\.block\.sum\[3\]
*297 adder\.cla_blocks\[7\]\.block\.sum\[0\]
*298 adder\.cla_blocks\[7\]\.block\.sum\[1\]
*299 adder\.cla_blocks\[7\]\.block\.sum\[2\]
*300 adder\.cla_blocks\[7\]\.block\.sum\[3\]
*301 clknet_0_clk
*302 clknet_2_0__leaf_clk
*303 clknet_2_1__leaf_clk
*304 clknet_2_2__leaf_clk
*305 clknet_2_3__leaf_clk
*306 net1
*307 net10
*308 net11
*309 net12
*310 net13
*311 net14
*312 net15
*313 net16
*314 net17
*315 net18
*316 net19
*317 net2
*318 net20
*319 net21
*320 net22
*321 net23
*322 net24
*323 net25
*324 net26
*325 net27
*326 net28
*327 net29
*328 net3
*329 net30
*330 net31
*331 net32
*332 net33
*333 net34
*334 net35
*335 net36
*336 net37
*337 net38
*338 net39
*339 net4
*340 net40
*341 net41
*342 net42
*343 net43
*344 net44
*345 net45
*346 net46
*347 net47
*348 net48
*349 net49
*350 net5
*351 net50
*352 net51
*353 net52
*354 net53
*355 net54
*356 net55
*357 net56
*358 net57
*359 net58
*360 net59
*361 net6
*362 net60
*363 net61
*364 net62
*365 net63
*366 net64
*367 net65
*368 net66
*369 net67
*370 net68
*371 net69
*372 net7
*373 net8
*374 net9
*375 FILLER_0_106
*376 FILLER_0_113
*377 FILLER_0_118
*378 FILLER_0_126
*379 FILLER_0_133
*380 FILLER_0_139
*381 FILLER_0_141
*382 FILLER_0_15
*383 FILLER_0_156
*384 FILLER_0_169
*385 FILLER_0_175
*386 FILLER_0_27
*387 FILLER_0_29
*388 FILLER_0_3
*389 FILLER_0_33
*390 FILLER_0_37
*391 FILLER_0_49
*392 FILLER_0_55
*393 FILLER_0_57
*394 FILLER_0_62
*395 FILLER_0_70
*396 FILLER_0_82
*397 FILLER_0_85
*398 FILLER_0_91
*399 FILLER_10_109
*400 FILLER_10_117
*401 FILLER_10_127
*402 FILLER_10_139
*403 FILLER_10_141
*404 FILLER_10_145
*405 FILLER_10_15
*406 FILLER_10_153
*407 FILLER_10_175
*408 FILLER_10_19
*409 FILLER_10_29
*410 FILLER_10_3
*411 FILLER_10_38
*412 FILLER_10_49
*413 FILLER_10_61
*414 FILLER_10_70
*415 FILLER_10_82
*416 FILLER_10_85
*417 FILLER_10_97
*418 FILLER_11_10
*419 FILLER_11_105
*420 FILLER_11_111
*421 FILLER_11_113
*422 FILLER_11_121
*423 FILLER_11_154
*424 FILLER_11_16
*425 FILLER_11_160
*426 FILLER_11_175
*427 FILLER_11_20
*428 FILLER_11_32
*429 FILLER_11_55
*430 FILLER_11_57
*431 FILLER_11_69
*432 FILLER_11_81
*433 FILLER_11_93
*434 FILLER_12_109
*435 FILLER_12_121
*436 FILLER_12_130
*437 FILLER_12_138
*438 FILLER_12_141
*439 FILLER_12_153
*440 FILLER_12_165
*441 FILLER_12_171
*442 FILLER_12_25
*443 FILLER_12_29
*444 FILLER_12_3
*445 FILLER_12_41
*446 FILLER_12_53
*447 FILLER_12_65
*448 FILLER_12_77
*449 FILLER_12_83
*450 FILLER_12_85
*451 FILLER_12_97
*452 FILLER_13_105
*453 FILLER_13_11
*454 FILLER_13_111
*455 FILLER_13_113
*456 FILLER_13_125
*457 FILLER_13_135
*458 FILLER_13_147
*459 FILLER_13_15
*460 FILLER_13_158
*461 FILLER_13_167
*462 FILLER_13_174
*463 FILLER_13_27
*464 FILLER_13_34
*465 FILLER_13_40
*466 FILLER_13_54
*467 FILLER_13_57
*468 FILLER_13_69
*469 FILLER_13_7
*470 FILLER_13_81
*471 FILLER_13_93
*472 FILLER_14_109
*473 FILLER_14_121
*474 FILLER_14_137
*475 FILLER_14_141
*476 FILLER_14_154
*477 FILLER_14_24
*478 FILLER_14_29
*479 FILLER_14_36
*480 FILLER_14_45
*481 FILLER_14_69
*482 FILLER_14_81
*483 FILLER_14_85
*484 FILLER_14_97
*485 FILLER_15_10
*486 FILLER_15_101
*487 FILLER_15_109
*488 FILLER_15_113
*489 FILLER_15_128
*490 FILLER_15_144
*491 FILLER_15_150
*492 FILLER_15_157
*493 FILLER_15_17
*494 FILLER_15_172
*495 FILLER_15_32
*496 FILLER_15_44
*497 FILLER_15_57
*498 FILLER_15_6
*499 FILLER_15_69
*500 FILLER_16_109
*501 FILLER_16_117
*502 FILLER_16_144
*503 FILLER_16_156
*504 FILLER_16_168
*505 FILLER_16_172
*506 FILLER_16_18
*507 FILLER_16_26
*508 FILLER_16_29
*509 FILLER_16_41
*510 FILLER_16_53
*511 FILLER_16_6
*512 FILLER_16_65
*513 FILLER_16_77
*514 FILLER_16_83
*515 FILLER_16_85
*516 FILLER_16_97
*517 FILLER_17_105
*518 FILLER_17_111
*519 FILLER_17_113
*520 FILLER_17_125
*521 FILLER_17_13
*522 FILLER_17_137
*523 FILLER_17_149
*524 FILLER_17_161
*525 FILLER_17_167
*526 FILLER_17_169
*527 FILLER_17_25
*528 FILLER_17_33
*529 FILLER_17_39
*530 FILLER_17_51
*531 FILLER_17_55
*532 FILLER_17_57
*533 FILLER_17_69
*534 FILLER_17_7
*535 FILLER_17_81
*536 FILLER_17_93
*537 FILLER_18_109
*538 FILLER_18_121
*539 FILLER_18_132
*540 FILLER_18_141
*541 FILLER_18_149
*542 FILLER_18_173
*543 FILLER_18_25
*544 FILLER_18_3
*545 FILLER_18_49
*546 FILLER_18_61
*547 FILLER_18_73
*548 FILLER_18_81
*549 FILLER_18_85
*550 FILLER_18_97
*551 FILLER_19_105
*552 FILLER_19_111
*553 FILLER_19_113
*554 FILLER_19_139
*555 FILLER_19_154
*556 FILLER_19_16
*557 FILLER_19_162
*558 FILLER_19_28
*559 FILLER_19_40
*560 FILLER_19_52
*561 FILLER_19_57
*562 FILLER_19_69
*563 FILLER_19_7
*564 FILLER_19_81
*565 FILLER_19_93
*566 FILLER_1_116
*567 FILLER_1_123
*568 FILLER_1_129
*569 FILLER_1_141
*570 FILLER_1_147
*571 FILLER_1_15
*572 FILLER_1_3
*573 FILLER_1_60
*574 FILLER_1_64
*575 FILLER_1_87
*576 FILLER_20_100
*577 FILLER_20_104
*578 FILLER_20_108
*579 FILLER_20_123
*580 FILLER_20_135
*581 FILLER_20_139
*582 FILLER_20_141
*583 FILLER_20_153
*584 FILLER_20_165
*585 FILLER_20_169
*586 FILLER_20_18
*587 FILLER_20_37
*588 FILLER_20_45
*589 FILLER_20_6
*590 FILLER_20_77
*591 FILLER_20_83
*592 FILLER_20_88
*593 FILLER_21_10
*594 FILLER_21_111
*595 FILLER_21_133
*596 FILLER_21_137
*597 FILLER_21_14
*598 FILLER_21_149
*599 FILLER_21_161
*600 FILLER_21_35
*601 FILLER_21_43
*602 FILLER_21_54
*603 FILLER_21_57
*604 FILLER_22_112
*605 FILLER_22_127
*606 FILLER_22_13
*607 FILLER_22_139
*608 FILLER_22_155
*609 FILLER_22_25
*610 FILLER_22_32
*611 FILLER_22_44
*612 FILLER_22_56
*613 FILLER_22_64
*614 FILLER_22_78
*615 FILLER_22_95
*616 FILLER_23_103
*617 FILLER_23_111
*618 FILLER_23_113
*619 FILLER_23_125
*620 FILLER_23_137
*621 FILLER_23_143
*622 FILLER_23_159
*623 FILLER_23_167
*624 FILLER_23_169
*625 FILLER_23_19
*626 FILLER_23_31
*627 FILLER_23_43
*628 FILLER_23_55
*629 FILLER_23_60
*630 FILLER_23_7
*631 FILLER_23_72
*632 FILLER_23_94
*633 FILLER_24_103
*634 FILLER_24_115
*635 FILLER_24_131
*636 FILLER_24_139
*637 FILLER_24_141
*638 FILLER_24_155
*639 FILLER_24_167
*640 FILLER_24_19
*641 FILLER_24_23
*642 FILLER_24_27
*643 FILLER_24_29
*644 FILLER_24_42
*645 FILLER_24_57
*646 FILLER_24_66
*647 FILLER_24_7
*648 FILLER_24_78
*649 FILLER_24_88
*650 FILLER_25_103
*651 FILLER_25_111
*652 FILLER_25_118
*653 FILLER_25_130
*654 FILLER_25_142
*655 FILLER_25_151
*656 FILLER_25_163
*657 FILLER_25_167
*658 FILLER_25_175
*659 FILLER_25_29
*660 FILLER_25_3
*661 FILLER_25_47
*662 FILLER_25_52
*663 FILLER_25_62
*664 FILLER_25_66
*665 FILLER_25_74
*666 FILLER_25_86
*667 FILLER_25_98
*668 FILLER_26_106
*669 FILLER_26_114
*670 FILLER_26_118
*671 FILLER_26_124
*672 FILLER_26_135
*673 FILLER_26_139
*674 FILLER_26_141
*675 FILLER_26_15
*676 FILLER_26_150
*677 FILLER_26_27
*678 FILLER_26_29
*679 FILLER_26_3
*680 FILLER_26_37
*681 FILLER_26_42
*682 FILLER_26_50
*683 FILLER_26_54
*684 FILLER_26_66
*685 FILLER_26_78
*686 FILLER_26_85
*687 FILLER_26_89
*688 FILLER_27_107
*689 FILLER_27_111
*690 FILLER_27_113
*691 FILLER_27_117
*692 FILLER_27_123
*693 FILLER_27_134
*694 FILLER_27_146
*695 FILLER_27_15
*696 FILLER_27_150
*697 FILLER_27_154
*698 FILLER_27_162
*699 FILLER_27_169
*700 FILLER_27_27
*701 FILLER_27_3
*702 FILLER_27_33
*703 FILLER_27_37
*704 FILLER_27_45
*705 FILLER_27_64
*706 FILLER_27_73
*707 FILLER_27_80
*708 FILLER_27_92
*709 FILLER_28_113
*710 FILLER_28_123
*711 FILLER_28_139
*712 FILLER_28_15
*713 FILLER_28_161
*714 FILLER_28_173
*715 FILLER_28_3
*716 FILLER_28_49
*717 FILLER_28_59
*718 FILLER_28_83
*719 FILLER_28_85
*720 FILLER_29_104
*721 FILLER_29_113
*722 FILLER_29_118
*723 FILLER_29_125
*724 FILLER_29_132
*725 FILLER_29_141
*726 FILLER_29_149
*727 FILLER_29_15
*728 FILLER_29_161
*729 FILLER_29_167
*730 FILLER_29_169
*731 FILLER_29_27
*732 FILLER_29_29
*733 FILLER_29_3
*734 FILLER_29_41
*735 FILLER_29_48
*736 FILLER_29_57
*737 FILLER_29_62
*738 FILLER_29_70
*739 FILLER_29_83
*740 FILLER_29_85
*741 FILLER_29_91
*742 FILLER_29_98
*743 FILLER_2_100
*744 FILLER_2_108
*745 FILLER_2_130
*746 FILLER_2_138
*747 FILLER_2_144
*748 FILLER_2_15
*749 FILLER_2_163
*750 FILLER_2_171
*751 FILLER_2_27
*752 FILLER_2_29
*753 FILLER_2_3
*754 FILLER_2_41
*755 FILLER_2_51
*756 FILLER_2_59
*757 FILLER_2_73
*758 FILLER_2_77
*759 FILLER_2_81
*760 FILLER_2_85
*761 FILLER_3_111
*762 FILLER_3_113
*763 FILLER_3_125
*764 FILLER_3_133
*765 FILLER_3_149
*766 FILLER_3_15
*767 FILLER_3_161
*768 FILLER_3_167
*769 FILLER_3_169
*770 FILLER_3_175
*771 FILLER_3_27
*772 FILLER_3_3
*773 FILLER_3_39
*774 FILLER_3_51
*775 FILLER_3_55
*776 FILLER_3_57
*777 FILLER_3_69
*778 FILLER_3_77
*779 FILLER_3_89
*780 FILLER_3_99
*781 FILLER_4_109
*782 FILLER_4_120
*783 FILLER_4_132
*784 FILLER_4_148
*785 FILLER_4_15
*786 FILLER_4_160
*787 FILLER_4_27
*788 FILLER_4_3
*789 FILLER_4_36
*790 FILLER_4_48
*791 FILLER_4_63
*792 FILLER_4_71
*793 FILLER_4_75
*794 FILLER_4_83
*795 FILLER_4_85
*796 FILLER_4_97
*797 FILLER_5_11
*798 FILLER_5_110
*799 FILLER_5_113
*800 FILLER_5_125
*801 FILLER_5_131
*802 FILLER_5_136
*803 FILLER_5_146
*804 FILLER_5_17
*805 FILLER_5_174
*806 FILLER_5_25
*807 FILLER_5_3
*808 FILLER_5_39
*809 FILLER_5_51
*810 FILLER_5_55
*811 FILLER_5_57
*812 FILLER_5_87
*813 FILLER_5_95
*814 FILLER_5_99
*815 FILLER_6_127
*816 FILLER_6_137
*817 FILLER_6_152
*818 FILLER_6_167
*819 FILLER_6_23
*820 FILLER_6_27
*821 FILLER_6_34
*822 FILLER_6_46
*823 FILLER_6_50
*824 FILLER_6_61
*825 FILLER_6_73
*826 FILLER_6_81
*827 FILLER_6_85
*828 FILLER_6_97
*829 FILLER_7_108
*830 FILLER_7_113
*831 FILLER_7_142
*832 FILLER_7_15
*833 FILLER_7_154
*834 FILLER_7_166
*835 FILLER_7_169
*836 FILLER_7_22
*837 FILLER_7_32
*838 FILLER_7_44
*839 FILLER_7_55
*840 FILLER_7_70
*841 FILLER_7_78
*842 FILLER_7_83
*843 FILLER_7_91
*844 FILLER_8_109
*845 FILLER_8_121
*846 FILLER_8_125
*847 FILLER_8_131
*848 FILLER_8_139
*849 FILLER_8_141
*850 FILLER_8_15
*851 FILLER_8_155
*852 FILLER_8_167
*853 FILLER_8_27
*854 FILLER_8_29
*855 FILLER_8_3
*856 FILLER_8_33
*857 FILLER_8_37
*858 FILLER_8_45
*859 FILLER_8_56
*860 FILLER_8_85
*861 FILLER_8_97
*862 FILLER_9_108
*863 FILLER_9_139
*864 FILLER_9_147
*865 FILLER_9_18
*866 FILLER_9_26
*867 FILLER_9_38
*868 FILLER_9_50
*869 FILLER_9_57
*870 FILLER_9_6
*871 FILLER_9_63
*872 FILLER_9_84
*873 FILLER_9_96
*874 PHY_EDGE_ROW_0_Left_30
*875 PHY_EDGE_ROW_0_Right_0
*876 PHY_EDGE_ROW_10_Left_40
*877 PHY_EDGE_ROW_10_Right_10
*878 PHY_EDGE_ROW_11_Left_41
*879 PHY_EDGE_ROW_11_Right_11
*880 PHY_EDGE_ROW_12_Left_42
*881 PHY_EDGE_ROW_12_Right_12
*882 PHY_EDGE_ROW_13_Left_43
*883 PHY_EDGE_ROW_13_Right_13
*884 PHY_EDGE_ROW_14_Left_44
*885 PHY_EDGE_ROW_14_Right_14
*886 PHY_EDGE_ROW_15_Left_45
*887 PHY_EDGE_ROW_15_Right_15
*888 PHY_EDGE_ROW_16_Left_46
*889 PHY_EDGE_ROW_16_Right_16
*890 PHY_EDGE_ROW_17_Left_47
*891 PHY_EDGE_ROW_17_Right_17
*892 PHY_EDGE_ROW_18_Left_48
*893 PHY_EDGE_ROW_18_Right_18
*894 PHY_EDGE_ROW_19_Left_49
*895 PHY_EDGE_ROW_19_Right_19
*896 PHY_EDGE_ROW_1_Left_31
*897 PHY_EDGE_ROW_1_Right_1
*898 PHY_EDGE_ROW_20_Left_50
*899 PHY_EDGE_ROW_20_Right_20
*900 PHY_EDGE_ROW_21_Left_51
*901 PHY_EDGE_ROW_21_Right_21
*902 PHY_EDGE_ROW_22_Left_52
*903 PHY_EDGE_ROW_22_Right_22
*904 PHY_EDGE_ROW_23_Left_53
*905 PHY_EDGE_ROW_23_Right_23
*906 PHY_EDGE_ROW_24_Left_54
*907 PHY_EDGE_ROW_24_Right_24
*908 PHY_EDGE_ROW_25_Left_55
*909 PHY_EDGE_ROW_25_Right_25
*910 PHY_EDGE_ROW_26_Left_56
*911 PHY_EDGE_ROW_26_Right_26
*912 PHY_EDGE_ROW_27_Left_57
*913 PHY_EDGE_ROW_27_Right_27
*914 PHY_EDGE_ROW_28_Left_58
*915 PHY_EDGE_ROW_28_Right_28
*916 PHY_EDGE_ROW_29_Left_59
*917 PHY_EDGE_ROW_29_Right_29
*918 PHY_EDGE_ROW_2_Left_32
*919 PHY_EDGE_ROW_2_Right_2
*920 PHY_EDGE_ROW_3_Left_33
*921 PHY_EDGE_ROW_3_Right_3
*922 PHY_EDGE_ROW_4_Left_34
*923 PHY_EDGE_ROW_4_Right_4
*924 PHY_EDGE_ROW_5_Left_35
*925 PHY_EDGE_ROW_5_Right_5
*926 PHY_EDGE_ROW_6_Left_36
*927 PHY_EDGE_ROW_6_Right_6
*928 PHY_EDGE_ROW_7_Left_37
*929 PHY_EDGE_ROW_7_Right_7
*930 PHY_EDGE_ROW_8_Left_38
*931 PHY_EDGE_ROW_8_Right_8
*932 PHY_EDGE_ROW_9_Left_39
*933 PHY_EDGE_ROW_9_Right_9
*934 TAP_TAPCELL_ROW_0_60
*935 TAP_TAPCELL_ROW_0_61
*936 TAP_TAPCELL_ROW_0_62
*937 TAP_TAPCELL_ROW_0_63
*938 TAP_TAPCELL_ROW_0_64
*939 TAP_TAPCELL_ROW_0_65
*940 TAP_TAPCELL_ROW_10_93
*941 TAP_TAPCELL_ROW_10_94
*942 TAP_TAPCELL_ROW_10_95
*943 TAP_TAPCELL_ROW_11_96
*944 TAP_TAPCELL_ROW_11_97
*945 TAP_TAPCELL_ROW_11_98
*946 TAP_TAPCELL_ROW_12_100
*947 TAP_TAPCELL_ROW_12_101
*948 TAP_TAPCELL_ROW_12_99
*949 TAP_TAPCELL_ROW_13_102
*950 TAP_TAPCELL_ROW_13_103
*951 TAP_TAPCELL_ROW_13_104
*952 TAP_TAPCELL_ROW_14_105
*953 TAP_TAPCELL_ROW_14_106
*954 TAP_TAPCELL_ROW_14_107
*955 TAP_TAPCELL_ROW_15_108
*956 TAP_TAPCELL_ROW_15_109
*957 TAP_TAPCELL_ROW_15_110
*958 TAP_TAPCELL_ROW_16_111
*959 TAP_TAPCELL_ROW_16_112
*960 TAP_TAPCELL_ROW_16_113
*961 TAP_TAPCELL_ROW_17_114
*962 TAP_TAPCELL_ROW_17_115
*963 TAP_TAPCELL_ROW_17_116
*964 TAP_TAPCELL_ROW_18_117
*965 TAP_TAPCELL_ROW_18_118
*966 TAP_TAPCELL_ROW_18_119
*967 TAP_TAPCELL_ROW_19_120
*968 TAP_TAPCELL_ROW_19_121
*969 TAP_TAPCELL_ROW_19_122
*970 TAP_TAPCELL_ROW_1_66
*971 TAP_TAPCELL_ROW_1_67
*972 TAP_TAPCELL_ROW_1_68
*973 TAP_TAPCELL_ROW_20_123
*974 TAP_TAPCELL_ROW_20_124
*975 TAP_TAPCELL_ROW_20_125
*976 TAP_TAPCELL_ROW_21_126
*977 TAP_TAPCELL_ROW_21_127
*978 TAP_TAPCELL_ROW_21_128
*979 TAP_TAPCELL_ROW_22_129
*980 TAP_TAPCELL_ROW_22_130
*981 TAP_TAPCELL_ROW_22_131
*982 TAP_TAPCELL_ROW_23_132
*983 TAP_TAPCELL_ROW_23_133
*984 TAP_TAPCELL_ROW_23_134
*985 TAP_TAPCELL_ROW_24_135
*986 TAP_TAPCELL_ROW_24_136
*987 TAP_TAPCELL_ROW_24_137
*988 TAP_TAPCELL_ROW_25_138
*989 TAP_TAPCELL_ROW_25_139
*990 TAP_TAPCELL_ROW_25_140
*991 TAP_TAPCELL_ROW_26_141
*992 TAP_TAPCELL_ROW_26_142
*993 TAP_TAPCELL_ROW_26_143
*994 TAP_TAPCELL_ROW_27_144
*995 TAP_TAPCELL_ROW_27_145
*996 TAP_TAPCELL_ROW_27_146
*997 TAP_TAPCELL_ROW_28_147
*998 TAP_TAPCELL_ROW_28_148
*999 TAP_TAPCELL_ROW_28_149
*1000 TAP_TAPCELL_ROW_29_150
*1001 TAP_TAPCELL_ROW_29_151
*1002 TAP_TAPCELL_ROW_29_152
*1003 TAP_TAPCELL_ROW_29_153
*1004 TAP_TAPCELL_ROW_29_154
*1005 TAP_TAPCELL_ROW_29_155
*1006 TAP_TAPCELL_ROW_2_69
*1007 TAP_TAPCELL_ROW_2_70
*1008 TAP_TAPCELL_ROW_2_71
*1009 TAP_TAPCELL_ROW_3_72
*1010 TAP_TAPCELL_ROW_3_73
*1011 TAP_TAPCELL_ROW_3_74
*1012 TAP_TAPCELL_ROW_4_75
*1013 TAP_TAPCELL_ROW_4_76
*1014 TAP_TAPCELL_ROW_4_77
*1015 TAP_TAPCELL_ROW_5_78
*1016 TAP_TAPCELL_ROW_5_79
*1017 TAP_TAPCELL_ROW_5_80
*1018 TAP_TAPCELL_ROW_6_81
*1019 TAP_TAPCELL_ROW_6_82
*1020 TAP_TAPCELL_ROW_6_83
*1021 TAP_TAPCELL_ROW_7_84
*1022 TAP_TAPCELL_ROW_7_85
*1023 TAP_TAPCELL_ROW_7_86
*1024 TAP_TAPCELL_ROW_8_87
*1025 TAP_TAPCELL_ROW_8_88
*1026 TAP_TAPCELL_ROW_8_89
*1027 TAP_TAPCELL_ROW_9_90
*1028 TAP_TAPCELL_ROW_9_91
*1029 TAP_TAPCELL_ROW_9_92
*1030 _200_
*1031 _201_
*1032 _202_
*1033 _203_
*1034 _204_
*1035 _205_
*1036 _206_
*1037 _207_
*1038 _208_
*1039 _209_
*1040 _210_
*1041 _211_
*1042 _212_
*1043 _213_
*1044 _214_
*1045 _215_
*1046 _216_
*1047 _217_
*1048 _218_
*1049 _219_
*1050 _220_
*1051 _221_
*1052 _222_
*1053 _223_
*1054 _224_
*1055 _225_
*1056 _226_
*1057 _227_
*1058 _228_
*1059 _229_
*1060 _230_
*1061 _231_
*1062 _232_
*1063 _233_
*1064 _234_
*1065 _235_
*1066 _236_
*1067 _237_
*1068 _238_
*1069 _239_
*1070 _240_
*1071 _241_
*1072 _242_
*1073 _243_
*1074 _244_
*1075 _245_
*1076 _246_
*1077 _247_
*1078 _248_
*1079 _249_
*1080 _250_
*1081 _251_
*1082 _252_
*1083 _253_
*1084 _254_
*1085 _255_
*1086 _256_
*1087 _257_
*1088 _258_
*1089 _259_
*1090 _260_
*1091 _261_
*1092 _262_
*1093 _263_
*1094 _264_
*1095 _265_
*1096 _266_
*1097 _267_
*1098 _268_
*1099 _269_
*1100 _270_
*1101 _271_
*1102 _272_
*1103 _273_
*1104 _274_
*1105 _275_
*1106 _276_
*1107 _277_
*1108 _278_
*1109 _279_
*1110 _280_
*1111 _281_
*1112 _282_
*1113 _283_
*1114 _284_
*1115 _285_
*1116 _286_
*1117 _287_
*1118 _288_
*1119 _289_
*1120 _290_
*1121 _291_
*1122 _292_
*1123 _293_
*1124 _294_
*1125 _295_
*1126 _296_
*1127 _297_
*1128 _298_
*1129 _299_
*1130 _300_
*1131 _301_
*1132 _302_
*1133 _303_
*1134 _304_
*1135 _305_
*1136 _306_
*1137 _307_
*1138 _308_
*1139 _309_
*1140 _310_
*1141 _311_
*1142 _312_
*1143 _313_
*1144 _314_
*1145 _315_
*1146 _316_
*1147 _317_
*1148 _318_
*1149 _319_
*1150 _320_
*1151 _321_
*1152 _322_
*1153 _323_
*1154 _324_
*1155 _325_
*1156 _326_
*1157 _327_
*1158 _328_
*1159 _329_
*1160 _330_
*1161 _331_
*1162 _332_
*1163 _333_
*1164 _334_
*1165 _335_
*1166 _336_
*1167 _337_
*1168 _338_
*1169 _339_
*1170 _340_
*1171 _341_
*1172 _342_
*1173 _343_
*1174 _344_
*1175 _345_
*1176 _346_
*1177 _347_
*1178 _348_
*1179 _349_
*1180 _350_
*1181 _351_
*1182 _352_
*1183 _353_
*1184 _354_
*1185 _355_
*1186 _356_
*1187 _357_
*1188 _358_
*1189 _359_
*1190 _360_
*1191 _361_
*1192 _362_
*1193 _363_
*1194 _364_
*1195 _365_
*1196 _366_
*1197 _367_
*1198 _368_
*1199 _369_
*1200 _370_
*1201 _371_
*1202 _372_
*1203 _373_
*1204 _374_
*1205 _375_
*1206 _376_
*1207 _377_
*1208 _378_
*1209 _379_
*1210 _380_
*1211 _381_
*1212 _382_
*1213 _383_
*1214 _384_
*1215 _385_
*1216 _386_
*1217 _387_
*1218 _388_
*1219 _389_
*1220 _390_
*1221 _391_
*1222 _392_
*1223 _393_
*1224 _394_
*1225 _395_
*1226 _396_
*1227 _397_
*1228 _398_
*1229 _399_
*1230 _400_
*1231 _401_
*1232 _402_
*1233 _403_
*1234 _404_
*1235 _405_
*1236 _406_
*1237 _407_
*1238 _408_
*1239 _409_
*1240 _410_
*1241 _411_
*1242 _412_
*1243 _413_
*1244 _414_
*1245 _415_
*1246 _416_
*1247 _417_
*1248 _418_
*1249 _419_
*1250 _420_
*1251 _421_
*1252 _422_
*1253 _423_
*1254 _424_
*1255 _425_
*1256 _426_
*1257 _427_
*1258 _428_
*1259 _429_
*1260 _430_
*1261 _431_
*1262 _432_
*1263 _433_
*1264 _434_
*1265 _435_
*1266 _436_
*1267 _437_
*1268 _438_
*1269 _439_
*1270 _440_
*1271 _441_
*1272 _442_
*1273 _443_
*1274 _444_
*1275 _445_
*1276 _446_
*1277 _447_
*1278 _448_
*1279 _449_
*1280 _450_
*1281 _451_
*1282 _452_
*1283 _453_
*1284 _454_
*1285 _455_
*1286 _456_
*1287 _457_
*1288 _458_
*1289 _459_
*1290 _460_
*1291 _461_
*1292 _462_
*1293 _463_
*1294 clkbuf_0_clk
*1295 clkbuf_2_0__f_clk
*1296 clkbuf_2_1__f_clk
*1297 clkbuf_2_2__f_clk
*1298 clkbuf_2_3__f_clk
*1299 clkload0
*1300 clkload1
*1301 clkload2
*1302 fanout66
*1303 fanout67
*1304 fanout68
*1305 fanout69
*1306 input1
*1307 input10
*1308 input11
*1309 input12
*1310 input13
*1311 input14
*1312 input15
*1313 input16
*1314 input17
*1315 input18
*1316 input19
*1317 input2
*1318 input20
*1319 input21
*1320 input22
*1321 input23
*1322 input24
*1323 input25
*1324 input26
*1325 input27
*1326 input28
*1327 input29
*1328 input3
*1329 input30
*1330 input31
*1331 input32
*1332 input33
*1333 input4
*1334 input5
*1335 input6
*1336 input7
*1337 input8
*1338 input9
*1339 output34
*1340 output35
*1341 output36
*1342 output37
*1343 output38
*1344 output39
*1345 output40
*1346 output41
*1347 output42
*1348 output43
*1349 output44
*1350 output45
*1351 output46
*1352 output47
*1353 output48
*1354 output49
*1355 output50
*1356 output51
*1357 output52
*1358 output53
*1359 output54
*1360 output55
*1361 output56
*1362 output57
*1363 output58
*1364 output59
*1365 output60
*1366 output61
*1367 output62
*1368 output63
*1369 output64
*1370 output65

*PORTS
acc[0] O
acc[10] O
acc[11] O
acc[12] O
acc[13] O
acc[14] O
acc[15] O
acc[16] O
acc[17] O
acc[18] O
acc[19] O
acc[1] O
acc[20] O
acc[21] O
acc[22] O
acc[23] O
acc[24] O
acc[25] O
acc[26] O
acc[27] O
acc[28] O
acc[29] O
acc[2] O
acc[30] O
acc[31] O
acc[3] O
acc[4] O
acc[5] O
acc[6] O
acc[7] O
acc[8] O
acc[9] O
clk I
data_in[0] I
data_in[10] I
data_in[11] I
data_in[12] I
data_in[13] I
data_in[14] I
data_in[15] I
data_in[16] I
data_in[17] I
data_in[18] I
data_in[19] I
data_in[1] I
data_in[20] I
data_in[21] I
data_in[22] I
data_in[23] I
data_in[24] I
data_in[25] I
data_in[26] I
data_in[27] I
data_in[28] I
data_in[29] I
data_in[2] I
data_in[30] I
data_in[31] I
data_in[3] I
data_in[4] I
data_in[5] I
data_in[6] I
data_in[7] I
data_in[8] I
data_in[9] I
rst I

*D_NET *3 0.000586732
*CONN
*P acc[0] O
*I *1339:X O *D sky130_fd_sc_hd__buf_2
*CAP
1 acc[0] 0.00019514
2 *1339:X 0.00019514
3 acc[0] acc[1] 9.38622e-05
4 acc[0] *1306:A 0.000102589
5 acc[0] *332:32 0
*RES
1 *1339:X acc[0] 18.5706 
*END

*D_NET *4 0.000876077
*CONN
*P acc[10] O
*I *1340:X O *D sky130_fd_sc_hd__buf_2
*CAP
1 acc[10] 0.000438039
2 *1340:X 0.000438039
3 acc[10] *1317:A 0
4 acc[10] *1333:A 0
*RES
1 *1340:X acc[10] 21.6393 
*END

*D_NET *5 0.000978682
*CONN
*P acc[11] O
*I *1341:X O *D sky130_fd_sc_hd__buf_2
*CAP
1 acc[11] 0.000461726
2 *1341:X 0.000461726
3 acc[11] acc[12] 0
4 acc[11] *1328:A 0
5 acc[11] *1341:A 5.52302e-05
*RES
1 *1341:X acc[11] 22.05 
*END

*D_NET *6 0.00176804
*CONN
*P acc[12] O
*I *1342:X O *D sky130_fd_sc_hd__buf_2
*CAP
1 acc[12] 0.00059234
2 *1342:X 0.00059234
3 acc[12] *1082:A 2.82057e-05
4 acc[12] *1331:A 0
5 acc[12] *1370:A 5.23057e-05
6 acc[12] *129:12 0.00010096
7 acc[12] *331:8 5.33005e-05
8 acc[12] *367:25 0.000348588
9 acc[11] acc[12] 0
*RES
1 *1342:X acc[12] 26.55 
*END

*D_NET *7 0.000774578
*CONN
*P acc[13] O
*I *1343:X O *D sky130_fd_sc_hd__buf_2
*CAP
1 acc[13] 0.000344114
2 *1343:X 0.000344114
3 acc[13] acc[16] 3.19385e-05
4 acc[13] *1334:A 5.44117e-05
*RES
1 *1343:X acc[13] 20.8888 
*END

*D_NET *8 0.000946213
*CONN
*P acc[14] O
*I *1344:X O *D sky130_fd_sc_hd__buf_2
*CAP
1 acc[14] 0.000454744
2 *1344:X 0.000454744
3 acc[14] *1035:A 3.67257e-05
4 acc[14] *1335:A 0
*RES
1 *1344:X acc[14] 22.3 
*END

*D_NET *9 0.000749803
*CONN
*P acc[15] O
*I *1345:X O *D sky130_fd_sc_hd__buf_2
*CAP
1 acc[15] 0.000353958
2 *1345:X 0.000353958
3 acc[15] *1336:A 2.25951e-05
4 acc[15] *340:12 1.92905e-05
*RES
1 *1345:X acc[15] 20.891 
*END

*D_NET *10 0.000646073
*CONN
*P acc[16] O
*I *1346:X O *D sky130_fd_sc_hd__buf_2
*CAP
1 acc[16] 0.00029577
2 *1346:X 0.00029577
3 acc[16] *1338:A 2.25951e-05
4 acc[13] acc[16] 3.19385e-05
*RES
1 *1346:X acc[16] 20.891 
*END

*D_NET *11 0.000739532
*CONN
*P acc[17] O
*I *1347:X O *D sky130_fd_sc_hd__buf_2
*CAP
1 acc[17] 0.000342499
2 *1347:X 0.000342499
3 acc[17] acc[18] 2.25951e-05
4 acc[17] *1337:A 3.19385e-05
*RES
1 *1347:X acc[17] 20.891 
*END

*D_NET *12 0.000663563
*CONN
*P acc[18] O
*I *1348:X O *D sky130_fd_sc_hd__buf_2
*CAP
1 acc[18] 0.000265618
2 *1348:X 0.000265618
3 acc[18] *1220:B 2.79092e-05
4 acc[18] *1307:A 0
5 acc[18] *1308:A 2.25951e-05
6 acc[18] *1337:A 0
7 acc[18] *35:11 5.92267e-05
8 acc[18] *189:12 0
9 acc[17] acc[18] 2.25951e-05
*RES
1 *1348:X acc[18] 19.4092 
*END

*D_NET *13 0.000861244
*CONN
*P acc[19] O
*I *1349:X O *D sky130_fd_sc_hd__buf_2
*CAP
1 acc[19] 0.00040494
2 *1349:X 0.00040494
3 acc[19] acc[21] 2.87684e-05
4 acc[19] *1307:A 2.25951e-05
5 acc[19] *35:11 0
*RES
1 *1349:X acc[19] 22.1053 
*END

*D_NET *14 0.00145578
*CONN
*P acc[1] O
*I *1350:X O *D sky130_fd_sc_hd__buf_2
*CAP
1 acc[1] 0.000565353
2 *1350:X 0.000565353
3 acc[1] *1263:RESET_B 4.33002e-05
4 acc[1] *1303:A 0
5 acc[1] *1306:A 0
6 acc[1] *1324:A 0
7 acc[1] *1325:A 9.28756e-05
8 acc[1] *332:32 5.83233e-05
9 acc[1] *345:10 0
10 acc[1] *345:29 0
11 acc[1] *368:8 3.67142e-05
12 acc[0] acc[1] 9.38622e-05
*RES
1 *1350:X acc[1] 21.1637 
*END

*D_NET *15 0.000911701
*CONN
*P acc[20] O
*I *1351:X O *D sky130_fd_sc_hd__buf_2
*CAP
1 acc[20] 0.00045585
2 *1351:X 0.00045585
3 acc[20] *1310:A 0
4 acc[20] *1312:A 0
*RES
1 *1351:X acc[20] 22.8536 
*END

*D_NET *16 0.000741733
*CONN
*P acc[21] O
*I *1352:X O *D sky130_fd_sc_hd__buf_2
*CAP
1 acc[21] 0.000326869
2 *1352:X 0.000326869
3 acc[21] *1307:A 0
4 acc[21] *35:11 5.92267e-05
5 acc[19] acc[21] 2.87684e-05
*RES
1 *1352:X acc[21] 19.4092 
*END

*D_NET *17 0.000911701
*CONN
*P acc[22] O
*I *1353:X O *D sky130_fd_sc_hd__buf_2
*CAP
1 acc[22] 0.00045585
2 *1353:X 0.00045585
3 acc[22] *1311:A 0
4 acc[22] *1312:A 0
*RES
1 *1353:X acc[22] 22.8536 
*END

*D_NET *18 0.000951893
*CONN
*P acc[23] O
*I *1354:X O *D sky130_fd_sc_hd__buf_2
*CAP
1 acc[23] 0.000475946
2 *1354:X 0.000475946
3 acc[23] acc[25] 0
4 acc[23] *1313:A 0
*RES
1 *1354:X acc[23] 23.2643 
*END

*D_NET *19 0.00119729
*CONN
*P acc[24] O
*I *1355:X O *D sky130_fd_sc_hd__buf_2
*CAP
1 acc[24] 0.000598179
2 *1355:X 0.000598179
3 acc[24] *1315:A 0
4 acc[24] *314:16 9.33978e-07
*RES
1 *1355:X acc[24] 24.2107 
*END

*D_NET *20 0.000911701
*CONN
*P acc[25] O
*I *1356:X O *D sky130_fd_sc_hd__buf_2
*CAP
1 acc[25] 0.00045585
2 *1356:X 0.00045585
3 acc[25] *1315:A 0
4 acc[23] acc[25] 0
*RES
1 *1356:X acc[25] 22.8536 
*END

*D_NET *21 0.00101107
*CONN
*P acc[26] O
*I *1357:X O *D sky130_fd_sc_hd__buf_2
*CAP
1 acc[26] 0.000505534
2 *1357:X 0.000505534
3 acc[26] *1318:A 0
*RES
1 *1357:X acc[26] 23.3893 
*END

*D_NET *22 0.00142623
*CONN
*P acc[27] O
*I *1358:X O *D sky130_fd_sc_hd__buf_2
*CAP
1 acc[27] 0.000693025
2 *1358:X 0.000693025
3 acc[27] *1304:A 4.01768e-05
*RES
1 *1358:X acc[27] 25.8536 
*END

*D_NET *23 0.000545177
*CONN
*P acc[28] O
*I *1359:X O *D sky130_fd_sc_hd__buf_2
*CAP
1 acc[28] 0.000171848
2 *1359:X 0.000171848
3 acc[28] acc[30] 9.31735e-05
4 acc[28] *1332:A 9.54485e-05
5 acc[28] *1359:A 1.28585e-05
*RES
1 *1359:X acc[28] 18.267 
*END

*D_NET *24 0.000664866
*CONN
*P acc[29] O
*I *1360:X O *D sky130_fd_sc_hd__buf_2
*CAP
1 acc[29] 0.000233414
2 *1360:X 0.000233414
3 acc[29] acc[2] 0.000102589
4 acc[29] *1319:A 0
5 acc[29] *1320:A 9.54485e-05
6 acc[29] *332:32 0
7 acc[29] *356:10 0
*RES
1 *1360:X acc[29] 19.4813 
*END

*D_NET *25 0.000540692
*CONN
*P acc[2] O
*I *1361:X O *D sky130_fd_sc_hd__buf_2
*CAP
1 acc[2] 0.000175837
2 *1361:X 0.000175837
3 acc[2] *1053:A 0
4 acc[2] *1321:A 8.64293e-05
5 acc[29] acc[2] 0.000102589
*RES
1 *1361:X acc[2] 18.267 
*END

*D_NET *26 0.000538947
*CONN
*P acc[30] O
*I *1362:X O *D sky130_fd_sc_hd__buf_2
*CAP
1 acc[30] 0.000164208
2 *1362:X 0.000164208
3 acc[30] *1322:A 0.000105162
4 acc[30] *1359:A 1.21955e-05
5 acc[28] acc[30] 9.31735e-05
*RES
1 *1362:X acc[30] 18.267 
*END

*D_NET *27 0.000858791
*CONN
*P acc[31] O
*I *1363:X O *D sky130_fd_sc_hd__buf_2
*CAP
1 acc[31] 0.00025235
2 *1363:X 0.00025235
3 acc[31] *1194:A 0.00016478
4 acc[31] *1319:A 9.38622e-05
5 acc[31] *1322:A 0
6 acc[31] *1323:A 9.54485e-05
*RES
1 *1363:X acc[31] 20.0884 
*END

*D_NET *28 0.000936879
*CONN
*P acc[3] O
*I *1364:X O *D sky130_fd_sc_hd__buf_2
*CAP
1 acc[3] 0.000309424
2 *1364:X 0.000309424
3 acc[3] acc[5] 0.000105162
4 acc[3] *1260:A 0.000117421
5 acc[3] *1326:A 0
6 acc[3] *1329:A 9.54485e-05
*RES
1 *1364:X acc[3] 19.7695 
*END

*D_NET *29 0.000704278
*CONN
*P acc[4] O
*I *1365:X O *D sky130_fd_sc_hd__buf_2
*CAP
1 acc[4] 0.000222877
2 *1365:X 0.000222877
3 acc[4] *1324:A 0.000102589
4 acc[4] *1326:A 9.38622e-05
5 acc[4] *1365:A 6.20731e-05
*RES
1 *1365:X acc[4] 19.4813 
*END

*D_NET *30 0.000521938
*CONN
*P acc[5] O
*I *1366:X O *D sky130_fd_sc_hd__buf_2
*CAP
1 acc[5] 0.000152844
2 *1366:X 0.000152844
3 acc[5] *1107:A 8.49861e-06
4 acc[5] *1326:A 0.000102589
5 acc[3] acc[5] 0.000105162
*RES
1 *1366:X acc[5] 18.267 
*END

*D_NET *31 0.000880645
*CONN
*P acc[6] O
*I *1367:X O *D sky130_fd_sc_hd__buf_2
*CAP
1 acc[6] 0.000440323
2 *1367:X 0.000440323
3 acc[6] acc[8] 0
4 acc[6] *1327:A 0
*RES
1 *1367:X acc[6] 21.6393 
*END

*D_NET *32 0.00054393
*CONN
*P acc[7] O
*I *1368:X O *D sky130_fd_sc_hd__buf_2
*CAP
1 acc[7] 0.00022875
2 *1368:X 0.00022875
3 acc[7] *1329:A 8.64293e-05
*RES
1 *1368:X acc[7] 18.267 
*END

*D_NET *33 0.000957222
*CONN
*P acc[8] O
*I *1369:X O *D sky130_fd_sc_hd__buf_2
*CAP
1 acc[8] 0.000464155
2 *1369:X 0.000464155
3 acc[8] *1330:A 0
4 acc[8] *1369:A 2.89114e-05
5 acc[6] acc[8] 0
*RES
1 *1369:X acc[8] 22.05 
*END

*D_NET *34 0.000978682
*CONN
*P acc[9] O
*I *1370:X O *D sky130_fd_sc_hd__buf_2
*CAP
1 acc[9] 0.000461726
2 *1370:X 0.000461726
3 acc[9] *1330:A 0
4 acc[9] *1331:A 0
5 acc[9] *1370:A 5.52302e-05
*RES
1 *1370:X acc[9] 22.05 
*END

*D_NET *35 0.00900657
*CONN
*P clk I
*I *1294:A I *D sky130_fd_sc_hd__clkbuf_16
*CAP
1 clk 0.00164683
2 *1294:A 0.00177531
3 *35:11 0.00342214
4 *1294:A *1147:A_N 2.89114e-05
5 *1294:A *1151:B1 0.000531685
6 *1294:A *1153:A 0.000129515
7 *1294:A *1153:B 8.86862e-05
8 *1294:A *1155:C1 5.71472e-05
9 *1294:A *1217:A2 0.00010096
10 *1294:A *1217:B1 7.32955e-05
11 *1294:A *1338:A 5.71472e-05
12 *1294:A *194:8 0.000144773
13 *1294:A *342:23 0.000142856
14 *1294:A *374:17 0.000315158
15 *35:11 *1141:A 1.19402e-05
16 *35:11 *1144:A 0
17 *35:11 *1145:A 2.76516e-05
18 *35:11 *1220:B 0
19 *35:11 *1307:A 0.000264208
20 *35:11 *1308:A 0
21 *35:11 *1337:A 6.99087e-05
22 *35:11 *1347:A 0
23 *35:11 *1349:A 0
24 *35:11 *1352:A 0
25 acc[18] *35:11 5.92267e-05
26 acc[19] *35:11 0
27 acc[21] *35:11 5.92267e-05
*RES
1 clk *35:11 36.9829 
2 *35:11 *1294:A 41.8714 
*END

*D_NET *36 0.00190057
*CONN
*P data_in[0] I
*I *1306:A I *D sky130_fd_sc_hd__clkbuf_1
*CAP
1 data_in[0] 0.000509911
2 *1306:A 0.000509911
3 *1306:A *1262:RESET_B 0.000179656
4 *1306:A *1309:A 9.28756e-05
5 *1306:A *309:6 0.000271345
6 *1306:A *321:12 0.000146523
7 *1306:A *332:32 8.77587e-05
8 *1306:A *333:8 0
9 acc[0] *1306:A 0.000102589
10 acc[1] *1306:A 0
*RES
1 data_in[0] *1306:A 25.751 
*END

*D_NET *37 0.000947427
*CONN
*P data_in[10] I
*I *1317:A I *D sky130_fd_sc_hd__clkbuf_1
*CAP
1 data_in[10] 0.000459349
2 *1317:A 0.000459349
3 *1317:A *1328:A 0
4 *1317:A *1340:A 4.1331e-06
5 *1317:A *317:12 1.92905e-05
6 *1317:A *328:10 5.30637e-06
7 acc[10] *1317:A 0
*RES
1 data_in[10] *1317:A 22.6571 
*END

*D_NET *38 0.000874027
*CONN
*P data_in[11] I
*I *1328:A I *D sky130_fd_sc_hd__clkbuf_1
*CAP
1 data_in[11] 0.000432389
2 *1328:A 0.000432389
3 *1328:A *335:31 9.25014e-06
4 acc[11] *1328:A 0
5 *1317:A *1328:A 0
*RES
1 data_in[11] *1328:A 21.8357 
*END

*D_NET *39 0.000972171
*CONN
*P data_in[12] I
*I *1333:A I *D sky130_fd_sc_hd__buf_1
*CAP
1 data_in[12] 0.000458471
2 *1333:A 0.000458471
3 *1333:A *1035:A 5.52302e-05
4 *1333:A *1335:A 0
5 acc[10] *1333:A 0
*RES
1 data_in[12] *1333:A 22.6571 
*END

*D_NET *40 0.000796511
*CONN
*P data_in[13] I
*I *1334:A I *D sky130_fd_sc_hd__clkbuf_1
*CAP
1 data_in[13] 0.000371049
2 *1334:A 0.000371049
3 *1334:A *1336:A 0
4 acc[13] *1334:A 5.44117e-05
*RES
1 data_in[13] *1334:A 19.3218 
*END

*D_NET *41 0.0010269
*CONN
*P data_in[14] I
*I *1335:A I *D sky130_fd_sc_hd__clkbuf_1
*CAP
1 data_in[14] 0.000442022
2 *1335:A 0.000442022
3 *1335:A *1035:A 0.000142856
4 acc[14] *1335:A 0
5 *1333:A *1335:A 0
*RES
1 data_in[14] *1335:A 22.6571 
*END

*D_NET *42 0.000674569
*CONN
*P data_in[15] I
*I *1336:A I *D sky130_fd_sc_hd__buf_1
*CAP
1 data_in[15] 0.000325987
2 *1336:A 0.000325987
3 *1336:A *372:10 0
4 acc[15] *1336:A 2.25951e-05
5 *1334:A *1336:A 0
*RES
1 data_in[15] *1336:A 20.2479 
*END

*D_NET *43 0.000598715
*CONN
*P data_in[16] I
*I *1337:A I *D sky130_fd_sc_hd__buf_1
*CAP
1 data_in[16] 0.000219992
2 *1337:A 0.000219992
3 *1337:A *1338:A 3.19385e-05
4 *1337:A *1347:A 2.49459e-05
5 acc[17] *1337:A 3.19385e-05
6 acc[18] *1337:A 0
7 *35:11 *1337:A 6.99087e-05
*RES
1 data_in[16] *1337:A 18.73 
*END

*D_NET *44 0.000695863
*CONN
*P data_in[17] I
*I *1338:A I *D sky130_fd_sc_hd__buf_1
*CAP
1 data_in[17] 0.000292091
2 *1338:A 0.000292091
3 *1338:A *1141:A 0
4 acc[16] *1338:A 2.25951e-05
5 *1294:A *1338:A 5.71472e-05
6 *1337:A *1338:A 3.19385e-05
*RES
1 data_in[17] *1338:A 21.391 
*END

*D_NET *45 0.000960398
*CONN
*P data_in[18] I
*I *1307:A I *D sky130_fd_sc_hd__buf_1
*CAP
1 data_in[18] 0.000263335
2 *1307:A 0.000263335
3 *1307:A *1145:A 5.10602e-05
4 *1307:A *1308:A 3.19385e-05
5 *1307:A *1349:A 6.39262e-05
6 acc[18] *1307:A 0
7 acc[19] *1307:A 2.25951e-05
8 acc[21] *1307:A 0
9 *35:11 *1307:A 0.000264208
*RES
1 data_in[18] *1307:A 21.1586 
*END

*D_NET *46 0.000647552
*CONN
*P data_in[19] I
*I *1308:A I *D sky130_fd_sc_hd__buf_1
*CAP
1 data_in[19] 0.000296509
2 *1308:A 0.000296509
3 acc[18] *1308:A 2.25951e-05
4 *1307:A *1308:A 3.19385e-05
5 *35:11 *1308:A 0
*RES
1 data_in[19] *1308:A 21.0874 
*END

*D_NET *47 0.000662102
*CONN
*P data_in[1] I
*I *1309:A I *D sky130_fd_sc_hd__clkbuf_1
*CAP
1 data_in[1] 0.000236889
2 *1309:A 0.000236889
3 *1309:A *1053:A 0
4 *1309:A *1321:A 9.54485e-05
5 *1309:A *332:32 0
6 *1306:A *1309:A 9.28756e-05
*RES
1 data_in[1] *1309:A 19.7128 
*END

*D_NET *48 0.000944297
*CONN
*P data_in[20] I
*I *1310:A I *D sky130_fd_sc_hd__clkbuf_1
*CAP
1 data_in[20] 0.000472148
2 *1310:A 0.000472148
3 *1310:A *1313:A 0
4 acc[20] *1310:A 0
*RES
1 data_in[20] *1310:A 23.05 
*END

*D_NET *49 0.00101131
*CONN
*P data_in[21] I
*I *1311:A I *D sky130_fd_sc_hd__clkbuf_1
*CAP
1 data_in[21] 0.000505653
2 *1311:A 0.000505653
3 *1311:A *1353:A 0
4 acc[22] *1311:A 0
*RES
1 data_in[21] *1311:A 23.8714 
*END

*D_NET *50 0.00101131
*CONN
*P data_in[22] I
*I *1312:A I *D sky130_fd_sc_hd__clkbuf_1
*CAP
1 data_in[22] 0.000505653
2 *1312:A 0.000505653
3 *1312:A *1351:A 0
4 *1312:A *1353:A 0
5 acc[20] *1312:A 0
6 acc[22] *1312:A 0
*RES
1 data_in[22] *1312:A 23.8714 
*END

*D_NET *51 0.00101773
*CONN
*P data_in[23] I
*I *1313:A I *D sky130_fd_sc_hd__clkbuf_1
*CAP
1 data_in[23] 0.000508866
2 *1313:A 0.000508866
3 *1313:A *349:25 0
4 acc[23] *1313:A 0
5 *1310:A *1313:A 0
*RES
1 data_in[23] *1313:A 23.8714 
*END

*D_NET *52 0.00101131
*CONN
*P data_in[24] I
*I *1314:A I *D sky130_fd_sc_hd__clkbuf_1
*CAP
1 data_in[24] 0.000505653
2 *1314:A 0.000505653
3 *1314:A *1316:A 0
4 *1314:A *1355:A 0
*RES
1 data_in[24] *1314:A 23.8714 
*END

*D_NET *53 0.000930923
*CONN
*P data_in[25] I
*I *1315:A I *D sky130_fd_sc_hd__clkbuf_1
*CAP
1 data_in[25] 0.000465461
2 *1315:A 0.000465461
3 *1315:A *1355:A 0
4 *1315:A *1356:A 0
5 acc[24] *1315:A 0
6 acc[25] *1315:A 0
*RES
1 data_in[25] *1315:A 23.05 
*END

*D_NET *54 0.000930923
*CONN
*P data_in[26] I
*I *1316:A I *D sky130_fd_sc_hd__buf_1
*CAP
1 data_in[26] 0.000465461
2 *1316:A 0.000465461
3 *1316:A *1318:A 0
4 *1314:A *1316:A 0
*RES
1 data_in[26] *1316:A 23.05 
*END

*D_NET *55 0.000932673
*CONN
*P data_in[27] I
*I *1318:A I *D sky130_fd_sc_hd__buf_1
*CAP
1 data_in[27] 0.000463433
2 *1318:A 0.000463433
3 *1318:A *1357:A 5.80706e-06
4 acc[26] *1318:A 0
5 *1316:A *1318:A 0
*RES
1 data_in[27] *1318:A 23.05 
*END

*D_NET *56 0.000825153
*CONN
*P data_in[28] I
*I *1319:A I *D sky130_fd_sc_hd__clkbuf_1
*CAP
1 data_in[28] 0.000298468
2 *1319:A 0.000298468
3 *1319:A *1320:A 9.95816e-05
4 *1319:A *332:32 3.47737e-05
5 acc[29] *1319:A 0
6 acc[31] *1319:A 9.38622e-05
*RES
1 data_in[28] *1319:A 19.929 
*END

*D_NET *57 0.000615832
*CONN
*P data_in[29] I
*I *1320:A I *D sky130_fd_sc_hd__clkbuf_1
*CAP
1 data_in[29] 0.000210401
2 *1320:A 0.000210401
3 *1320:A *320:12 0
4 *1320:A *332:32 0
5 acc[29] *1320:A 9.54485e-05
6 *1319:A *1320:A 9.95816e-05
*RES
1 data_in[29] *1320:A 19.4092 
*END

*D_NET *58 0.000545948
*CONN
*P data_in[2] I
*I *1321:A I *D sky130_fd_sc_hd__clkbuf_1
*CAP
1 data_in[2] 0.000175938
2 *1321:A 0.000175938
3 *1321:A *1053:A 0
4 *1321:A *321:12 1.21955e-05
5 acc[2] *1321:A 8.64293e-05
6 *1309:A *1321:A 9.54485e-05
*RES
1 data_in[2] *1321:A 18.8021 
*END

*D_NET *59 0.000809748
*CONN
*P data_in[30] I
*I *1322:A I *D sky130_fd_sc_hd__clkbuf_1
*CAP
1 data_in[30] 0.000254063
2 *1322:A 0.000254063
3 *1322:A *1323:A 9.95816e-05
4 *1322:A *1359:A 9.68786e-05
5 acc[30] *1322:A 0.000105162
6 acc[31] *1322:A 0
*RES
1 data_in[30] *1322:A 19.3218 
*END

*D_NET *60 0.000688774
*CONN
*P data_in[31] I
*I *1323:A I *D sky130_fd_sc_hd__clkbuf_1
*CAP
1 data_in[31] 0.000215499
2 *1323:A 0.000215499
3 *1323:A *1194:A 6.27457e-05
4 *1323:A *1359:A 0
5 acc[31] *1323:A 9.54485e-05
6 *1322:A *1323:A 9.95816e-05
*RES
1 data_in[31] *1323:A 20.0163 
*END

*D_NET *61 0.000867965
*CONN
*P data_in[3] I
*I *1324:A I *D sky130_fd_sc_hd__clkbuf_2
*CAP
1 data_in[3] 0.000279491
2 *1324:A 0.000279491
3 *1324:A *1325:A 9.54485e-05
4 *1324:A *1365:A 6.74911e-05
5 *1324:A *325:10 4.34543e-05
6 *1324:A *362:14 0
7 acc[1] *1324:A 0
8 acc[4] *1324:A 0.000102589
*RES
1 data_in[3] *1324:A 20.392 
*END

*D_NET *62 0.000540694
*CONN
*P data_in[4] I
*I *1325:A I *D sky130_fd_sc_hd__clkbuf_1
*CAP
1 data_in[4] 0.000161898
2 *1325:A 0.000161898
3 *1325:A *1303:A 2.85737e-05
4 acc[1] *1325:A 9.28756e-05
5 *1324:A *1325:A 9.54485e-05
*RES
1 data_in[4] *1325:A 18.8021 
*END

*D_NET *63 0.000784019
*CONN
*P data_in[5] I
*I *1326:A I *D sky130_fd_sc_hd__clkbuf_1
*CAP
1 data_in[5] 0.000265943
2 *1326:A 0.000265943
3 *1326:A *1109:B 2.49484e-05
4 *1326:A *1365:A 1.02504e-05
5 *1326:A *326:14 2.04825e-05
6 acc[3] *1326:A 0
7 acc[4] *1326:A 9.38622e-05
8 acc[5] *1326:A 0.000102589
*RES
1 data_in[5] *1326:A 19.0903 
*END

*D_NET *64 0.000852381
*CONN
*P data_in[6] I
*I *1327:A I *D sky130_fd_sc_hd__buf_1
*CAP
1 data_in[6] 0.000421566
2 *1327:A 0.000421566
3 *1327:A *1367:A 9.25014e-06
4 acc[6] *1327:A 0
*RES
1 data_in[6] *1327:A 21.8357 
*END

*D_NET *65 0.00049024
*CONN
*P data_in[7] I
*I *1329:A I *D sky130_fd_sc_hd__clkbuf_1
*CAP
1 data_in[7] 0.000154181
2 *1329:A 0.000154181
3 *1329:A *1260:A 0
4 acc[3] *1329:A 9.54485e-05
5 acc[7] *1329:A 8.64293e-05
*RES
1 data_in[7] *1329:A 18.1949 
*END

*D_NET *66 0.000847878
*CONN
*P data_in[8] I
*I *1330:A I *D sky130_fd_sc_hd__clkbuf_1
*CAP
1 data_in[8] 0.000423939
2 *1330:A 0.000423939
3 acc[8] *1330:A 0
4 acc[9] *1330:A 0
*RES
1 data_in[8] *1330:A 21.8357 
*END

*D_NET *67 0.0011957
*CONN
*P data_in[9] I
*I *1331:A I *D sky130_fd_sc_hd__clkbuf_1
*CAP
1 data_in[9] 0.000429902
2 *1331:A 0.000429902
3 *1331:A *1082:A 0.000144773
4 *1331:A *1342:A 4.46186e-06
5 *1331:A *367:25 0.000186662
6 acc[12] *1331:A 0
7 acc[9] *1331:A 0
*RES
1 data_in[9] *1331:A 23.0679 
*END

*D_NET *68 0.000698469
*CONN
*P rst I
*I *1332:A I *D sky130_fd_sc_hd__buf_1
*CAP
1 rst 0.000301511
2 *1332:A 0.000301511
3 *1332:A *332:10 0
4 acc[28] *1332:A 9.54485e-05
*RES
1 rst *1332:A 20.3199 
*END

*D_NET *69 0.000437827
*CONN
*I *1262:RESET_B I *D sky130_fd_sc_hd__dfrtp_1
*I *1053:Y O *D sky130_fd_sc_hd__inv_2
*CAP
1 *1262:RESET_B 3.92578e-05
2 *1053:Y 3.92578e-05
3 *1262:RESET_B *332:32 0.000179656
4 *1306:A *1262:RESET_B 0.000179656
*RES
1 *1053:Y *1262:RESET_B 20.55 
*END

*D_NET *70 0.000947945
*CONN
*I *1263:RESET_B I *D sky130_fd_sc_hd__dfrtp_1
*I *1254:Y O *D sky130_fd_sc_hd__inv_2
*CAP
1 *1263:RESET_B 0.000262588
2 *1254:Y 0.000262588
3 *1263:RESET_B *1303:A 6.72598e-05
4 *1263:RESET_B *368:8 0.000312209
5 acc[1] *1263:RESET_B 4.33002e-05
*RES
1 *1254:Y *1263:RESET_B 23.8536 
*END

*D_NET *71 0.00034376
*CONN
*I *1264:RESET_B I *D sky130_fd_sc_hd__dfrtp_1
*I *1255:Y O *D sky130_fd_sc_hd__inv_2
*CAP
1 *1264:RESET_B 0.00017188
2 *1255:Y 0.00017188
*RES
1 *1255:Y *1264:RESET_B 11.8268 
*END

*D_NET *72 0.000363924
*CONN
*I *1265:RESET_B I *D sky130_fd_sc_hd__dfrtp_4
*I *1256:Y O *D sky130_fd_sc_hd__inv_2
*CAP
1 *1265:RESET_B 0.000170591
2 *1256:Y 0.000170591
3 *1265:RESET_B *1099:B1 0
4 *1265:RESET_B *1256:A 2.27416e-05
5 *1265:RESET_B *360:10 0
*RES
1 *1256:Y *1265:RESET_B 21.0857 
*END

*D_NET *73 0.000392148
*CONN
*I *1266:RESET_B I *D sky130_fd_sc_hd__dfrtp_1
*I *1257:Y O *D sky130_fd_sc_hd__inv_2
*CAP
1 *1266:RESET_B 0.000118693
2 *1257:Y 0.000118693
3 *1266:RESET_B *1256:A 0
4 *1266:RESET_B *1303:A 0
5 *1266:RESET_B *369:12 0.000154762
*RES
1 *1257:Y *1266:RESET_B 21.1571 
*END

*D_NET *74 0.000298479
*CONN
*I *1267:RESET_B I *D sky130_fd_sc_hd__dfrtp_1
*I *1258:Y O *D sky130_fd_sc_hd__inv_2
*CAP
1 *1267:RESET_B 7.18583e-05
2 *1258:Y 7.18583e-05
3 *1267:RESET_B *1109:A 0.000154762
4 *1267:RESET_B *369:56 0
*RES
1 *1258:Y *1267:RESET_B 20.2464 
*END

*D_NET *75 0.000172318
*CONN
*I *1268:RESET_B I *D sky130_fd_sc_hd__dfrtp_1
*I *1259:Y O *D sky130_fd_sc_hd__inv_2
*CAP
1 *1268:RESET_B 5.83118e-05
2 *1259:Y 5.83118e-05
3 *1268:RESET_B *1259:A 0
4 *1268:RESET_B *1369:A 5.56943e-05
*RES
1 *1259:Y *1268:RESET_B 19.6393 
*END

*D_NET *76 0.000438899
*CONN
*I *1269:RESET_B I *D sky130_fd_sc_hd__dfrtp_1
*I *1260:Y O *D sky130_fd_sc_hd__inv_2
*CAP
1 *1269:RESET_B 8.6149e-05
2 *1260:Y 8.6149e-05
3 *1269:RESET_B *1368:A 0.000128496
4 *1269:RESET_B *365:12 0.000138106
*RES
1 *1260:Y *1269:RESET_B 11.8268 
*END

*D_NET *77 0.000330076
*CONN
*I *1270:RESET_B I *D sky130_fd_sc_hd__dfrtp_1
*I *1261:Y O *D sky130_fd_sc_hd__inv_2
*CAP
1 *1270:RESET_B 0.000102099
2 *1261:Y 0.000102099
3 *1270:RESET_B *1270:CLK 0.000125877
*RES
1 *1261:Y *1270:RESET_B 11.4161 
*END

*D_NET *78 0.00142002
*CONN
*I *1271:RESET_B I *D sky130_fd_sc_hd__dfrtp_1
*I *1030:Y O *D sky130_fd_sc_hd__inv_2
*CAP
1 *1271:RESET_B 0.000685512
2 *1030:Y 0.000685512
3 *1271:RESET_B *1081:B 0
4 *1271:RESET_B *1268:CLK 5.19842e-06
5 *1271:RESET_B *303:55 4.37999e-05
*RES
1 *1030:Y *1271:RESET_B 17.7911 
*END

*D_NET *79 0.000480334
*CONN
*I *1272:RESET_B I *D sky130_fd_sc_hd__dfrtp_1
*I *1031:Y O *D sky130_fd_sc_hd__inv_2
*CAP
1 *1272:RESET_B 6.82078e-05
2 *1031:Y 6.82078e-05
3 *1272:RESET_B *302:22 0.000266153
4 *1272:RESET_B *334:8 7.77652e-05
*RES
1 *1031:Y *1272:RESET_B 11.8268 
*END

*D_NET *80 0.000363502
*CONN
*I *1273:RESET_B I *D sky130_fd_sc_hd__dfrtp_1
*I *1032:Y O *D sky130_fd_sc_hd__inv_2
*CAP
1 *1273:RESET_B 0.000167727
2 *1032:Y 0.000167727
3 *1273:RESET_B *1273:D 0
4 *1273:RESET_B *368:90 2.27416e-05
5 *1273:RESET_B *368:100 5.30637e-06
*RES
1 *1032:Y *1273:RESET_B 21.0857 
*END

*D_NET *81 0.000265074
*CONN
*I *1274:RESET_B I *D sky130_fd_sc_hd__dfrtp_1
*I *1033:Y O *D sky130_fd_sc_hd__inv_2
*CAP
1 *1274:RESET_B 0.000108259
2 *1033:Y 0.000108259
3 *1274:RESET_B *336:10 4.85567e-05
4 *1274:RESET_B *368:84 0
*RES
1 *1033:Y *1274:RESET_B 20.1125 
*END

*D_NET *82 0.000477693
*CONN
*I *1275:RESET_B I *D sky130_fd_sc_hd__dfrtp_1
*I *1034:Y O *D sky130_fd_sc_hd__inv_2
*CAP
1 *1275:RESET_B 0.000134388
2 *1034:Y 0.000134388
3 *1275:RESET_B *1034:A 7.83659e-05
4 *1275:RESET_B *1275:D 5.52238e-05
5 *1275:RESET_B *186:12 2.72545e-05
6 *1275:RESET_B *368:49 4.80729e-05
*RES
1 *1034:Y *1275:RESET_B 21.0857 
*END

*D_NET *83 0.00110255
*CONN
*I *1276:RESET_B I *D sky130_fd_sc_hd__dfrtp_1
*I *1035:Y O *D sky130_fd_sc_hd__inv_2
*CAP
1 *1276:RESET_B 0.000376591
2 *1035:Y 0.000376591
3 *1276:RESET_B *1035:A 7.94648e-05
4 *1276:RESET_B *1272:CLK 1.02132e-05
5 *1276:RESET_B *302:22 4.68274e-05
6 *1276:RESET_B *302:24 0.000114579
7 *1276:RESET_B *338:8 9.82855e-05
8 *1276:RESET_B *338:21 0
*RES
1 *1035:Y *1276:RESET_B 25.6125 
*END

*D_NET *84 0.000260714
*CONN
*I *1277:RESET_B I *D sky130_fd_sc_hd__dfrtp_1
*I *1036:Y O *D sky130_fd_sc_hd__inv_2
*CAP
1 *1277:RESET_B 0.000130357
2 *1036:Y 0.000130357
3 *1277:RESET_B *1036:A 0
*RES
1 *1036:Y *1277:RESET_B 20.175 
*END

*D_NET *85 0.000328653
*CONN
*I *1278:RESET_B I *D sky130_fd_sc_hd__dfrtp_1
*I *1037:Y O *D sky130_fd_sc_hd__inv_2
*CAP
1 *1278:RESET_B 9.52738e-05
2 *1037:Y 9.52738e-05
3 *1278:RESET_B *341:10 0.000138106
*RES
1 *1037:Y *1278:RESET_B 11.4161 
*END

*D_NET *86 0.00029111
*CONN
*I *1279:RESET_B I *D sky130_fd_sc_hd__dfrtp_1
*I *1038:Y O *D sky130_fd_sc_hd__inv_2
*CAP
1 *1279:RESET_B 0.000145555
2 *1038:Y 0.000145555
3 *1279:RESET_B *302:52 0
*RES
1 *1038:Y *1279:RESET_B 20.5232 
*END

*D_NET *87 0.000160445
*CONN
*I *1280:RESET_B I *D sky130_fd_sc_hd__dfrtp_1
*I *1039:Y O *D sky130_fd_sc_hd__inv_2
*CAP
1 *1280:RESET_B 8.02223e-05
2 *1039:Y 8.02223e-05
*RES
1 *1039:Y *1280:RESET_B 19.6393 
*END

*D_NET *88 0.000203077
*CONN
*I *1281:RESET_B I *D sky130_fd_sc_hd__dfrtp_1
*I *1040:Y O *D sky130_fd_sc_hd__inv_2
*CAP
1 *1281:RESET_B 8.18956e-05
2 *1040:Y 8.18956e-05
3 *1281:RESET_B *1220:A 0
4 *1281:RESET_B *1281:CLK 3.92854e-05
*RES
1 *1040:Y *1281:RESET_B 19.9429 
*END

*D_NET *89 0.000366775
*CONN
*I *1282:RESET_B I *D sky130_fd_sc_hd__dfrtp_1
*I *1041:Y O *D sky130_fd_sc_hd__inv_2
*CAP
1 *1282:RESET_B 4.96302e-05
2 *1041:Y 4.96302e-05
3 *1282:RESET_B *218:14 0.000225731
4 *1282:RESET_B *346:10 4.17828e-05
*RES
1 *1041:Y *1282:RESET_B 11.4161 
*END

*D_NET *90 0.000362723
*CONN
*I *1283:RESET_B I *D sky130_fd_sc_hd__dfrtp_1
*I *1042:Y O *D sky130_fd_sc_hd__inv_2
*CAP
1 *1283:RESET_B 0.000181361
2 *1042:Y 0.000181361
3 *1283:RESET_B *1283:D 0
4 *1283:RESET_B *304:72 0
*RES
1 *1042:Y *1283:RESET_B 21.0857 
*END

*D_NET *91 0.000314966
*CONN
*I *1284:RESET_B I *D sky130_fd_sc_hd__dfrtp_1
*I *1043:Y O *D sky130_fd_sc_hd__inv_2
*CAP
1 *1284:RESET_B 0.000133246
2 *1043:Y 0.000133246
3 *1284:RESET_B *304:64 4.8474e-05
4 *1284:RESET_B *304:72 0
*RES
1 *1043:Y *1284:RESET_B 20.5232 
*END

*D_NET *92 0.000345177
*CONN
*I *1285:RESET_B I *D sky130_fd_sc_hd__dfrtp_1
*I *1044:Y O *D sky130_fd_sc_hd__inv_2
*CAP
1 *1285:RESET_B 5.27416e-05
2 *1044:Y 5.27416e-05
3 *1285:RESET_B *1044:A 0
4 *1285:RESET_B *1164:A 0.000154762
5 *1285:RESET_B *1164:B 8.49318e-05
*RES
1 *1044:Y *1285:RESET_B 20.2464 
*END

*D_NET *93 0.000832159
*CONN
*I *1286:RESET_B I *D sky130_fd_sc_hd__dfrtp_1
*I *1045:Y O *D sky130_fd_sc_hd__inv_2
*CAP
1 *1286:RESET_B 0.000176704
2 *1045:Y 0.000176704
3 *1286:RESET_B *1297:A 0.000179995
4 *1286:RESET_B *305:12 9.84792e-05
5 *1286:RESET_B *370:120 0.000171375
6 *1286:RESET_B *370:126 2.89016e-05
*RES
1 *1045:Y *1286:RESET_B 22.7911 
*END

*D_NET *94 0.000262526
*CONN
*I *1287:RESET_B I *D sky130_fd_sc_hd__dfrtp_1
*I *1046:Y O *D sky130_fd_sc_hd__inv_2
*CAP
1 *1287:RESET_B 0.000131263
2 *1046:Y 0.000131263
3 *1287:RESET_B *1288:CLK 0
4 *1287:RESET_B *222:14 0
*RES
1 *1046:Y *1287:RESET_B 20.175 
*END

*D_NET *95 0.000324725
*CONN
*I *1288:RESET_B I *D sky130_fd_sc_hd__dfrtp_1
*I *1047:Y O *D sky130_fd_sc_hd__inv_2
*CAP
1 *1288:RESET_B 9.58511e-05
2 *1047:Y 9.58511e-05
3 *1288:RESET_B *1355:A 0
4 *1288:RESET_B *315:8 0.000104974
5 *1288:RESET_B *370:26 2.27416e-05
6 *1288:RESET_B *370:30 5.30637e-06
*RES
1 *1047:Y *1288:RESET_B 20.175 
*END

*D_NET *96 0.000334491
*CONN
*I *1289:RESET_B I *D sky130_fd_sc_hd__dfrtp_1
*I *1048:Y O *D sky130_fd_sc_hd__inv_2
*CAP
1 *1289:RESET_B 0.000101165
2 *1048:Y 0.000101165
3 *1289:RESET_B *1289:CLK 0.00010326
4 *1289:RESET_B *370:12 2.89016e-05
*RES
1 *1048:Y *1289:RESET_B 20.175 
*END

*D_NET *97 0.000245919
*CONN
*I *1290:RESET_B I *D sky130_fd_sc_hd__dfrtp_1
*I *1049:Y O *D sky130_fd_sc_hd__inv_2
*CAP
1 *1290:RESET_B 0.000122959
2 *1049:Y 0.000122959
3 *1290:RESET_B *1290:D 0
*RES
1 *1049:Y *1290:RESET_B 20.55 
*END

*D_NET *98 0.000341139
*CONN
*I *1291:RESET_B I *D sky130_fd_sc_hd__dfrtp_1
*I *1050:Y O *D sky130_fd_sc_hd__inv_2
*CAP
1 *1291:RESET_B 0.00012439
2 *1050:Y 0.00012439
3 *1291:RESET_B *1050:A 2.28598e-05
4 *1291:RESET_B *371:42 6.94994e-05
*RES
1 *1050:Y *1291:RESET_B 11.4161 
*END

*D_NET *99 0.000370313
*CONN
*I *1292:RESET_B I *D sky130_fd_sc_hd__dfrtp_1
*I *1051:Y O *D sky130_fd_sc_hd__inv_2
*CAP
1 *1292:RESET_B 7.92177e-05
2 *1051:Y 7.92177e-05
3 *1292:RESET_B *231:6 5.52302e-05
4 *1292:RESET_B *332:32 5.33882e-05
5 *1292:RESET_B *371:8 0.00010326
*RES
1 *1051:Y *1292:RESET_B 20.175 
*END

*D_NET *100 0.000215679
*CONN
*I *1293:RESET_B I *D sky130_fd_sc_hd__dfrtp_1
*I *1052:Y O *D sky130_fd_sc_hd__inv_2
*CAP
1 *1293:RESET_B 3.63789e-05
2 *1052:Y 3.63789e-05
3 *1293:RESET_B *332:32 3.79467e-05
4 *1293:RESET_B *371:10 0.000104974
*RES
1 *1052:Y *1293:RESET_B 19.6393 
*END

*D_NET *101 0.00258241
*CONN
*I *1189:A1 I *D sky130_fd_sc_hd__a31o_1
*I *1191:C1 I *D sky130_fd_sc_hd__o211a_1
*I *1184:A I *D sky130_fd_sc_hd__nand2_1
*I *1056:A I *D sky130_fd_sc_hd__nand2_1
*I *1054:Y O *D sky130_fd_sc_hd__nand2_1
*CAP
1 *1189:A1 7.14019e-05
2 *1191:C1 5.12151e-05
3 *1184:A 0.000140232
4 *1056:A 3.95833e-05
5 *1054:Y 0
6 *101:40 0.000419053
7 *101:8 0.000245769
8 *101:4 0.00036239
9 *1056:A *1185:B 2.61337e-05
10 *1056:A *228:21 0
11 *1056:A *355:25 4.1331e-06
12 *1184:A *1184:B 5.7661e-06
13 *1184:A *1185:B 3.48235e-05
14 *1184:A *1193:A1 5.7661e-06
15 *1184:A *226:17 5.62995e-05
16 *1184:A *305:82 0
17 *1189:A1 *1189:A2 4.27437e-05
18 *1191:C1 *1189:A2 1.98839e-05
19 *1191:C1 *1190:B 5.52238e-05
20 *101:8 *305:82 9.90431e-05
21 *101:40 *1189:A3 4.66511e-05
22 *101:40 *1192:A1 0
23 *101:40 *1359:A 3.03304e-05
24 *101:40 *228:21 0.000266092
25 *101:40 *305:82 0.00034358
26 *101:40 *305:93 0.000216297
*RES
1 *1054:Y *101:4 9.3 
2 *101:4 *101:8 5.44643 
3 *101:8 *1056:A 14.5321 
4 *101:8 *1184:A 16.6393 
5 *101:4 *101:40 15.9643 
6 *101:40 *1191:C1 10.2464 
7 *101:40 *1189:A1 10.6571 
*END

*D_NET *102 0.000133696
*CONN
*I *1056:B I *D sky130_fd_sc_hd__nand2_1
*I *1055:X O *D sky130_fd_sc_hd__or2_1
*CAP
1 *1056:B 1.1624e-05
2 *1055:X 1.1624e-05
3 *1056:B *1055:A 5.52238e-05
4 *1056:B *305:82 5.52238e-05
*RES
1 *1055:X *1056:B 19.1357 
*END

*D_NET *103 0.00327135
*CONN
*I *1179:C1 I *D sky130_fd_sc_hd__a311o_1
*I *1180:A I *D sky130_fd_sc_hd__xnor2_1
*I *1056:Y O *D sky130_fd_sc_hd__nand2_1
*CAP
1 *1179:C1 8.17833e-05
2 *1180:A 0.000101464
3 *1056:Y 0.000713146
4 *103:10 0.000896394
5 *1179:C1 *1179:A2 4.88723e-05
6 *1179:C1 *1180:B 2.35985e-05
7 *1179:C1 *117:12 1.02504e-05
8 *1179:C1 *118:47 4.46186e-06
9 *1180:A *1179:A2 4.16955e-06
10 *1180:A *1180:B 0.000263862
11 *1180:A *301:30 0
12 *1180:A *305:45 0.000227729
13 *103:10 *305:6 0.000265794
14 *103:10 *305:8 6.05161e-06
15 *103:10 *305:82 0.000623771
*RES
1 *1056:Y *103:10 24.4696 
2 *103:10 *1180:A 17.9518 
3 *103:10 *1179:C1 15.2911 
*END

*D_NET *104 0.00202915
*CONN
*I *1065:A I *D sky130_fd_sc_hd__or2_1
*I *1200:B1_N I *D sky130_fd_sc_hd__a21bo_1
*I *1059:A I *D sky130_fd_sc_hd__nand2_1
*I *1057:Y O *D sky130_fd_sc_hd__nand2_1
*CAP
1 *1065:A 0.000277143
2 *1200:B1_N 0
3 *1059:A 8.26988e-05
4 *1057:Y 0.000124093
5 *104:21 0.000310112
6 *104:8 0.000239761
7 *1059:A *1058:A 2.8266e-06
8 *1059:A *1059:B 6.74815e-05
9 *1059:A *1200:A2 0
10 *1059:A *352:18 3.0285e-05
11 *1065:A *1057:A 0.000140933
12 *1065:A *1058:B 5.52302e-05
13 *1065:A *1200:A1 1.39726e-05
14 *1065:A *105:6 7.02836e-05
15 *104:8 *1057:A 0.000116336
16 *104:8 *1057:B 0.0001399
17 *104:8 *1058:B 0.000140933
18 *104:8 *1200:A1 0.000181796
19 *104:21 *1058:A 1.65558e-05
20 *104:21 *1356:A 1.19402e-05
21 *104:21 *352:18 6.8646e-06
*RES
1 *1057:Y *104:8 17.6214 
2 *104:8 *1059:A 15.7464 
3 *104:8 *104:21 5.23214 
4 *104:21 *1200:B1_N 9.3 
5 *104:21 *1065:A 14.4964 
*END

*D_NET *105 0.00121936
*CONN
*I *1059:B I *D sky130_fd_sc_hd__nand2_1
*I *1200:A1 I *D sky130_fd_sc_hd__a21bo_1
*I *1058:X O *D sky130_fd_sc_hd__or2_1
*CAP
1 *1059:B 7.33911e-05
2 *1200:A1 0.00021101
3 *1058:X 9.03232e-05
4 *105:6 0.000374725
5 *1059:B *370:120 0
6 *1200:A1 *1058:B 2.28598e-05
7 *1200:A1 *1200:A2 5.7616e-05
8 *1200:A1 *352:18 5.59013e-05
9 *1059:A *1059:B 6.74815e-05
10 *1065:A *1200:A1 1.39726e-05
11 *1065:A *105:6 7.02836e-05
12 *104:8 *1200:A1 0.000181796
*RES
1 *1058:X *105:6 10.6571 
2 *105:6 *1200:A1 21.6214 
3 *105:6 *1059:B 19.9429 
*END

*D_NET *106 0.00120793
*CONN
*I *1064:A I *D sky130_fd_sc_hd__or2_1
*I *1199:A I *D sky130_fd_sc_hd__xnor2_1
*I *1059:Y O *D sky130_fd_sc_hd__nand2_1
*CAP
1 *1064:A 0.000368939
2 *1199:A 0.000184712
3 *1059:Y 0
4 *106:4 0.000553651
5 *1064:A *1064:B 0.000100625
6 *1199:A *1200:A2 0
7 *1199:A *240:10 0
8 *1199:A *370:120 0
*RES
1 *1059:Y *106:4 9.3 
2 *106:4 *1199:A 21.3893 
3 *106:4 *1064:A 15.6036 
*END

*D_NET *107 0.00173566
*CONN
*I *1066:A I *D sky130_fd_sc_hd__nor2_1
*I *1204:A I *D sky130_fd_sc_hd__xor2_1
*I *1070:A1 I *D sky130_fd_sc_hd__o21a_1
*I *1060:Y O *D sky130_fd_sc_hd__xnor2_1
*CAP
1 *1066:A 0
2 *1204:A 0
3 *1070:A1 0.000269545
4 *1060:Y 0.000106875
5 *107:16 0.000435245
6 *107:10 0.000272576
7 *1070:A1 *1066:B 1.39726e-05
8 *1070:A1 *1069:A 0.000139783
9 *1070:A1 *1203:A 0
10 *1070:A1 *1203:C 0
11 *1070:A1 *1204:B 5.33433e-05
12 *1070:A1 *111:12 0
13 *107:10 *1060:A 3.48001e-05
14 *107:10 *1068:A2 0
15 *107:10 *1289:D 0.000128146
16 *107:10 *353:32 4.46186e-06
17 *107:16 *1066:B 9.76271e-05
18 *107:16 *1069:A 2.6949e-05
19 *107:16 *1289:D 0.00015234
*RES
1 *1060:Y *107:10 15.9786 
2 *107:10 *107:16 8.71429 
3 *107:16 *1070:A1 24.3357 
4 *107:16 *1204:A 9.3 
5 *107:10 *1066:A 13.8 
*END

*D_NET *108 0.0010985
*CONN
*I *1063:A I *D sky130_fd_sc_hd__nand2_1
*I *1203:A I *D sky130_fd_sc_hd__and3_1
*I *1061:Y O *D sky130_fd_sc_hd__nand2_1
*CAP
1 *1063:A 0.000152511
2 *1203:A 0.000233366
3 *1061:Y 8.08281e-05
4 *108:8 0.000466705
5 *1063:A *370:24 0.000151061
6 *1203:A *1063:B 0
7 *1203:A *1068:C1 0
8 *1203:A *1069:A 0
9 *1203:A *112:6 1.40306e-05
10 *1203:A *314:16 0
11 *108:8 *1063:B 0
12 *108:8 *1068:C1 0
13 *1070:A1 *1203:A 0
*RES
1 *1061:Y *108:8 15.1393 
2 *108:8 *1203:A 17.8 
3 *108:8 *1063:A 16.8179 
*END

*D_NET *109 0.000342463
*CONN
*I *1063:B I *D sky130_fd_sc_hd__nand2_1
*I *1062:X O *D sky130_fd_sc_hd__or2_1
*CAP
1 *1063:B 0.000122824
2 *1062:X 0.000122824
3 *1063:B *110:12 4.15914e-05
4 *1063:B *314:16 0
5 *1063:B *353:8 5.52238e-05
6 *1203:A *1063:B 0
7 *108:8 *1063:B 0
*RES
1 *1062:X *1063:B 29.7786 
*END

*D_NET *110 0.00347363
*CONN
*I *1065:B I *D sky130_fd_sc_hd__or2_1
*I *1064:B I *D sky130_fd_sc_hd__or2_1
*I *1202:A I *D sky130_fd_sc_hd__xnor2_1
*I *1063:Y O *D sky130_fd_sc_hd__nand2_1
*CAP
1 *1065:B 0
2 *1064:B 0.000127909
3 *1202:A 0.000557581
4 *1063:Y 0.000226939
5 *110:27 0.00023529
6 *110:12 0.000891901
7 *1064:B *1355:A 0.000129868
8 *1064:B *314:16 0.000128161
9 *1202:A *1288:D 0.000106524
10 *110:12 *314:16 0
11 *110:12 *353:8 5.33334e-05
12 *110:27 *1355:A 0.000431827
13 *110:27 *314:16 0.000442078
14 *1063:B *110:12 4.15914e-05
15 *1064:A *1064:B 0.000100625
*RES
1 *1063:Y *110:12 22.425 
2 *110:12 *1202:A 18.6036 
3 *110:12 *110:27 10.0893 
4 *110:27 *1064:B 17.2107 
5 *110:27 *1065:B 13.8 
*END

*D_NET *111 0.000926806
*CONN
*I *1070:A2 I *D sky130_fd_sc_hd__o21a_1
*I *1201:B1 I *D sky130_fd_sc_hd__a21o_1
*I *1064:X O *D sky130_fd_sc_hd__or2_1
*CAP
1 *1070:A2 0.00016875
2 *1201:B1 0
3 *1064:X 0.000204605
4 *111:12 0.000373355
5 *1070:A2 *116:8 4.88637e-05
6 *1070:A2 *116:18 5.52302e-05
7 *1070:A2 *117:12 3.67257e-05
8 *111:12 *1203:C 3.92757e-05
9 *111:12 *116:18 0
10 *111:12 *314:16 0
11 *1070:A1 *111:12 0
*RES
1 *1064:X *111:12 21.1929 
2 *111:12 *1201:B1 9.3 
3 *111:12 *1070:A2 12.7286 
*END

*D_NET *112 0.00182661
*CONN
*I *1066:B I *D sky130_fd_sc_hd__nor2_1
*I *1203:B I *D sky130_fd_sc_hd__and3_1
*I *1065:X O *D sky130_fd_sc_hd__or2_1
*CAP
1 *1066:B 0.000377156
2 *1203:B 0
3 *1065:X 0.000293245
4 *112:6 0.000670401
5 *1066:B *1068:A2 4.1331e-06
6 *1066:B *1069:A 7.83659e-05
7 *1066:B *1203:C 5.33702e-07
8 *1066:B *1204:B 0.000276211
9 *112:6 *1203:C 9.33978e-07
10 *1070:A1 *1066:B 1.39726e-05
11 *1203:A *112:6 1.40306e-05
12 *107:16 *1066:B 9.76271e-05
*RES
1 *1065:X *112:6 12.7107 
2 *112:6 *1203:B 9.3 
3 *112:6 *1066:B 24.4786 
*END

*D_NET *113 0.00052678
*CONN
*I *1068:B1 I *D sky130_fd_sc_hd__a211o_1
*I *1066:Y O *D sky130_fd_sc_hd__nor2_1
*CAP
1 *1068:B1 0.000168322
2 *1066:Y 0.000168322
3 *1068:B1 *370:24 0.000190136
*RES
1 *1066:Y *1068:B1 22.0286 
*END

*D_NET *114 0.000222014
*CONN
*I *1068:C1 I *D sky130_fd_sc_hd__a211o_1
*I *1067:X O *D sky130_fd_sc_hd__o211a_1
*CAP
1 *1068:C1 8.70148e-05
2 *1067:X 8.70148e-05
3 *1068:C1 *1068:A1 4.79842e-05
4 *1203:A *1068:C1 0
5 *108:8 *1068:C1 0
*RES
1 *1067:X *1068:C1 29.2429 
*END

*D_NET *115 0.000857363
*CONN
*I *1069:A I *D sky130_fd_sc_hd__inv_2
*I *1068:X O *D sky130_fd_sc_hd__a211o_1
*CAP
1 *1069:A 0.000306132
2 *1068:X 0.000306132
3 *1066:B *1069:A 7.83659e-05
4 *1070:A1 *1069:A 0.000139783
5 *1203:A *1069:A 0
6 *107:16 *1069:A 2.6949e-05
*RES
1 *1068:X *1069:A 34.4036 
*END

*D_NET *116 0.0017354
*CONN
*I *1070:B1 I *D sky130_fd_sc_hd__o21a_1
*I *1179:A1 I *D sky130_fd_sc_hd__a311o_1
*I *1178:A1 I *D sky130_fd_sc_hd__a31oi_1
*I *1069:Y O *D sky130_fd_sc_hd__inv_2
*CAP
1 *1070:B1 0
2 *1179:A1 1.33452e-05
3 *1178:A1 6.61121e-05
4 *1069:Y 0.000146032
5 *116:18 0.000358769
6 *116:8 0.000425343
7 *1178:A1 *1178:B1 4.87953e-05
8 *1178:A1 *1179:A2 3.48705e-05
9 *1178:A1 *1179:A3 0.000270326
10 *1178:A1 *118:28 5.52238e-05
11 *1179:A1 *1178:B1 5.7661e-06
12 *1179:A1 *1179:A3 1.97695e-05
13 *1179:A1 *118:19 0
14 *116:18 *1179:A2 1.74352e-05
15 *116:18 *1179:A3 5.52238e-05
16 *116:18 *1201:A2 0
17 *116:18 *117:12 0.000114296
18 *1070:A2 *116:8 4.88637e-05
19 *1070:A2 *116:18 5.52302e-05
20 *111:12 *116:18 0
*RES
1 *1069:Y *116:8 11.9071 
2 *116:8 *116:18 14.75 
3 *116:18 *1178:A1 11.8893 
4 *116:18 *1179:A1 9.72857 
5 *116:8 *1070:B1 9.3 
*END

*D_NET *117 0.00102383
*CONN
*I *1179:B1 I *D sky130_fd_sc_hd__a311o_1
*I *1178:B1 I *D sky130_fd_sc_hd__a31oi_1
*I *1070:X O *D sky130_fd_sc_hd__o21a_1
*CAP
1 *1179:B1 0
2 *1178:B1 5.75038e-05
3 *1070:X 0.000234329
4 *117:12 0.000291833
5 *1178:B1 *1179:A2 0.00010009
6 *1178:B1 *118:19 3.99614e-06
7 *117:12 *1201:A1 4.57538e-05
8 *117:12 *118:47 7.44918e-05
9 *1070:A2 *117:12 3.67257e-05
10 *1178:A1 *1178:B1 4.87953e-05
11 *1179:A1 *1178:B1 5.7661e-06
12 *1179:C1 *117:12 1.02504e-05
13 *116:18 *117:12 0.000114296
*RES
1 *1070:X *117:12 23.6214 
2 *117:12 *1178:B1 11.1036 
3 *117:12 *1179:B1 9.3 
*END

*D_NET *118 0.00380908
*CONN
*I *1201:A1 I *D sky130_fd_sc_hd__a21o_1
*I *1198:A I *D sky130_fd_sc_hd__nand2_1
*I *1179:A2 I *D sky130_fd_sc_hd__a311o_1
*I *1178:A2 I *D sky130_fd_sc_hd__a31oi_1
*I *1073:A I *D sky130_fd_sc_hd__nand2_1
*I *1071:Y O *D sky130_fd_sc_hd__nand2_1
*CAP
1 *1201:A1 5.36765e-05
2 *1198:A 0.000299584
3 *1179:A2 0.000246593
4 *1178:A2 0
5 *1073:A 2.23854e-05
6 *1071:Y 0.000311116
7 *118:47 0.000464225
8 *118:28 0.000398872
9 *118:19 0.000139815
10 *118:8 0.000432001
11 *1073:A *314:16 0
12 *1179:A2 *1178:A3 4.1331e-06
13 *1179:A2 *1180:B 1.02504e-05
14 *1179:A2 *351:27 0
15 *1198:A *224:20 0.000528337
16 *1201:A1 *1201:A2 4.29272e-05
17 *118:8 *1071:B 0.000271345
18 *118:8 *314:16 4.43256e-05
19 *118:19 *1179:A3 5.52302e-05
20 *118:28 *1179:A3 1.69961e-05
21 *118:47 *1178:A3 1.46624e-05
22 *118:47 *1201:A2 9.69119e-06
23 *118:47 *224:22 5.35516e-05
24 *1178:A1 *1179:A2 3.48705e-05
25 *1178:A1 *118:28 5.52238e-05
26 *1178:B1 *1179:A2 0.00010009
27 *1178:B1 *118:19 3.99614e-06
28 *1179:A1 *118:19 0
29 *1179:C1 *1179:A2 4.88723e-05
30 *1179:C1 *118:47 4.46186e-06
31 *1180:A *1179:A2 4.16955e-06
32 *116:18 *1179:A2 1.74352e-05
33 *117:12 *1201:A1 4.57538e-05
34 *117:12 *118:47 7.44918e-05
*RES
1 *1071:Y *118:8 13.8536 
2 *118:8 *1073:A 9.72857 
3 *118:8 *118:19 2.19643 
4 *118:19 *1178:A2 9.3 
5 *118:19 *118:28 5.44643 
6 *118:28 *1179:A2 17.8 
7 *118:28 *118:47 2.85714 
8 *118:47 *1198:A 20.0857 
9 *118:47 *1201:A1 15.4429 
*END

*D_NET *119 0.000107751
*CONN
*I *1073:B I *D sky130_fd_sc_hd__nand2_1
*I *1072:X O *D sky130_fd_sc_hd__or2_1
*CAP
1 *1073:B 1.03267e-05
2 *1072:X 1.03267e-05
3 *1073:B *120:10 3.18676e-05
4 *1073:B *314:16 5.52302e-05
*RES
1 *1072:X *1073:B 19.1357 
*END

*D_NET *120 0.00239759
*CONN
*I *1177:B1 I *D sky130_fd_sc_hd__a21o_1
*I *1196:A I *D sky130_fd_sc_hd__and3_1
*I *1176:B1 I *D sky130_fd_sc_hd__a21oi_1
*I *1073:Y O *D sky130_fd_sc_hd__nand2_1
*CAP
1 *1177:B1 1.88369e-05
2 *1196:A 0.000156734
3 *1176:B1 0
4 *1073:Y 0.000465838
5 *120:19 0.000299458
6 *120:10 0.000589725
7 *1177:B1 *1176:A2 3.99614e-06
8 *1177:B1 *1177:A2 3.99614e-06
9 *1196:A *1176:A1 4.72917e-05
10 *1196:A *1176:A2 8.07313e-05
11 *1196:A *1177:A2 0
12 *1196:A *218:14 2.59355e-05
13 *1196:A *218:21 0.000117621
14 *1196:A *222:14 9.50968e-06
15 *1196:A *222:21 9.87489e-05
16 *120:10 *1071:A 3.03304e-05
17 *120:10 *1071:B 3.48705e-05
18 *120:10 *1072:B 0.0001399
19 *120:10 *314:16 2.77289e-05
20 *120:19 *1071:B 0
21 *120:19 *1176:A1 7.03295e-05
22 *120:19 *1176:A2 8.69966e-05
23 *120:19 *224:14 5.71472e-05
24 *1073:B *120:10 3.18676e-05
*RES
1 *1073:Y *120:10 16.55 
2 *120:10 *1176:B1 9.3 
3 *120:10 *120:19 3.32143 
4 *120:19 *1196:A 13.8536 
5 *120:19 *1177:B1 9.72857 
*END

*D_NET *121 0.00082716
*CONN
*I *1086:B1 I *D sky130_fd_sc_hd__o21a_1
*I *1077:A I *D sky130_fd_sc_hd__nand2_1
*I *1074:Y O *D sky130_fd_sc_hd__nand2_1
*CAP
1 *1086:B1 5.60489e-05
2 *1077:A 0.000113308
3 *1074:Y 3.97326e-05
4 *121:6 0.00020909
5 *1077:A *1077:B 0
6 *1077:A *125:14 0
7 *1077:A *335:31 1.52978e-05
8 *1086:B1 *1074:B 9.71197e-05
9 *1086:B1 *1076:A 2.69949e-05
10 *1086:B1 *335:16 0
11 *121:6 *1074:B 0.000186662
12 *121:6 *1086:A1 5.33334e-05
13 *121:6 *1086:A2 2.95726e-05
*RES
1 *1074:Y *121:6 11.0679 
2 *121:6 *1077:A 20.2464 
3 *121:6 *1086:B1 11.3536 
*END

*D_NET *122 0.000531612
*CONN
*I *1086:A1 I *D sky130_fd_sc_hd__o21a_1
*I *1075:Y O *D sky130_fd_sc_hd__nor2_1
*CAP
1 *1086:A1 0.000131828
2 *1075:Y 0.000131828
3 *1086:A1 *1074:A 1.88048e-05
4 *1086:A1 *1075:A 3.18676e-05
5 *1086:A1 *1076:A 2.14658e-05
6 *1086:A1 *1086:A2 5.71472e-05
7 *1086:A1 *328:10 2.34204e-05
8 *1086:A1 *335:31 6.19181e-05
9 *121:6 *1086:A1 5.33334e-05
*RES
1 *1075:Y *1086:A1 30.725 
*END

*D_NET *123 0.000596782
*CONN
*I *1077:B I *D sky130_fd_sc_hd__nand2_1
*I *1076:X O *D sky130_fd_sc_hd__or2_1
*CAP
1 *1077:B 0.000154783
2 *1076:X 0.000154783
3 *1077:B *1120:B1 0.000148903
4 *1077:B *257:6 9.90367e-05
5 *1077:B *335:31 3.92757e-05
6 *1077:A *1077:B 0
*RES
1 *1076:X *1077:B 31.1 
*END

*D_NET *124 0.00272298
*CONN
*I *1235:A I *D sky130_fd_sc_hd__xnor2_1
*I *1084:A I *D sky130_fd_sc_hd__or3_1
*I *1085:A I *D sky130_fd_sc_hd__or3_1
*I *1077:Y O *D sky130_fd_sc_hd__nand2_1
*CAP
1 *1235:A 0.000642554
2 *1084:A 8.67035e-05
3 *1085:A 0
4 *1077:Y 0.000159405
5 *124:12 8.67035e-05
6 *124:10 0.000801959
7 *1084:A *1085:C 0.000268409
8 *1084:A *1120:C1 2.89016e-05
9 *1084:A *131:10 5.17614e-05
10 *1235:A *1120:B1 1.78447e-05
11 *1235:A *1120:C1 5.33882e-05
12 *1235:A *1273:D 4.0552e-05
13 *1235:A *368:90 0.000219064
14 *1235:A *368:100 0.000186669
15 *124:10 *1120:B1 4.71964e-05
16 *124:10 *127:23 0
17 *124:10 *257:6 3.18676e-05
*RES
1 *1077:Y *124:10 16.2821 
2 *124:10 *124:12 4.5 
3 *124:12 *1085:A 9.3 
4 *124:12 *1084:A 11.8893 
5 *124:10 *1235:A 25.3357 
*END

*D_NET *125 0.00131164
*CONN
*I *1086:A2 I *D sky130_fd_sc_hd__o21a_1
*I *1080:A I *D sky130_fd_sc_hd__nand2_1
*I *1234:B1_N I *D sky130_fd_sc_hd__a21bo_1
*I *1078:Y O *D sky130_fd_sc_hd__nand2_1
*CAP
1 *1086:A2 6.34863e-05
2 *1080:A 0
3 *1234:B1_N 8.39734e-05
4 *1078:Y 6.38296e-05
5 *125:14 0.000297798
6 *125:6 0.00034114
7 *1086:A2 *1074:B 1.00073e-05
8 *1086:A2 *1076:A 9.90431e-05
9 *1234:B1_N *1080:B 5.71472e-05
10 *1234:B1_N *257:6 4.14279e-05
11 *125:6 *1074:B 2.51343e-06
12 *125:6 *1079:A 1.92789e-05
13 *125:14 *1074:A 3.17163e-05
14 *125:14 *257:6 5.52238e-05
15 *125:14 *317:12 5.83304e-05
16 *125:14 *335:31 0
17 *125:14 *368:100 0
18 *1077:A *125:14 0
19 *1086:A1 *1086:A2 5.71472e-05
20 *121:6 *1086:A2 2.95726e-05
*RES
1 *1078:Y *125:6 10.2464 
2 *125:6 *125:14 12.3929 
3 *125:14 *1234:B1_N 11.0857 
4 *125:14 *1080:A 9.3 
5 *125:6 *1086:A2 11.0679 
*END

*D_NET *126 0.000646705
*CONN
*I *1080:B I *D sky130_fd_sc_hd__nand2_1
*I *1234:A1 I *D sky130_fd_sc_hd__a21bo_1
*I *1079:X O *D sky130_fd_sc_hd__or2_1
*CAP
1 *1080:B 8.08421e-05
2 *1234:A1 0
3 *1079:X 7.72952e-05
4 *126:10 0.000158137
5 *1080:B *257:6 0.000227539
6 *126:10 *302:22 0
7 *126:10 *368:100 4.57445e-05
8 *1234:B1_N *1080:B 5.71472e-05
*RES
1 *1079:X *126:10 19.9429 
2 *126:10 *1234:A1 9.3 
3 *126:10 *1080:B 11.4786 
*END

*D_NET *127 0.00342336
*CONN
*I *1084:B I *D sky130_fd_sc_hd__or3_1
*I *1085:B I *D sky130_fd_sc_hd__or3_1
*I *1233:A I *D sky130_fd_sc_hd__xnor2_1
*I *1080:Y O *D sky130_fd_sc_hd__nand2_1
*CAP
1 *1084:B 0.000156591
2 *1085:B 0
3 *1233:A 0.000478421
4 *1080:Y 0
5 *127:23 0.000572858
6 *127:4 0.000894688
7 *1084:B *1085:C 0.000120519
8 *1233:A *1233:B 0.000661699
9 *1233:A *1235:B 0.00014183
10 *1233:A *257:6 0.000317082
11 *127:23 *1085:C 5.17614e-05
12 *127:23 *368:100 2.79092e-05
13 *124:10 *127:23 0
*RES
1 *1080:Y *127:4 9.3 
2 *127:4 *1233:A 20.0321 
3 *127:4 *127:23 14.2679 
4 *127:23 *1085:B 9.3 
5 *127:23 *1084:B 11.4786 
*END

*D_NET *128 0.00192415
*CONN
*I *1085:C I *D sky130_fd_sc_hd__or3_1
*I *1083:A I *D sky130_fd_sc_hd__nand2_1
*I *1232:B1_N I *D sky130_fd_sc_hd__a21bo_1
*I *1081:Y O *D sky130_fd_sc_hd__nand2_1
*CAP
1 *1085:C 0.000348566
2 *1083:A 4.05517e-05
3 *1232:B1_N 0
4 *1081:Y 8.29479e-05
5 *128:12 0.000199462
6 *128:8 0.000590424
7 *1083:A *1232:A1 3.76337e-05
8 *1085:C *1084:C 5.52238e-05
9 *1085:C *1232:A2 0
10 *1085:C *129:12 0
11 *1085:C *130:12 0
12 *1085:C *335:12 0
13 *128:8 *129:12 0
14 *128:8 *335:12 0
15 *128:12 *1232:A1 0.000105163
16 *128:12 *1232:A2 1.74352e-05
17 *128:12 *257:6 6.05161e-06
18 *1084:A *1085:C 0.000268409
19 *1084:B *1085:C 0.000120519
20 *127:23 *1085:C 5.17614e-05
*RES
1 *1081:Y *128:8 15.1393 
2 *128:8 *128:12 7.5 
3 *128:12 *1232:B1_N 9.3 
4 *128:12 *1083:A 10.2643 
5 *128:8 *1085:C 21.3179 
*END

*D_NET *129 0.00135055
*CONN
*I *1232:A1 I *D sky130_fd_sc_hd__a21bo_1
*I *1083:B I *D sky130_fd_sc_hd__nand2_1
*I *1082:X O *D sky130_fd_sc_hd__or2_1
*CAP
1 *1232:A1 9.48824e-05
2 *1083:B 0
3 *1082:X 0.000271831
4 *129:12 0.000366713
5 *1232:A1 *1232:A2 0.000232399
6 *1232:A1 *130:12 2.44318e-05
7 *129:12 *1081:A 0
8 *129:12 *1342:A 0.000116535
9 acc[12] *129:12 0.00010096
10 *1083:A *1232:A1 3.76337e-05
11 *1085:C *129:12 0
12 *128:8 *129:12 0
13 *128:12 *1232:A1 0.000105163
*RES
1 *1082:X *129:12 23.3179 
2 *129:12 *1083:B 9.3 
3 *129:12 *1232:A1 12.7286 
*END

*D_NET *130 0.00101413
*CONN
*I *1231:A I *D sky130_fd_sc_hd__xnor2_1
*I *1084:C I *D sky130_fd_sc_hd__or3_1
*I *1083:Y O *D sky130_fd_sc_hd__nand2_1
*CAP
1 *1231:A 0
2 *1084:C 0.000151836
3 *1083:Y 0.000217206
4 *130:12 0.000369042
5 *130:12 *1232:A2 0.000188594
6 *130:12 *256:8 7.79781e-06
7 *1085:C *1084:C 5.52238e-05
8 *1085:C *130:12 0
9 *1232:A1 *130:12 2.44318e-05
*RES
1 *1083:Y *130:12 22.0143 
2 *130:12 *1084:C 11.8893 
3 *130:12 *1231:A 9.3 
*END

*D_NET *131 0.00190263
*CONN
*I *1119:B1 I *D sky130_fd_sc_hd__a211oi_1
*I *1120:A1 I *D sky130_fd_sc_hd__o211ai_1
*I *1084:X O *D sky130_fd_sc_hd__or3_1
*CAP
1 *1119:B1 0.000480047
2 *1120:A1 0
3 *1084:X 0.000251536
4 *131:10 0.000731583
5 *1119:B1 *1119:C1 1.72894e-05
6 *1119:B1 *166:6 8.03176e-05
7 *1119:B1 *368:90 0
8 *131:10 *1120:B1 1.91512e-05
9 *131:10 *335:12 0.000270943
10 *131:10 *368:90 0
11 *1084:A *131:10 5.17614e-05
*RES
1 *1084:X *131:10 19.1214 
2 *131:10 *1120:A1 13.8 
3 *131:10 *1119:B1 21.2821 
*END

*D_NET *132 0.000767885
*CONN
*I *1120:C1 I *D sky130_fd_sc_hd__o211ai_1
*I *1085:X O *D sky130_fd_sc_hd__or3_1
*CAP
1 *1120:C1 0.000182786
2 *1085:X 0.000182786
3 *1120:C1 *1120:B1 0.000320024
4 *1120:C1 *368:90 0
5 *1084:A *1120:C1 2.89016e-05
6 *1235:A *1120:C1 5.33882e-05
*RES
1 *1085:X *1120:C1 32.2071 
*END

*D_NET *133 0.001643
*CONN
*I *1120:B1 I *D sky130_fd_sc_hd__o211ai_1
*I *1086:X O *D sky130_fd_sc_hd__o21a_1
*CAP
1 *1120:B1 0.000306431
2 *1086:X 0.000306431
3 *1120:B1 *1076:A 3.05446e-05
4 *1120:B1 *335:12 0.000350386
5 *1120:B1 *335:16 9.60875e-05
6 *1077:B *1120:B1 0.000148903
7 *1120:C1 *1120:B1 0.000320024
8 *1235:A *1120:B1 1.78447e-05
9 *124:10 *1120:B1 4.71964e-05
10 *131:10 *1120:B1 1.91512e-05
*RES
1 *1086:X *1120:B1 37.7786 
*END

*D_NET *134 0.0021054
*CONN
*I *1089:A I *D sky130_fd_sc_hd__nand2_1
*I *1230:A I *D sky130_fd_sc_hd__nand2_1
*I *1120:A2 I *D sky130_fd_sc_hd__o211ai_1
*I *1087:Y O *D sky130_fd_sc_hd__nand2_1
*CAP
1 *1089:A 2.23854e-05
2 *1230:A 2.23854e-05
3 *1120:A2 0.000284756
4 *1087:Y 0.00034137
5 *134:14 0.000591624
6 *134:12 0.000648237
7 *1120:A2 *335:12 6.05161e-06
8 *134:12 *1030:A 4.57445e-05
9 *134:12 *1089:B 0.00014285
10 *134:12 *366:12 0
*RES
1 *1087:Y *134:12 24.5857 
2 *134:12 *134:14 4.64286 
3 *134:14 *1120:A2 13.9429 
4 *134:14 *1230:A 9.72857 
5 *134:12 *1089:A 9.72857 
*END

*D_NET *135 0.000493647
*CONN
*I *1089:B I *D sky130_fd_sc_hd__nand2_1
*I *1088:X O *D sky130_fd_sc_hd__or2_1
*CAP
1 *1089:B 0.000149094
2 *1088:X 0.000149094
3 *1089:B *1030:A 5.26091e-05
4 *1089:B *1342:A 0
5 *134:12 *1089:B 0.00014285
*RES
1 *1088:X *1089:B 30.9036 
*END

*D_NET *136 0.00184472
*CONN
*I *1118:B1 I *D sky130_fd_sc_hd__a21o_1
*I *1119:C1 I *D sky130_fd_sc_hd__a211oi_1
*I *1228:A I *D sky130_fd_sc_hd__nand3_1
*I *1089:Y O *D sky130_fd_sc_hd__nand2_1
*CAP
1 *1118:B1 1.09088e-05
2 *1119:C1 0.000129598
3 *1228:A 0
4 *1089:Y 0.000282773
5 *136:23 0.000187187
6 *136:14 0.000329453
7 *1118:B1 *1118:A2 3.99614e-06
8 *1118:B1 *1119:A2 3.99614e-06
9 *1119:C1 *1119:A1 0.000188586
10 *1119:C1 *1119:A2 5.76121e-05
11 *136:14 *1030:A 0
12 *136:14 *1118:A2 3.57366e-05
13 *136:14 *1228:C 3.17148e-05
14 *136:14 *1342:A 0
15 *136:14 *161:10 4.35336e-05
16 *136:14 *161:12 1.74352e-05
17 *136:14 *164:10 0.000101545
18 *136:14 *164:14 0.00014285
19 *136:23 *1119:A1 9.90367e-05
20 *136:23 *1119:A2 4.70078e-05
21 *136:23 *1228:B 1.04232e-05
22 *136:23 *161:12 8.66063e-05
23 *136:23 *164:14 1.74352e-05
24 *1119:B1 *1119:C1 1.72894e-05
*RES
1 *1089:Y *136:14 24.5679 
2 *136:14 *1228:A 9.3 
3 *136:14 *136:23 2.19643 
4 *136:23 *1119:C1 12.7286 
5 *136:23 *1118:B1 9.72857 
*END

*D_NET *137 0.00234716
*CONN
*I *1098:A I *D sky130_fd_sc_hd__nor3_2
*I *1248:A1 I *D sky130_fd_sc_hd__o21a_1
*I *1250:A I *D sky130_fd_sc_hd__nor2_1
*I *1099:B1 I *D sky130_fd_sc_hd__a21o_1
*I *1090:X O *D sky130_fd_sc_hd__and2_1
*CAP
1 *1098:A 0
2 *1248:A1 3.72884e-05
3 *1250:A 0.000133103
4 *1099:B1 0.000302751
5 *1090:X 0.000125889
6 *137:14 0.000543606
7 *137:12 0.000249667
8 *137:10 0.000230517
9 *1099:B1 *1099:A1 5.80706e-06
10 *1099:B1 *1100:B 6.85604e-05
11 *1099:B1 *145:10 9.69119e-06
12 *1099:B1 *145:12 0.000187882
13 *1250:A *1250:B 0.00014285
14 *137:10 *138:10 0.000130066
15 *137:12 *1248:A2 9.4736e-05
16 *137:12 *138:10 5.80706e-06
17 *137:12 *145:10 5.90443e-06
18 *137:14 *145:10 7.30398e-05
19 *1265:RESET_B *1099:B1 0
*RES
1 *1090:X *137:10 16.2821 
2 *137:10 *137:12 2.55357 
3 *137:12 *137:14 2.55357 
4 *137:14 *1099:B1 20.9071 
5 *137:14 *1250:A 16.3893 
6 *137:12 *1248:A1 14.3357 
7 *137:10 *1098:A 13.8 
*END

*D_NET *138 0.00131128
*CONN
*I *1098:B I *D sky130_fd_sc_hd__nor3_2
*I *1248:A2 I *D sky130_fd_sc_hd__o21a_1
*I *1091:Y O *D sky130_fd_sc_hd__nor2_1
*CAP
1 *1098:B 0
2 *1248:A2 5.53614e-05
3 *1091:Y 0.000245546
4 *138:10 0.000300908
5 *1248:A2 *1249:A 5.83304e-05
6 *1248:A2 *145:10 0.000128146
7 *138:10 *1090:B 2.44318e-05
8 *138:10 *1091:B 0.00010096
9 *138:10 *1249:A 0.000166983
10 *137:10 *138:10 0.000130066
11 *137:12 *1248:A2 9.4736e-05
12 *137:12 *138:10 5.80706e-06
*RES
1 *1091:Y *138:10 19.4607 
2 *138:10 *1248:A2 16.05 
3 *138:10 *1098:B 13.8 
*END

*D_NET *139 0.000854673
*CONN
*I *1093:A I *D sky130_fd_sc_hd__inv_2
*I *1097:B1 I *D sky130_fd_sc_hd__o21a_1
*I *1092:Y O *D sky130_fd_sc_hd__nand2_1
*CAP
1 *1093:A 2.23854e-05
2 *1097:B1 0.000217207
3 *1092:Y 6.89735e-05
4 *139:6 0.000308566
5 *1093:A *1092:A 0
6 *1097:B1 *1092:B 0
7 *1097:B1 *1095:A 0
8 *1097:B1 *1097:A2 5.80706e-06
9 *1097:B1 *321:12 0.000102207
10 *139:6 *1095:A 2.89016e-05
11 *139:6 *321:12 0.000100625
*RES
1 *1092:Y *139:6 11.0679 
2 *139:6 *1097:B1 22.6214 
3 *139:6 *1093:A 9.72857 
*END

*D_NET *140 0.000402222
*CONN
*I *1095:A I *D sky130_fd_sc_hd__nor2_1
*I *1093:Y O *D sky130_fd_sc_hd__inv_2
*CAP
1 *1095:A 0.000120446
2 *1093:Y 0.000120446
3 *1095:A *1092:B 0.000126623
4 *1095:A *1097:A2 0
5 *1095:A *1262:CLK 5.80706e-06
6 *1097:B1 *1095:A 0
7 *139:6 *1095:A 2.89016e-05
*RES
1 *1093:Y *1095:A 30.0821 
*END

*D_NET *141 0.000758892
*CONN
*I *1095:B I *D sky130_fd_sc_hd__nor2_1
*I *1097:A1 I *D sky130_fd_sc_hd__o21a_1
*I *1094:Y O *D sky130_fd_sc_hd__nor2_1
*CAP
1 *1095:B 0
2 *1097:A1 2.21705e-05
3 *1094:Y 0.000232747
4 *141:16 0.000254918
5 *1097:A1 *1247:A 2.14757e-05
6 *141:16 *1097:A2 0
7 *141:16 *1247:A 5.71472e-05
8 *141:16 *1262:CLK 0.000101545
9 *141:16 *143:14 1.55885e-05
10 *141:16 *345:29 5.33005e-05
*RES
1 *1094:Y *141:16 22.3714 
2 *141:16 *1097:A1 9.83571 
3 *141:16 *1095:B 9.3 
*END

*D_NET *142 0.000474399
*CONN
*I *1247:A I *D sky130_fd_sc_hd__xnor2_1
*I *1095:Y O *D sky130_fd_sc_hd__nor2_1
*CAP
1 *1247:A 0.000132954
2 *1095:Y 0.000132954
3 *1247:A *1097:A2 0.000129868
4 *1247:A *1262:CLK 0
5 *1097:A1 *1247:A 2.14757e-05
6 *141:16 *1247:A 5.71472e-05
*RES
1 *1095:Y *1247:A 30.1893 
*END

*D_NET *143 0.0020074
*CONN
*I *1253:A I *D sky130_fd_sc_hd__and2_1
*I *1247:B I *D sky130_fd_sc_hd__xnor2_1
*I *1097:A2 I *D sky130_fd_sc_hd__o21a_1
*I *1096:Y O *D sky130_fd_sc_hd__nand2_1
*CAP
1 *1253:A 0
2 *1247:B 0
3 *1097:A2 0.0001766
4 *1096:Y 0.000176791
5 *143:14 0.000431392
6 *143:12 0.000431582
7 *1097:A2 *1262:CLK 0
8 *143:12 *1096:A 6.5185e-05
9 *143:12 *345:29 6.74911e-05
10 *143:14 *1092:B 5.52302e-05
11 *143:14 *1253:B 9.71197e-05
12 *143:14 *1263:D 0.00018372
13 *143:14 *345:29 0.000171023
14 *1095:A *1097:A2 0
15 *1097:B1 *1097:A2 5.80706e-06
16 *1247:A *1097:A2 0.000129868
17 *141:16 *1097:A2 0
18 *141:16 *143:14 1.55885e-05
*RES
1 *1096:Y *143:12 21.3 
2 *143:12 *143:14 6.28571 
3 *143:14 *1097:A2 21.8 
4 *143:14 *1247:B 9.3 
5 *143:12 *1253:A 9.3 
*END

*D_NET *144 0.00115449
*CONN
*I *1098:C I *D sky130_fd_sc_hd__nor3_2
*I *1248:B1 I *D sky130_fd_sc_hd__o21a_1
*I *1097:X O *D sky130_fd_sc_hd__o21a_1
*CAP
1 *1098:C 0
2 *1248:B1 9.4794e-05
3 *1097:X 0.000373127
4 *144:6 0.000467921
5 *1248:B1 *1249:A 7.29667e-05
6 *1248:B1 *1249:B 0
7 *1248:B1 *145:10 0.000129868
8 *144:6 *145:8 1.58163e-05
*RES
1 *1097:X *144:6 15.175 
2 *144:6 *1248:B1 20.8536 
3 *144:6 *1098:C 9.3 
*END

*D_NET *145 0.00439174
*CONN
*I *1249:A I *D sky130_fd_sc_hd__nor2_1
*I *1250:B I *D sky130_fd_sc_hd__nor2_1
*I *1101:B1 I *D sky130_fd_sc_hd__o22ai_1
*I *1114:B1 I *D sky130_fd_sc_hd__o221ai_4
*I *1098:Y O *D sky130_fd_sc_hd__nor3_2
*CAP
1 *1249:A 0.000311621
2 *1250:B 0.000125656
3 *1101:B1 5.92302e-05
4 *1114:B1 5.78275e-05
5 *1098:Y 4.91556e-05
6 *145:12 0.000458587
7 *145:10 0.000634161
8 *145:8 0.000527752
9 *1101:B1 *1101:B2 4.87854e-05
10 *1114:B1 *1099:A1 0
11 *1114:B1 *1114:B2 0.00012401
12 *1114:B1 *1270:CLK 0.000148189
13 *1249:A *1249:B 0
14 *1249:A *1264:D 2.27416e-05
15 *1250:B *1251:B 5.52302e-05
16 *145:12 *1099:A1 0
17 *145:12 *1114:B2 5.66157e-05
18 *145:12 *1251:B 0
19 *145:12 *1265:CLK 0.00034251
20 *145:12 *1270:CLK 0.000261707
21 *145:12 *146:8 0.000116481
22 *1099:B1 *145:10 9.69119e-06
23 *1099:B1 *145:12 0.000187882
24 *1248:A2 *1249:A 5.83304e-05
25 *1248:A2 *145:10 0.000128146
26 *1248:B1 *1249:A 7.29667e-05
27 *1248:B1 *145:10 0.000129868
28 *1250:A *1250:B 0.00014285
29 *137:12 *145:10 5.90443e-06
30 *137:14 *145:10 7.30398e-05
31 *138:10 *1249:A 0.000166983
32 *144:6 *145:8 1.58163e-05
*RES
1 *1098:Y *145:8 14.3357 
2 *145:8 *145:10 4.67857 
3 *145:10 *145:12 9.83929 
4 *145:12 *1114:B1 15.7464 
5 *145:12 *1101:B1 14.7464 
6 *145:10 *1250:B 16.4071 
7 *145:8 *1249:A 20.3893 
*END

*D_NET *146 0.00134055
*CONN
*I *1101:B2 I *D sky130_fd_sc_hd__o22ai_1
*I *1114:B2 I *D sky130_fd_sc_hd__o221ai_4
*I *1099:X O *D sky130_fd_sc_hd__a21o_1
*CAP
1 *1101:B2 7.99615e-05
2 *1114:B2 0.000142159
3 *1099:X 7.12967e-05
4 *146:8 0.000293418
5 *1101:B2 *148:10 0.000224577
6 *1114:B2 *1099:A1 0
7 *1114:B2 *324:8 5.33433e-05
8 *1114:B2 *360:43 0.000129901
9 *146:8 *1099:A1 0
10 *1101:B1 *1101:B2 4.87854e-05
11 *1114:B1 *1114:B2 0.00012401
12 *145:12 *1114:B2 5.66157e-05
13 *145:12 *146:8 0.000116481
*RES
1 *1099:X *146:8 15.4429 
2 *146:8 *1114:B2 17.425 
3 *146:8 *1101:B2 15.9786 
*END

*D_NET *147 0.000248386
*CONN
*I *1251:A I *D sky130_fd_sc_hd__xnor2_1
*I *1100:X O *D sky130_fd_sc_hd__xor2_1
*CAP
1 *1251:A 0.000106621
2 *1100:X 0.000106621
3 *1251:A *1251:B 3.51442e-05
4 *1251:A *1265:CLK 0
*RES
1 *1100:X *1251:A 29.5464 
*END

*D_NET *148 0.00198109
*CONN
*I *1237:A I *D sky130_fd_sc_hd__nand2_1
*I *1236:A I *D sky130_fd_sc_hd__or2_1
*I *1101:Y O *D sky130_fd_sc_hd__o22ai_1
*CAP
1 *1237:A 0.000150991
2 *1236:A 2.03441e-05
3 *1101:Y 0.000442963
4 *148:10 0.000614298
5 *1236:A *1238:A 5.7661e-06
6 *1237:A *1237:B 1.97695e-05
7 *1237:A *1238:A 7.37749e-05
8 *1237:A *1238:B 0.000117498
9 *1237:A *159:20 0.000222082
10 *148:10 *1113:C 5.41609e-05
11 *148:10 *159:20 3.48705e-05
12 *1101:B2 *148:10 0.000224577
*RES
1 *1101:Y *148:10 16.8536 
2 *148:10 *1236:A 9.72857 
3 *148:10 *1237:A 13.9964 
*END

*D_NET *149 0.00186538
*CONN
*I *1106:A I *D sky130_fd_sc_hd__or3_1
*I *1243:A I *D sky130_fd_sc_hd__and3_1
*I *1242:B1 I *D sky130_fd_sc_hd__a21oi_1
*I *1102:Y O *D sky130_fd_sc_hd__xnor2_1
*CAP
1 *1106:A 0.00021934
2 *1243:A 0
3 *1242:B1 3.60427e-05
4 *1102:Y 0.000236146
5 *149:21 0.000302944
6 *149:10 0.000355793
7 *1106:A *1116:B2 0.00014183
8 *1106:A *1242:A1 0
9 *1106:A *1242:A2 1.54142e-05
10 *1106:A *1243:C 9.30425e-05
11 *1106:A *154:18 0.000189923
12 *149:10 *1115:A1 3.92757e-05
13 *149:10 *1116:B1 0
14 *149:10 *1244:B 0
15 *149:10 *1245:B1 0
16 *149:10 *1259:A 0
17 *149:10 *263:12 0.000150625
18 *149:10 *364:14 0
19 *149:21 *1242:A1 2.78584e-05
20 *149:21 *1242:A2 5.71472e-05
21 *149:21 *1243:C 0
*RES
1 *1102:Y *149:10 22.675 
2 *149:10 *1242:B1 9.83571 
3 *149:10 *149:21 1.78571 
4 *149:21 *1243:A 9.3 
5 *149:21 *1106:A 14.3 
*END

*D_NET *150 0.00159542
*CONN
*I *1105:A I *D sky130_fd_sc_hd__nor2_1
*I *1106:B I *D sky130_fd_sc_hd__or3_1
*I *1115:B1 I *D sky130_fd_sc_hd__a21oi_1
*I *1103:X O *D sky130_fd_sc_hd__and2_1
*CAP
1 *1105:A 0
2 *1106:B 8.64825e-05
3 *1115:B1 0.000227243
4 *1103:X 1.74686e-05
5 *150:10 0.000522367
6 *150:6 0.00022611
7 *1106:B *1244:B 0
8 *1106:B *303:38 0.000177948
9 *1115:B1 *1115:A1 5.52238e-05
10 *1115:B1 *1244:A 4.27935e-05
11 *1115:B1 *1268:D 2.44318e-05
12 *1115:B1 *263:12 0.00014285
13 *150:6 *151:6 3.18676e-05
14 *150:10 *1105:B 5.7661e-06
15 *150:10 *151:6 3.48705e-05
*RES
1 *1103:X *150:6 9.83571 
2 *150:6 *150:10 3.42857 
3 *150:10 *1115:B1 13.5321 
4 *150:10 *1106:B 20.55 
5 *150:6 *1105:A 9.3 
*END

*D_NET *151 0.00179228
*CONN
*I *1106:C I *D sky130_fd_sc_hd__or3_1
*I *1116:B2 I *D sky130_fd_sc_hd__o22a_1
*I *1105:B I *D sky130_fd_sc_hd__nor2_1
*I *1104:Y O *D sky130_fd_sc_hd__nor2_1
*CAP
1 *1106:C 0
2 *1116:B2 0.00014212
3 *1105:B 3.62004e-05
4 *1104:Y 0.000174067
5 *151:21 0.000388478
6 *151:6 0.000456625
7 *1116:B2 *1116:B1 9.24299e-05
8 *1116:B2 *153:12 0.000157065
9 *1116:B2 *154:18 2.49484e-05
10 *151:6 *1103:A 5.71472e-05
11 *151:6 *1103:B 4.88637e-05
12 *151:21 *303:38 0
13 *1106:A *1116:B2 0.00014183
14 *150:6 *151:6 3.18676e-05
15 *150:10 *1105:B 5.7661e-06
16 *150:10 *151:6 3.48705e-05
*RES
1 *1104:Y *151:6 12.7107 
2 *151:6 *1105:B 10.0321 
3 *151:6 *151:21 13.0179 
4 *151:21 *1116:B2 22.3179 
5 *151:21 *1106:C 9.3 
*END

*D_NET *152 0.000547889
*CONN
*I *1246:A I *D sky130_fd_sc_hd__xnor2_1
*I *1105:Y O *D sky130_fd_sc_hd__nor2_1
*CAP
1 *1246:A 0.000208092
2 *1105:Y 0.000208092
3 *1246:A *1246:B 6.74815e-05
4 *1246:A *1269:CLK 0
5 *1246:A *1269:D 6.42242e-05
6 *1246:A *303:38 0
7 *1246:A *365:12 0
*RES
1 *1105:Y *1246:A 31.975 
*END

*D_NET *153 0.0019353
*CONN
*I *1116:A1 I *D sky130_fd_sc_hd__o22a_1
*I *1117:A1 I *D sky130_fd_sc_hd__o31a_1
*I *1113:A I *D sky130_fd_sc_hd__nor3_1
*I *1106:X O *D sky130_fd_sc_hd__or3_1
*CAP
1 *1116:A1 5.65149e-05
2 *1117:A1 0.000131011
3 *1113:A 0
4 *1106:X 8.72334e-05
5 *153:20 0.00064008
6 *153:12 0.000652818
7 *1116:A1 *154:10 2.89114e-05
8 *1117:A1 *1113:C 0
9 *1117:A1 *1114:C1 0
10 *1117:A1 *1259:A 0
11 *1117:A1 *1261:A 0
12 *153:12 *154:18 0.000126439
13 *153:20 *1113:C 0
14 *153:20 *1116:B1 5.52302e-05
15 *153:20 *1259:A 0
16 *153:20 *261:14 0
17 *1116:B2 *153:12 0.000157065
*RES
1 *1106:X *153:12 20.4786 
2 *153:12 *153:20 13.25 
3 *153:20 *1113:A 13.8 
4 *153:20 *1117:A1 15.7464 
5 *153:12 *1116:A1 10.2464 
*END

*D_NET *154 0.00328437
*CONN
*I *1109:A I *D sky130_fd_sc_hd__nand2_1
*I *1116:A2 I *D sky130_fd_sc_hd__o22a_1
*I *1243:B I *D sky130_fd_sc_hd__and3_1
*I *1242:A1 I *D sky130_fd_sc_hd__a21oi_1
*I *1107:Y O *D sky130_fd_sc_hd__nand2_1
*CAP
1 *1109:A 0.000182323
2 *1116:A2 0
3 *1243:B 1.91209e-05
4 *1242:A1 0.000118024
5 *1107:Y 6.42712e-05
6 *154:18 0.000378005
7 *154:10 0.000671095
8 *154:6 0.000676828
9 *1109:A *1364:A 0
10 *1109:A *363:10 4.57445e-05
11 *1109:A *369:20 0
12 *1242:A1 *1242:A2 5.62995e-05
13 *1242:A1 *1243:C 2.14314e-05
14 *154:6 *1107:A 5.71472e-05
15 *154:6 *1260:A 9.22103e-06
16 *154:10 *1107:A 1.04232e-05
17 *154:10 *369:56 0.00027323
18 *154:18 *1116:B1 0
19 *154:18 *1243:C 8.33859e-06
20 *154:18 *261:14 0
21 *154:18 *303:38 0.000140021
22 *1106:A *1242:A1 0
23 *1106:A *154:18 0.000189923
24 *1116:A1 *154:10 2.89114e-05
25 *1116:B2 *154:18 2.49484e-05
26 *1267:RESET_B *1109:A 0.000154762
27 *149:21 *1242:A1 2.78584e-05
28 *153:12 *154:18 0.000126439
*RES
1 *1107:Y *154:6 10.2464 
2 *154:6 *154:10 7.94643 
3 *154:10 *154:18 14.6429 
4 *154:18 *1242:A1 11.8 
5 *154:18 *1243:B 9.72857 
6 *154:10 *1116:A2 9.3 
7 *154:6 *1109:A 22.3714 
*END

*D_NET *155 0.000500434
*CONN
*I *1109:B I *D sky130_fd_sc_hd__nand2_1
*I *1108:X O *D sky130_fd_sc_hd__or2_1
*CAP
1 *1109:B 0.000134159
2 *1108:X 0.000134159
3 *1109:B *1364:A 0.000128154
4 *1109:B *326:14 7.90149e-05
5 *1326:A *1109:B 2.49484e-05
*RES
1 *1108:X *1109:B 30.6 
*END

*D_NET *156 0.00345415
*CONN
*I *1239:B1 I *D sky130_fd_sc_hd__a21o_1
*I *1240:A I *D sky130_fd_sc_hd__nand3_1
*I *1113:B I *D sky130_fd_sc_hd__nor3_1
*I *1117:A2 I *D sky130_fd_sc_hd__o31a_1
*I *1109:Y O *D sky130_fd_sc_hd__nand2_1
*CAP
1 *1239:B1 2.23854e-05
2 *1240:A 0
3 *1113:B 0.000202825
4 *1117:A2 0.000118947
5 *1109:Y 0.000528152
6 *156:23 0.000271148
7 *156:8 0.000199328
8 *156:6 0.000562595
9 *1113:B *1113:C 0.000188586
10 *1117:A2 *1117:A3 1.32552e-05
11 *1117:A2 *1117:B1 0.000265441
12 *1117:A2 *1241:A 1.98839e-05
13 *1117:A2 *369:30 0.00039393
14 *156:6 *1241:A 9.60771e-05
15 *156:6 *369:30 0.000292976
16 *156:8 *1241:A 2.89114e-05
17 *156:8 *369:30 4.27935e-05
18 *156:23 *1117:B1 0.000150611
19 *156:23 *1240:B 5.63064e-05
*RES
1 *1109:Y *156:6 18.4607 
2 *156:6 *156:8 0.535714 
3 *156:8 *1117:A2 13.55 
4 *156:8 *156:23 10.9464 
5 *156:23 *1113:B 13.1393 
6 *156:23 *1240:A 9.3 
7 *156:6 *1239:B1 9.72857 
*END

*D_NET *157 0.00479442
*CONN
*I *1112:A I *D sky130_fd_sc_hd__nand2_1
*I *1117:A3 I *D sky130_fd_sc_hd__o31a_1
*I *1239:A1 I *D sky130_fd_sc_hd__a21o_1
*I *1240:B I *D sky130_fd_sc_hd__nand3_1
*I *1110:Y O *D sky130_fd_sc_hd__nand2_1
*CAP
1 *1112:A 0
2 *1117:A3 0.000372433
3 *1239:A1 0
4 *1240:B 0.000155322
5 *1110:Y 0.000228895
6 *157:22 0.000194533
7 *157:20 0.00118665
8 *157:8 0.0010039
9 *1117:A3 *1117:B1 7.47106e-05
10 *1117:A3 *1241:A 0.000102197
11 *1117:A3 *261:6 0
12 *1117:A3 *261:14 2.89114e-05
13 *1240:B *1240:C 0.00014576
14 *1240:B *1241:B 6.05161e-06
15 *1240:B *303:36 4.08555e-06
16 *157:8 *1110:B 2.14658e-05
17 *157:8 *1111:A 0.00014285
18 *157:8 *1112:B 0.00010096
19 *157:8 *159:6 3.69047e-06
20 *157:8 *362:14 2.14757e-05
21 *157:20 *1113:C 0
22 *157:20 *1364:A 0.000534229
23 *157:20 *1365:A 0
24 *157:20 *259:8 0.000198698
25 *157:20 *324:6 0.000107988
26 *157:20 *362:14 0
27 *157:20 *369:12 9.25014e-06
28 *157:20 *369:20 0
29 *157:22 *1113:C 0
30 *157:22 *1240:C 1.02504e-05
31 *157:22 *259:8 7.05447e-05
32 *1117:A2 *1117:A3 1.32552e-05
33 *156:23 *1240:B 5.63064e-05
*RES
1 *1110:Y *157:8 13.9607 
2 *157:8 *157:20 25.625 
3 *157:20 *157:22 1.03571 
4 *157:22 *1240:B 17.2464 
5 *157:22 *1239:A1 13.8 
6 *157:20 *1117:A3 18.8714 
7 *157:8 *1112:A 9.3 
*END

*D_NET *158 0.000171741
*CONN
*I *1112:B I *D sky130_fd_sc_hd__nand2_1
*I *1111:X O *D sky130_fd_sc_hd__or2_1
*CAP
1 *1112:B 3.53903e-05
2 *1111:X 3.53903e-05
3 *157:8 *1112:B 0.00010096
*RES
1 *1111:X *1112:B 19.5464 
*END

*D_NET *159 0.00369819
*CONN
*I *1237:B I *D sky130_fd_sc_hd__nand2_1
*I *1236:B I *D sky130_fd_sc_hd__or2_1
*I *1113:C I *D sky130_fd_sc_hd__nor3_1
*I *1112:Y O *D sky130_fd_sc_hd__nand2_1
*CAP
1 *1237:B 3.12428e-05
2 *1236:B 0
3 *1113:C 0.000359524
4 *1112:Y 0.000304867
5 *159:20 0.000744699
6 *159:6 0.000721285
7 *1113:C *1099:A1 2.14378e-05
8 *1113:C *1114:C1 0.000415939
9 *1113:C *259:8 0
10 *1113:C *261:14 0.000195555
11 *1113:C *360:43 0.00010326
12 *159:6 *369:16 0.000199934
13 *159:20 *1238:A 6.05161e-06
14 *159:20 *1238:B 1.56e-05
15 *159:20 *259:8 1.02504e-05
16 *159:20 *303:36 4.53834e-05
17 *159:20 *360:43 0
18 *1113:B *1113:C 0.000188586
19 *1117:A1 *1113:C 0
20 *1237:A *1237:B 1.97695e-05
21 *1237:A *159:20 0.000222082
22 *148:10 *1113:C 5.41609e-05
23 *148:10 *159:20 3.48705e-05
24 *153:20 *1113:C 0
25 *157:8 *159:6 3.69047e-06
26 *157:20 *1113:C 0
27 *157:22 *1113:C 0
*RES
1 *1112:Y *159:6 13.5321 
2 *159:6 *159:20 15.1607 
3 *159:20 *1113:C 28.2286 
4 *159:20 *1236:B 9.3 
5 *159:6 *1237:B 10.0321 
*END

*D_NET *160 0.000991381
*CONN
*I *1114:C1 I *D sky130_fd_sc_hd__o221ai_4
*I *1113:Y O *D sky130_fd_sc_hd__nor3_1
*CAP
1 *1114:C1 0.000271003
2 *1113:Y 0.000271003
3 *1114:C1 *1099:A1 3.34366e-05
4 *1114:C1 *1270:CLK 0
5 *1113:C *1114:C1 0.000415939
6 *1117:A1 *1114:C1 0
*RES
1 *1113:Y *1114:C1 33.3321 
*END

*D_NET *161 0.00253915
*CONN
*I *1228:B I *D sky130_fd_sc_hd__nand3_1
*I *1118:A1 I *D sky130_fd_sc_hd__a21o_1
*I *1119:A1 I *D sky130_fd_sc_hd__a211oi_1
*I *1114:Y O *D sky130_fd_sc_hd__o221ai_4
*CAP
1 *1228:B 1.99857e-05
2 *1118:A1 0
3 *1119:A1 0.000173633
4 *1114:Y 0.000760624
5 *161:12 0.000266156
6 *161:10 0.000873132
7 *161:10 *360:43 0
8 *1119:C1 *1119:A1 0.000188586
9 *136:14 *161:10 4.35336e-05
10 *136:14 *161:12 1.74352e-05
11 *136:23 *1119:A1 9.90367e-05
12 *136:23 *1228:B 1.04232e-05
13 *136:23 *161:12 8.66063e-05
*RES
1 *1114:Y *161:10 19.1036 
2 *161:10 *161:12 1.35714 
3 *161:12 *1119:A1 11.8893 
4 *161:12 *1118:A1 9.3 
5 *161:10 *1228:B 9.72857 
*END

*D_NET *162 0.00119057
*CONN
*I *1116:B1 I *D sky130_fd_sc_hd__o22a_1
*I *1115:Y O *D sky130_fd_sc_hd__a21oi_1
*CAP
1 *1116:B1 0.000372893
2 *1115:Y 0.000372893
3 *1116:B1 *1244:B 7.83659e-05
4 *1116:B1 *1268:D 0.000129595
5 *1116:B1 *261:14 8.9163e-05
6 *1116:B1 *303:38 0
7 *1116:B2 *1116:B1 9.24299e-05
8 *149:10 *1116:B1 0
9 *153:20 *1116:B1 5.52302e-05
10 *154:18 *1116:B1 0
*RES
1 *1115:Y *1116:B1 34.3857 
*END

*D_NET *163 0.00130266
*CONN
*I *1117:B1 I *D sky130_fd_sc_hd__o31a_1
*I *1116:X O *D sky130_fd_sc_hd__o22a_1
*CAP
1 *1117:B1 0.000221715
2 *1116:X 0.000221715
3 *1117:B1 *261:14 0.000368466
4 *1117:B1 *303:38 0
5 *1117:A2 *1117:B1 0.000265441
6 *1117:A3 *1117:B1 7.47106e-05
7 *156:23 *1117:B1 0.000150611
*RES
1 *1116:X *1117:B1 34.2607 
*END

*D_NET *164 0.00311879
*CONN
*I *1228:C I *D sky130_fd_sc_hd__nand3_1
*I *1118:A2 I *D sky130_fd_sc_hd__a21o_1
*I *1119:A2 I *D sky130_fd_sc_hd__a211oi_1
*I *1117:X O *D sky130_fd_sc_hd__o31a_1
*CAP
1 *1228:C 3.10525e-05
2 *1118:A2 1.23837e-05
3 *1119:A2 0.000149288
4 *1117:X 0.000729057
5 *164:14 0.000228241
6 *164:10 0.000826678
7 *1119:A2 *1229:B 9.60939e-05
8 *1228:C *1030:A 0
9 *1228:C *1342:A 0
10 *164:10 *1270:CLK 0.000560292
11 *164:10 *1342:A 0
12 *164:14 *1229:B 4.38128e-05
13 *1118:B1 *1118:A2 3.99614e-06
14 *1118:B1 *1119:A2 3.99614e-06
15 *1119:C1 *1119:A2 5.76121e-05
16 *136:14 *1118:A2 3.57366e-05
17 *136:14 *1228:C 3.17148e-05
18 *136:14 *164:10 0.000101545
19 *136:14 *164:14 0.00014285
20 *136:23 *1119:A2 4.70078e-05
21 *136:23 *164:14 1.74352e-05
*RES
1 *1117:X *164:10 24.7107 
2 *164:10 *164:14 6.26786 
3 *164:14 *1119:A2 12.6214 
4 *164:14 *1118:A2 10.0321 
5 *164:10 *1228:C 14.5321 
*END

*D_NET *165 0.000567169
*CONN
*I *1229:A I *D sky130_fd_sc_hd__and2_1
*I *1230:B I *D sky130_fd_sc_hd__nand2_1
*I *1118:X O *D sky130_fd_sc_hd__a21o_1
*CAP
1 *1229:A 3.72704e-05
2 *1230:B 0.000140199
3 *1118:X 7.72725e-05
4 *165:8 0.000254742
5 *1230:B *1229:B 1.19309e-05
6 *1230:B *1342:A 0
7 *165:8 *1229:B 4.57538e-05
*RES
1 *1118:X *165:8 15.4429 
2 *165:8 *1230:B 16.3536 
3 *165:8 *1229:A 14.3357 
*END

*D_NET *166 0.00221062
*CONN
*I *1121:A I *D sky130_fd_sc_hd__or2_1
*I *1137:A1 I *D sky130_fd_sc_hd__o211a_1
*I *1119:Y O *D sky130_fd_sc_hd__a211oi_1
*CAP
1 *1121:A 0
2 *1137:A1 9.00938e-05
3 *1119:Y 0.000573898
4 *166:6 0.000663991
5 *1137:A1 *1137:A2 0.000275855
6 *1137:A1 *168:18 0.000167383
7 *166:6 *1033:A 0.000230482
8 *166:6 *1137:A2 2.95641e-05
9 *166:6 *167:14 9.90367e-05
10 *1119:B1 *166:6 8.03176e-05
*RES
1 *1119:Y *166:6 19.6929 
2 *166:6 *1137:A1 13.175 
3 *166:6 *1121:A 9.3 
*END

*D_NET *167 0.00225647
*CONN
*I *1121:B I *D sky130_fd_sc_hd__or2_1
*I *1137:A2 I *D sky130_fd_sc_hd__o211a_1
*I *1120:Y O *D sky130_fd_sc_hd__o211ai_1
*CAP
1 *1121:B 0
2 *1137:A2 0.000230728
3 *1120:Y 0.000665302
4 *167:14 0.00089603
5 *1137:A2 *1137:B1 3.57366e-05
6 *1137:A2 *168:18 1.74352e-05
7 *167:14 *302:16 0
8 *167:14 *335:12 6.78055e-06
9 *167:14 *368:90 0
10 *1137:A1 *1137:A2 0.000275855
11 *166:6 *1137:A2 2.95641e-05
12 *166:6 *167:14 9.90367e-05
*RES
1 *1120:Y *167:14 27.8536 
2 *167:14 *1137:A2 14.8357 
3 *167:14 *1121:B 9.3 
*END

*D_NET *168 0.00150399
*CONN
*I *1221:A I *D sky130_fd_sc_hd__xor2_1
*I *1222:A1 I *D sky130_fd_sc_hd__a21bo_1
*I *1121:X O *D sky130_fd_sc_hd__or2_1
*CAP
1 *1221:A 0
2 *1222:A1 0.000127101
3 *1121:X 0.000290498
4 *168:18 0.000417599
5 *1222:A1 *1221:B 9.71197e-05
6 *1222:A1 *1222:A2 0.000274288
7 *168:18 *1137:B1 5.30637e-06
8 *168:18 *183:21 5.01117e-05
9 *168:18 *184:14 5.71472e-05
10 *1137:A1 *168:18 0.000167383
11 *1137:A2 *168:18 1.74352e-05
*RES
1 *1121:X *168:18 23.5143 
2 *168:18 *1222:A1 12.7107 
3 *168:18 *1221:A 9.3 
*END

*D_NET *169 0.00209313
*CONN
*I *1124:A I *D sky130_fd_sc_hd__nand2_1
*I *1138:B2 I *D sky130_fd_sc_hd__o221ai_1
*I *1224:B1_N I *D sky130_fd_sc_hd__a21bo_1
*I *1122:Y O *D sky130_fd_sc_hd__nand2_1
*CAP
1 *1124:A 0.000233712
2 *1138:B2 0.00030194
3 *1224:B1_N 0
4 *1122:Y 0.000249487
5 *169:21 0.000582983
6 *169:14 0.000296818
7 *1124:A *1124:B 0.000151645
8 *1124:A *1224:A2 9.99853e-05
9 *1124:A *170:12 5.04986e-05
10 *1138:B2 *1133:A 0
11 *1138:B2 *1133:B 0
12 *1138:B2 *1223:A 0
13 *1138:B2 *170:12 2.19684e-05
14 *1138:B2 *179:10 0
15 *1138:B2 *302:52 0
16 *169:14 *1122:B 5.52302e-05
17 *169:14 *1123:A 4.88637e-05
18 *169:14 *302:52 0
*RES
1 *1122:Y *169:14 21.6393 
2 *169:14 *1224:B1_N 9.3 
3 *169:14 *169:21 0.535714 
4 *169:21 *1138:B2 23.8893 
5 *169:21 *1124:A 22.4071 
*END

*D_NET *170 0.0011282
*CONN
*I *1124:B I *D sky130_fd_sc_hd__nand2_1
*I *1224:A1 I *D sky130_fd_sc_hd__a21bo_1
*I *1123:X O *D sky130_fd_sc_hd__or2_1
*CAP
1 *1124:B 0.000157939
2 *1224:A1 0
3 *1123:X 0.00025861
4 *170:12 0.000416549
5 *1124:B *1224:A2 7.09928e-05
6 *1124:A *1124:B 0.000151645
7 *1124:A *170:12 5.04986e-05
8 *1138:B2 *170:12 2.19684e-05
*RES
1 *1123:X *170:12 21.7107 
2 *170:12 *1224:A1 9.3 
3 *170:12 *1124:B 12.7464 
*END

*D_NET *171 0.00149317
*CONN
*I *1223:A I *D sky130_fd_sc_hd__xnor2_1
*I *1133:A I *D sky130_fd_sc_hd__nor2_1
*I *1124:Y O *D sky130_fd_sc_hd__nand2_1
*CAP
1 *1223:A 0.000245259
2 *1133:A 0.000116004
3 *1124:Y 6.78464e-05
4 *171:8 0.000429109
5 *1133:A *180:12 5.5033e-05
6 *1133:A *253:10 0.000151333
7 *1223:A *1223:B 0.00028816
8 *1223:A *252:10 1.08359e-05
9 *1223:A *253:10 3.17148e-05
10 *171:8 *253:10 9.78745e-05
11 *1138:B2 *1133:A 0
12 *1138:B2 *1223:A 0
*RES
1 *1124:Y *171:8 14.7464 
2 *171:8 *1133:A 16.6929 
3 *171:8 *1223:A 19.1393 
*END

*D_NET *172 0.00115873
*CONN
*I *1127:A I *D sky130_fd_sc_hd__nand2_1
*I *1226:A1 I *D sky130_fd_sc_hd__a21bo_1
*I *1125:X O *D sky130_fd_sc_hd__or2_1
*CAP
1 *1127:A 0
2 *1226:A1 7.86185e-05
3 *1125:X 0.000150684
4 *172:14 0.000229303
5 *1226:A1 *1226:A2 0.000228784
6 *1226:A1 *1226:B1_N 2.36643e-05
7 *172:14 *1225:B 0.000125724
8 *172:14 *1226:A2 3.75081e-05
9 *172:14 *1226:B1_N 0.000190279
10 *172:14 *173:14 9.41642e-05
*RES
1 *1125:X *172:14 22.1393 
2 *172:14 *1226:A1 11.4786 
3 *172:14 *1127:A 9.3 
*END

*D_NET *173 0.00279543
*CONN
*I *1226:B1_N I *D sky130_fd_sc_hd__a21bo_1
*I *1127:B I *D sky130_fd_sc_hd__nand2_1
*I *1138:A1 I *D sky130_fd_sc_hd__o221ai_1
*I *1126:Y O *D sky130_fd_sc_hd__nand2_1
*CAP
1 *1226:B1_N 0.000197774
2 *1127:B 0
3 *1138:A1 0.000296209
4 *1126:Y 0.000252121
5 *173:14 0.000349888
6 *173:12 0.000503574
7 *1138:A1 *1132:A 4.93196e-05
8 *1138:A1 *1138:B1 5.52238e-05
9 *1138:A1 *1139:B1 0.000313044
10 *1138:A1 *1225:A 2.6304e-05
11 *1138:A1 *1225:B 3.17148e-05
12 *1138:A1 *253:10 0.000358853
13 *173:14 *1226:A2 5.33005e-05
14 *1226:A1 *1226:B1_N 2.36643e-05
15 *172:14 *1226:B1_N 0.000190279
16 *172:14 *173:14 9.41642e-05
*RES
1 *1126:Y *173:12 22.425 
2 *173:12 *173:14 1.35714 
3 *173:14 *1138:A1 26.2821 
4 *173:14 *1127:B 9.3 
5 *173:12 *1226:B1_N 13.05 
*END

*D_NET *174 0.00160991
*CONN
*I *1132:A I *D sky130_fd_sc_hd__or2_1
*I *1225:A I *D sky130_fd_sc_hd__xnor2_1
*I *1127:Y O *D sky130_fd_sc_hd__nand2_1
*CAP
1 *1132:A 0.000207991
2 *1225:A 0.000374728
3 *1127:Y 0
4 *174:6 0.000582719
5 *1132:A *179:10 1.48543e-05
6 *1225:A *1225:B 0.000353998
7 *1138:A1 *1132:A 4.93196e-05
8 *1138:A1 *1225:A 2.6304e-05
*RES
1 *1127:Y *174:6 13.8 
2 *174:6 *1225:A 20.5143 
3 *174:6 *1132:A 17.3179 
*END

*D_NET *175 0.00122587
*CONN
*I *1138:C1 I *D sky130_fd_sc_hd__o221ai_1
*I *1131:A I *D sky130_fd_sc_hd__nand2_1
*I *1128:Y O *D sky130_fd_sc_hd__nand2_1
*CAP
1 *1138:C1 0.000116933
2 *1131:A 1.99857e-05
3 *1128:Y 0.000162305
4 *175:6 0.000299223
5 *1131:A *1129:A 1.04232e-05
6 *1138:C1 *1129:A 2.89114e-05
7 *1138:C1 *1129:B 3.48705e-05
8 *1138:C1 *1138:A2 0.000185643
9 *1138:C1 *1138:B1 5.7661e-06
10 *1138:C1 *178:10 4.43256e-05
11 *175:6 *1129:A 9.47613e-05
12 *175:6 *1129:B 3.65607e-05
13 *175:6 *1131:B 0.00010096
14 *175:6 *178:10 2.89016e-05
15 *175:6 *340:28 5.62995e-05
*RES
1 *1128:Y *175:6 13.5321 
2 *175:6 *1131:A 9.72857 
3 *175:6 *1138:C1 12.7286 
*END

*D_NET *176 0.00073784
*CONN
*I *1138:A2 I *D sky130_fd_sc_hd__o221ai_1
*I *1129:Y O *D sky130_fd_sc_hd__nor2_1
*CAP
1 *1138:A2 0.000181805
2 *1129:Y 0.000181805
3 *1138:A2 *1139:B1 0.000188586
4 *1138:C1 *1138:A2 0.000185643
*RES
1 *1129:Y *1138:A2 22.4214 
*END

*D_NET *177 0.000224162
*CONN
*I *1131:B I *D sky130_fd_sc_hd__nand2_1
*I *1130:X O *D sky130_fd_sc_hd__or2_1
*CAP
1 *1131:B 1.1121e-05
2 *1130:X 1.1121e-05
3 *1131:B *1129:A 0.00010096
4 *175:6 *1131:B 0.00010096
*RES
1 *1130:X *1131:B 19.5464 
*END

*D_NET *178 0.00155764
*CONN
*I *1132:B I *D sky130_fd_sc_hd__or2_1
*I *1227:A I *D sky130_fd_sc_hd__xnor2_1
*I *1131:Y O *D sky130_fd_sc_hd__nand2_1
*CAP
1 *1132:B 0.000261081
2 *1227:A 0.000119415
3 *1131:Y 0.000166321
4 *178:10 0.000546816
5 *1227:A *1036:A 2.49484e-05
6 *1227:A *1277:D 0.00010326
7 *1227:A *302:37 7.92975e-05
8 *178:10 *1036:A 8.98801e-05
9 *178:10 *302:37 1.76135e-05
10 *178:10 *302:52 7.57773e-05
11 *1138:C1 *178:10 4.43256e-05
12 *175:6 *178:10 2.89016e-05
*RES
1 *1131:Y *178:10 17.4071 
2 *178:10 *1227:A 16.6929 
3 *178:10 *1132:B 17.6214 
*END

*D_NET *179 0.00114968
*CONN
*I *1133:B I *D sky130_fd_sc_hd__nor2_1
*I *1138:B1 I *D sky130_fd_sc_hd__o221ai_1
*I *1132:X O *D sky130_fd_sc_hd__or2_1
*CAP
1 *1133:B 0.000173671
2 *1138:B1 0.000128885
3 *1132:X 0.000185496
4 *179:10 0.000488052
5 *1138:B1 *1129:B 0
6 *1138:B1 *1139:B1 9.77274e-05
7 *179:10 *302:52 0
8 *1132:A *179:10 1.48543e-05
9 *1138:A1 *1138:B1 5.52238e-05
10 *1138:B2 *1133:B 0
11 *1138:B2 *179:10 0
12 *1138:C1 *1138:B1 5.7661e-06
*RES
1 *1132:X *179:10 16.5857 
2 *179:10 *1138:B1 16.4071 
3 *179:10 *1133:B 16.6929 
*END

*D_NET *180 0.00227438
*CONN
*I *1139:A3 I *D sky130_fd_sc_hd__a31o_1
*I *1137:B1 I *D sky130_fd_sc_hd__o211a_1
*I *1133:Y O *D sky130_fd_sc_hd__nor2_1
*CAP
1 *1139:A3 0
2 *1137:B1 0.000221495
3 *1133:Y 0.000577487
4 *180:12 0.000798982
5 *1137:B1 *1139:A1 0.000148616
6 *1137:B1 *1139:A2 0.000123496
7 *1137:B1 *336:29 9.90367e-05
8 *180:12 *1134:A 4.1331e-06
9 *180:12 *1136:A 0
10 *180:12 *186:12 7.6644e-05
11 *180:12 *252:10 0.00012841
12 *180:12 *253:10 0
13 *1133:A *180:12 5.5033e-05
14 *1137:A2 *1137:B1 3.57366e-05
15 *168:18 *1137:B1 5.30637e-06
*RES
1 *1133:Y *180:12 25.8179 
2 *180:12 *1137:B1 14.3893 
3 *180:12 *1139:A3 9.3 
*END

*D_NET *181 0.0010326
*CONN
*I *1222:B1_N I *D sky130_fd_sc_hd__a21bo_1
*I *1136:A I *D sky130_fd_sc_hd__and2_1
*I *1134:Y O *D sky130_fd_sc_hd__nand2_1
*CAP
1 *1222:B1_N 0.000120301
2 *1136:A 0.000177435
3 *1134:Y 0
4 *181:6 0.000297736
5 *1136:A *1134:A 5.59013e-05
6 *1136:A *1135:B 8.02891e-05
7 *1136:A *336:10 1.69115e-05
8 *1136:A *339:18 0.000159326
9 *1222:B1_N *1222:A2 9.90431e-05
10 *1222:B1_N *336:10 2.56601e-05
11 *180:12 *1136:A 0
*RES
1 *1134:Y *181:6 13.8 
2 *181:6 *1136:A 17.925 
3 *181:6 *1222:B1_N 15.7821 
*END

*D_NET *182 0.000263163
*CONN
*I *1136:B I *D sky130_fd_sc_hd__and2_1
*I *1135:X O *D sky130_fd_sc_hd__or2_1
*CAP
1 *1136:B 5.31194e-05
2 *1135:X 5.31194e-05
3 *1136:B *183:10 7.61932e-05
4 *1136:B *339:18 8.07313e-05
*RES
1 *1135:X *1136:B 20.3857 
*END

*D_NET *183 0.00222182
*CONN
*I *1221:B I *D sky130_fd_sc_hd__xor2_1
*I *1222:A2 I *D sky130_fd_sc_hd__a21bo_1
*I *1137:C1 I *D sky130_fd_sc_hd__o211a_1
*I *1136:X O *D sky130_fd_sc_hd__and2_1
*CAP
1 *1221:B 7.44191e-05
2 *1222:A2 0.000128233
3 *1137:C1 0
4 *1136:X 0.000302823
5 *183:21 0.000270189
6 *183:10 0.000370361
7 *1221:B *336:10 0.000127476
8 *1222:A2 *336:10 5.33005e-05
9 *183:10 *1135:B 0.000152594
10 *183:10 *302:16 0
11 *183:10 *336:10 9.25014e-06
12 *183:10 *339:18 1.92283e-05
13 *183:21 *186:12 0
14 *183:21 *302:16 0
15 *183:21 *336:10 0.000117189
16 *1136:B *183:10 7.61932e-05
17 *1222:A1 *1221:B 9.71197e-05
18 *1222:A1 *1222:A2 0.000274288
19 *1222:B1_N *1222:A2 9.90431e-05
20 *168:18 *183:21 5.01117e-05
*RES
1 *1136:X *183:10 18.3357 
2 *183:10 *1137:C1 13.8 
3 *183:10 *183:21 6.44643 
4 *183:21 *1222:A2 12.7286 
5 *183:21 *1221:B 11.3893 
*END

*D_NET *184 0.00302094
*CONN
*I *1140:A I *D sky130_fd_sc_hd__or2_1
*I *1151:A1 I *D sky130_fd_sc_hd__o211ai_1
*I *1137:X O *D sky130_fd_sc_hd__o211a_1
*CAP
1 *1140:A 0
2 *1151:A1 5.41497e-05
3 *1137:X 0.0010132
4 *184:14 0.00106735
5 *1151:A1 *1140:B 0.000150539
6 *1151:A1 *187:6 5.71472e-05
7 *184:14 *1037:A 0.000187741
8 *184:14 *1140:B 4.88637e-05
9 *184:14 *1275:CLK 0.000118339
10 *184:14 *302:10 0.000106542
11 *184:14 *302:16 6.65302e-05
12 *184:14 *302:95 9.34004e-05
13 *168:18 *184:14 5.71472e-05
*RES
1 *1137:X *184:14 39.1036 
2 *184:14 *1151:A1 11.0857 
3 *184:14 *1140:A 9.3 
*END

*D_NET *185 0.00139664
*CONN
*I *1139:B1 I *D sky130_fd_sc_hd__a31o_1
*I *1138:Y O *D sky130_fd_sc_hd__o221ai_1
*CAP
1 *1139:B1 0.000398644
2 *1138:Y 0.000398644
3 *1138:A1 *1139:B1 0.000313044
4 *1138:A2 *1139:B1 0.000188586
5 *1138:B1 *1139:B1 9.77274e-05
*RES
1 *1138:Y *1139:B1 26.9393 
*END

*D_NET *186 0.00264536
*CONN
*I *1140:B I *D sky130_fd_sc_hd__or2_1
*I *1151:A2 I *D sky130_fd_sc_hd__o211ai_1
*I *1139:X O *D sky130_fd_sc_hd__a31o_1
*CAP
1 *1140:B 0.000132605
2 *1151:A2 4.20945e-05
3 *1139:X 0.000752195
4 *186:12 0.000926895
5 *1140:B *1151:B1 1.17091e-05
6 *1151:A2 *187:6 1.15172e-05
7 *186:12 *1034:A 0.000146474
8 *186:12 *1139:A2 0.00014183
9 *186:12 *1275:D 5.26184e-05
10 *186:12 *1278:CLK 6.75007e-05
11 *186:12 *253:10 0
12 *186:12 *368:49 5.66157e-05
13 *1151:A1 *1140:B 0.000150539
14 *1275:RESET_B *186:12 2.72545e-05
15 *180:12 *186:12 7.6644e-05
16 *183:21 *186:12 0
17 *184:14 *1140:B 4.88637e-05
*RES
1 *1139:X *186:12 32.8357 
2 *186:12 *1151:A2 9.83571 
3 *186:12 *1140:B 12.6393 
*END

*D_NET *187 0.00107037
*CONN
*I *1213:A I *D sky130_fd_sc_hd__xor2_1
*I *1212:A I *D sky130_fd_sc_hd__nand2_1
*I *1140:X O *D sky130_fd_sc_hd__or2_1
*CAP
1 *1213:A 8.69931e-05
2 *1212:A 5.41365e-05
3 *1140:X 0.00021467
4 *187:6 0.0003558
5 *1212:A *1151:C1 3.37953e-05
6 *1213:A *1151:B1 0.000148196
7 *187:6 *1151:B1 1.34548e-05
8 *187:6 *1151:C1 9.46571e-05
9 *1151:A1 *187:6 5.71472e-05
10 *1151:A2 *187:6 1.15172e-05
*RES
1 *1140:X *187:6 13.1214 
2 *187:6 *1212:A 10.2643 
3 *187:6 *1213:A 20.2464 
*END

*D_NET *188 0.00142271
*CONN
*I *1147:A_N I *D sky130_fd_sc_hd__and2b_1
*I *1215:A I *D sky130_fd_sc_hd__and3_1
*I *1214:B1 I *D sky130_fd_sc_hd__a21oi_1
*I *1141:Y O *D sky130_fd_sc_hd__xnor2_1
*CAP
1 *1147:A_N 0.000128096
2 *1215:A 1.58761e-05
3 *1214:B1 2.23854e-05
4 *1141:Y 5.05962e-05
5 *188:21 0.000467975
6 *188:6 0.000396985
7 *1147:A_N *1153:A 0.000173097
8 *1147:A_N *1153:B 9.09372e-05
9 *1147:A_N *1153:C 0
10 *1147:A_N *1154:A2 0
11 *1147:A_N *1216:A 0
12 *1214:B1 *247:14 0
13 *1215:A *1154:A2 0
14 *188:21 *1153:A 0
15 *188:21 *1214:A1 1.55885e-05
16 *188:21 *1214:A2 6.05161e-06
17 *188:21 *1216:A 1.6959e-05
18 *188:21 *1216:B 9.25014e-06
19 *1294:A *1147:A_N 2.89114e-05
*RES
1 *1141:Y *188:6 9.83571 
2 *188:6 *1214:B1 9.72857 
3 *188:6 *188:21 8.61607 
4 *188:21 *1215:A 14.0768 
5 *188:21 *1147:A_N 17.0411 
*END

*D_NET *189 0.000735035
*CONN
*I *1219:A1 I *D sky130_fd_sc_hd__a21bo_1
*I *1144:A I *D sky130_fd_sc_hd__nand2_1
*I *1142:X O *D sky130_fd_sc_hd__or2_1
*CAP
1 *1219:A1 0
2 *1144:A 0.000116668
3 *1142:X 0.000115091
4 *189:12 0.000231758
5 *1144:A *1144:B 0
6 *1144:A *1347:A 0
7 *1144:A *191:12 0.000104974
8 *189:12 *1144:B 4.46186e-06
9 *189:12 *1219:A2 9.90431e-05
10 *189:12 *1220:B 0
11 *189:12 *190:8 6.30388e-05
12 acc[18] *189:12 0
13 *35:11 *1144:A 0
*RES
1 *1142:X *189:12 20.8893 
2 *189:12 *1144:A 20.8536 
3 *189:12 *1219:A1 9.3 
*END

*D_NET *190 0.000660597
*CONN
*I *1219:B1_N I *D sky130_fd_sc_hd__a21bo_1
*I *1144:B I *D sky130_fd_sc_hd__nand2_1
*I *1143:Y O *D sky130_fd_sc_hd__nand2_1
*CAP
1 *1219:B1_N 0
2 *1144:B 0.000157789
3 *1143:Y 6.63591e-05
4 *190:8 0.000224149
5 *1144:B *191:12 3.5707e-05
6 *1144:B *250:10 0.000103285
7 *190:8 *1146:B 0
8 *190:8 *250:10 5.80706e-06
9 *1144:A *1144:B 0
10 *189:12 *1144:B 4.46186e-06
11 *189:12 *190:8 6.30388e-05
*RES
1 *1143:Y *190:8 15.4429 
2 *190:8 *1144:B 17.3 
3 *190:8 *1219:B1_N 13.8 
*END

*D_NET *191 0.00122111
*CONN
*I *1146:A I *D sky130_fd_sc_hd__nor2_1
*I *1218:A I *D sky130_fd_sc_hd__xnor2_1
*I *1144:Y O *D sky130_fd_sc_hd__nand2_1
*CAP
1 *1146:A 0.000179574
2 *1218:A 1.99857e-05
3 *1144:Y 0.000182272
4 *191:12 0.000381832
5 *1146:A *1280:D 8.07313e-05
6 *1218:A *1219:A2 1.04232e-05
7 *191:12 *1219:A2 0.000225616
8 *1144:A *191:12 0.000104974
9 *1144:B *191:12 3.5707e-05
*RES
1 *1144:Y *191:12 22.2286 
2 *191:12 *1218:A 9.72857 
3 *191:12 *1146:A 12.7286 
*END

*D_NET *192 0.00314319
*CONN
*I *1220:A I *D sky130_fd_sc_hd__xnor2_1
*I *1146:B I *D sky130_fd_sc_hd__nor2_1
*I *1145:Y O *D sky130_fd_sc_hd__xnor2_1
*CAP
1 *1220:A 0.000463332
2 *1146:B 0.000385789
3 *1145:Y 0.000419505
4 *192:8 0.00126863
5 *1146:B *1152:A2 0
6 *1146:B *1155:A2 4.71964e-05
7 *1146:B *1155:C1 0
8 *1146:B *250:10 0
9 *1220:A *1152:A2 0
10 *1220:A *1155:A2 1.69115e-05
11 *1220:A *1281:CLK 0
12 *1220:A *1281:D 0.000151061
13 *1220:A *307:10 5.33334e-05
14 *192:8 *344:8 6.87574e-05
15 *192:8 *344:10 0.000268682
16 *1281:RESET_B *1220:A 0
17 *190:8 *1146:B 0
*RES
1 *1145:Y *192:8 19.675 
2 *192:8 *1146:B 20.6036 
3 *192:8 *1220:A 22.8357 
*END

*D_NET *193 0.00134518
*CONN
*I *1147:B I *D sky130_fd_sc_hd__and2b_1
*I *1153:C I *D sky130_fd_sc_hd__and3_1
*I *1146:Y O *D sky130_fd_sc_hd__nor2_1
*CAP
1 *1147:B 0
2 *1153:C 0.000151293
3 *1146:Y 0.000338467
4 *193:8 0.00048976
5 *1153:C *1148:B 1.97695e-05
6 *1153:C *1153:A 0
7 *1153:C *1153:B 5.33882e-05
8 *1153:C *1154:A2 0
9 *1153:C *195:8 3.41124e-05
10 *1153:C *247:14 8.57208e-05
11 *193:8 *1153:A 0
12 *193:8 *1154:A2 0
13 *193:8 *1155:C1 0.000172673
14 *193:8 *250:10 0
15 *193:8 *373:10 0
16 *1147:A_N *1153:C 0
*RES
1 *1146:Y *193:8 20.9071 
2 *193:8 *1153:C 17.2821 
3 *193:8 *1147:B 13.8 
*END

*D_NET *194 0.00269459
*CONN
*I *1151:B1 I *D sky130_fd_sc_hd__o211ai_1
*I *1154:A3 I *D sky130_fd_sc_hd__a31o_1
*I *1147:X O *D sky130_fd_sc_hd__and2b_1
*CAP
1 *1151:B1 0.000643543
2 *1154:A3 0
3 *1147:X 6.83427e-05
4 *194:8 0.000711885
5 *1151:B1 *1151:C1 0.000228514
6 *1151:B1 *1154:B1 0
7 *1151:B1 *197:12 5.91763e-05
8 *1151:B1 *198:10 5.49489e-05
9 *1151:B1 *247:14 7.83587e-05
10 *1151:B1 *373:10 0
11 *1151:B1 *373:12 0
12 *1140:B *1151:B1 1.17091e-05
13 *1213:A *1151:B1 0.000148196
14 *1294:A *1151:B1 0.000531685
15 *1294:A *194:8 0.000144773
16 *187:6 *1151:B1 1.34548e-05
*RES
1 *1147:X *194:8 11.0857 
2 *194:8 *1154:A3 9.3 
3 *194:8 *1151:B1 31.9607 
*END

*D_NET *195 0.00157647
*CONN
*I *1150:A I *D sky130_fd_sc_hd__and2_1
*I *1214:A1 I *D sky130_fd_sc_hd__a21oi_1
*I *1215:B I *D sky130_fd_sc_hd__and3_1
*I *1148:Y O *D sky130_fd_sc_hd__nand2_1
*CAP
1 *1150:A 7.21362e-05
2 *1214:A1 0.00010656
3 *1215:B 2.54286e-05
4 *1148:Y 0
5 *195:8 0.000326381
6 *195:4 0.000266528
7 *1150:A *1148:A 9.60875e-05
8 *1150:A *1148:B 2.44318e-05
9 *1150:A *1154:B1 8.86413e-05
10 *1150:A *341:10 2.89114e-05
11 *1150:A *341:12 1.98839e-05
12 *1214:A1 *1153:A 4.08749e-06
13 *1214:A1 *1214:A2 0.000147142
14 *195:8 *1148:B 1.74352e-05
15 *195:8 *1153:A 9.60939e-05
16 *195:8 *1154:B1 0.000142856
17 *195:8 *1214:A2 1.4606e-05
18 *195:8 *247:14 4.9563e-05
19 *1153:C *195:8 3.41124e-05
20 *188:21 *1214:A1 1.55885e-05
*RES
1 *1148:Y *195:4 9.3 
2 *195:4 *195:8 4.62054 
3 *195:8 *1215:B 9.89375 
4 *195:8 *1214:A1 11.9652 
5 *195:4 *1150:A 11.4786 
*END

*D_NET *196 0.000230979
*CONN
*I *1150:B I *D sky130_fd_sc_hd__and2_1
*I *1149:X O *D sky130_fd_sc_hd__or2_1
*CAP
1 *1150:B 9.92271e-05
2 *1149:X 9.92271e-05
3 *1150:B *341:40 3.25247e-05
*RES
1 *1149:X *1150:B 29.2429 
*END

*D_NET *197 0.00126823
*CONN
*I *1213:B I *D sky130_fd_sc_hd__xor2_1
*I *1212:B I *D sky130_fd_sc_hd__nand2_1
*I *1151:C1 I *D sky130_fd_sc_hd__o211ai_1
*I *1150:X O *D sky130_fd_sc_hd__and2_1
*CAP
1 *1213:B 4.75032e-05
2 *1212:B 0
3 *1151:C1 0.000115825
4 *1150:X 4.51598e-05
5 *197:12 0.000246687
6 *197:6 0.000223526
7 *1213:B *341:10 4.43256e-05
8 *197:6 *341:10 5.20669e-05
9 *197:12 *247:14 7.6997e-05
10 *197:12 *341:40 0
11 *1151:B1 *1151:C1 0.000228514
12 *1151:B1 *197:12 5.91763e-05
13 *1212:A *1151:C1 3.37953e-05
14 *187:6 *1151:C1 9.46571e-05
*RES
1 *1150:X *197:6 10.2464 
2 *197:6 *197:12 11.5536 
3 *197:12 *1151:C1 12.7286 
4 *197:12 *1212:B 9.3 
5 *197:6 *1213:B 10.2464 
*END

*D_NET *198 0.00345903
*CONN
*I *1156:A I *D sky130_fd_sc_hd__nand2_1
*I *1171:A1 I *D sky130_fd_sc_hd__a211o_1
*I *1151:Y O *D sky130_fd_sc_hd__o211ai_1
*CAP
1 *1156:A 0.000173661
2 *1171:A1 8.79272e-05
3 *1151:Y 0.00102323
4 *198:10 0.00128482
5 *1156:A *1156:B 0.000125736
6 *1156:A *1171:A2 7.98318e-05
7 *1156:A *203:8 5.68722e-05
8 *1171:A1 *1171:A2 0.000186669
9 *1171:A1 *218:14 0.000144773
10 *1171:A1 *304:18 0
11 *198:10 *1278:CLK 0.000240572
12 *1151:B1 *198:10 5.49489e-05
*RES
1 *1151:Y *198:10 31.7643 
2 *198:10 *1171:A1 16.4071 
3 *198:10 *1156:A 17.6214 
*END

*D_NET *199 0.00108739
*CONN
*I *1155:B1 I *D sky130_fd_sc_hd__a211oi_1
*I *1152:X O *D sky130_fd_sc_hd__o211a_1
*CAP
1 *1155:B1 0.000371172
2 *1152:X 0.000371172
3 *1155:B1 *1152:A1 0.000321912
4 *1155:B1 *1155:A1 1.04232e-05
5 *1155:B1 *202:8 1.27093e-05
*RES
1 *1152:X *1155:B1 23.975 
*END

*D_NET *200 0.000949811
*CONN
*I *1154:B1 I *D sky130_fd_sc_hd__a31o_1
*I *1153:X O *D sky130_fd_sc_hd__and3_1
*CAP
1 *1154:B1 0.000289955
2 *1153:X 0.000289955
3 *1154:B1 *373:10 1.02504e-05
4 *1154:B1 *373:12 0.000128154
5 *1150:A *1154:B1 8.86413e-05
6 *1151:B1 *1154:B1 0
7 *195:8 *1154:B1 0.000142856
*RES
1 *1153:X *1154:B1 32.2429 
*END

*D_NET *201 0.00152523
*CONN
*I *1155:C1 I *D sky130_fd_sc_hd__a211oi_1
*I *1154:X O *D sky130_fd_sc_hd__a31o_1
*CAP
1 *1155:C1 0.000558109
2 *1154:X 0.000558109
3 *1155:C1 *1152:C1 5.98293e-05
4 *1155:C1 *250:10 0
5 *1155:C1 *343:8 5.5782e-05
6 *1155:C1 *373:10 6.35798e-05
7 *1146:B *1155:C1 0
8 *1294:A *1155:C1 5.71472e-05
9 *193:8 *1155:C1 0.000172673
*RES
1 *1154:X *1155:C1 39.4929 
*END

*D_NET *202 0.0022372
*CONN
*I *1156:B I *D sky130_fd_sc_hd__nand2_1
*I *1171:A2 I *D sky130_fd_sc_hd__a211o_1
*I *1155:Y O *D sky130_fd_sc_hd__a211oi_1
*CAP
1 *1156:B 9.12602e-05
2 *1171:A2 0.000137594
3 *1155:Y 0.000581268
4 *202:8 0.000810122
5 *202:8 *1152:A1 2.3426e-05
6 *202:8 *1152:B1 0.000188586
7 *1155:B1 *202:8 1.27093e-05
8 *1156:A *1156:B 0.000125736
9 *1156:A *1171:A2 7.98318e-05
10 *1171:A1 *1171:A2 0.000186669
*RES
1 *1155:Y *202:8 20.9071 
2 *202:8 *1171:A2 17.0143 
3 *202:8 *1156:B 15.7464 
*END

*D_NET *203 0.00112196
*CONN
*I *1206:A1 I *D sky130_fd_sc_hd__a21bo_1
*I *1205:A I *D sky130_fd_sc_hd__xnor2_1
*I *1156:Y O *D sky130_fd_sc_hd__nand2_1
*CAP
1 *1206:A1 0.000190179
2 *1205:A 0
3 *1156:Y 0.000115451
4 *203:8 0.00030563
5 *1206:A1 *1171:B1 0.000372248
6 *1206:A1 *1205:B 5.71472e-05
7 *203:8 *1205:B 2.44318e-05
8 *1156:A *203:8 5.68722e-05
*RES
1 *1156:Y *203:8 11.4964 
2 *203:8 *1205:A 9.3 
3 *203:8 *1206:A1 23.5143 
*END

*D_NET *204 0.00279889
*CONN
*I *1174:A I *D sky130_fd_sc_hd__or3_1
*I *1159:A I *D sky130_fd_sc_hd__nand2_1
*I *1208:B1_N I *D sky130_fd_sc_hd__a21bo_1
*I *1157:Y O *D sky130_fd_sc_hd__nand2_1
*CAP
1 *1174:A 0.000427258
2 *1159:A 0
3 *1208:B1_N 0
4 *1157:Y 3.73244e-05
5 *204:19 0.000651509
6 *204:6 0.000261575
7 *1174:A *1159:B 5.40608e-05
8 *1174:A *1166:A 2.89114e-05
9 *1174:A *1166:C 0.000276211
10 *1174:A *1174:B 0.000318107
11 *1174:A *209:12 8.05006e-05
12 *1174:A *311:12 9.6365e-05
13 *1174:A *370:45 0.00018778
14 *204:6 *1157:A 3.08664e-05
15 *204:19 *1157:A 8.23613e-05
16 *204:19 *1159:B 1.08847e-05
17 *204:19 *1166:A 5.52302e-05
18 *204:19 *206:10 7.6644e-05
19 *204:19 *245:12 0.000123295
*RES
1 *1157:Y *204:6 9.83571 
2 *204:6 *1208:B1_N 9.3 
3 *204:6 *204:19 12.8214 
4 *204:19 *1159:A 9.3 
5 *204:19 *1174:A 29.7643 
*END

*D_NET *205 0.00156443
*CONN
*I *1208:A1 I *D sky130_fd_sc_hd__a21bo_1
*I *1159:B I *D sky130_fd_sc_hd__nand2_1
*I *1158:X O *D sky130_fd_sc_hd__or2_1
*CAP
1 *1208:A1 0
2 *1159:B 0.00023382
3 *1158:X 0.000141721
4 *205:8 0.00037554
5 *1159:B *1157:A 5.33005e-05
6 *1159:B *1158:B 2.21701e-05
7 *1159:B *1207:A 5.48781e-05
8 *1159:B *206:10 0.000143906
9 *1159:B *370:45 7.48301e-06
10 *1159:B *370:55 1.40415e-05
11 *205:8 *1157:A 0.000175434
12 *205:8 *1157:B 0
13 *205:8 *1158:B 0.000181381
14 *205:8 *1166:A 1.69175e-05
15 *205:8 *1208:A2 5.52238e-05
16 *205:8 *311:12 2.36643e-05
17 *1174:A *1159:B 5.40608e-05
18 *204:19 *1159:B 1.08847e-05
*RES
1 *1158:X *205:8 13.1393 
2 *205:8 *1159:B 23.2821 
3 *205:8 *1208:A1 9.3 
*END

*D_NET *206 0.00175224
*CONN
*I *1166:A I *D sky130_fd_sc_hd__nor3_1
*I *1207:A I *D sky130_fd_sc_hd__xnor2_1
*I *1159:Y O *D sky130_fd_sc_hd__nand2_1
*CAP
1 *1166:A 0.000191738
2 *1207:A 0.000199708
3 *1159:Y 8.90899e-05
4 *206:10 0.000480536
5 *1166:A *1157:A 0.000202179
6 *1166:A *245:12 5.65955e-05
7 *1166:A *311:12 5.49489e-05
8 *1207:A *1208:A2 8.33463e-05
9 *1207:A *244:10 1.76135e-05
10 *1159:B *1207:A 5.48781e-05
11 *1159:B *206:10 0.000143906
12 *1174:A *1166:A 2.89114e-05
13 *204:19 *1166:A 5.52302e-05
14 *204:19 *206:10 7.6644e-05
15 *205:8 *1166:A 1.69175e-05
*RES
1 *1159:Y *206:10 15.675 
2 *206:10 *1207:A 17.4964 
3 *206:10 *1166:A 18.0321 
*END

*D_NET *207 0.00103469
*CONN
*I *1210:A1 I *D sky130_fd_sc_hd__a21bo_1
*I *1162:A I *D sky130_fd_sc_hd__nand2_1
*I *1160:X O *D sky130_fd_sc_hd__or2_1
*CAP
1 *1210:A1 0
2 *1162:A 0.000208129
3 *1160:X 0.000123887
4 *207:10 0.000332016
5 *1162:A *1162:B 0.000131337
6 *1162:A *208:12 3.34366e-05
7 *1162:A *212:18 0
8 *1162:A *370:45 5.52302e-05
9 *207:10 *208:10 0.000101545
10 *207:10 *208:12 2.31791e-05
11 *207:10 *348:8 2.59355e-05
*RES
1 *1160:X *207:10 15.9786 
2 *207:10 *1162:A 18.5143 
3 *207:10 *1210:A1 13.8 
*END

*D_NET *208 0.00275306
*CONN
*I *1173:A_N I *D sky130_fd_sc_hd__nand2b_1
*I *1210:B1_N I *D sky130_fd_sc_hd__a21bo_1
*I *1162:B I *D sky130_fd_sc_hd__nand2_1
*I *1161:Y O *D sky130_fd_sc_hd__nand2_1
*CAP
1 *1173:A_N 0.000329019
2 *1210:B1_N 5.65652e-05
3 *1162:B 8.07514e-05
4 *1161:Y 0.000215005
5 *208:12 0.000150565
6 *208:10 0.000557273
7 *1162:B *1209:A 0.000171375
8 *1162:B *209:12 3.34295e-05
9 *1162:B *212:18 0
10 *1173:A_N *1173:B 0
11 *1173:A_N *1210:A2 2.77258e-05
12 *1173:A_N *1211:A 2.79509e-06
13 *1173:A_N *1211:B 8.07313e-05
14 *1173:A_N *212:10 9.52877e-05
15 *1173:A_N *212:18 1.32552e-05
16 *1210:B1_N *1210:A2 0.0001399
17 *208:10 *1209:A 0.000189448
18 *208:10 *304:64 0.000271352
19 *208:12 *1209:A 4.90803e-05
20 *1162:A *1162:B 0.000131337
21 *1162:A *208:12 3.34366e-05
22 *207:10 *208:10 0.000101545
23 *207:10 *208:12 2.31791e-05
*RES
1 *1161:Y *208:10 18.9429 
2 *208:10 *208:12 0.732143 
3 *208:12 *1162:B 16.3536 
4 *208:12 *1210:B1_N 15.1571 
5 *208:10 *1173:A_N 20.2286 
*END

*D_NET *209 0.0044353
*CONN
*I *1209:A I *D sky130_fd_sc_hd__xnor2_1
*I *1174:B I *D sky130_fd_sc_hd__or3_1
*I *1166:B I *D sky130_fd_sc_hd__nor3_1
*I *1162:Y O *D sky130_fd_sc_hd__nand2_1
*CAP
1 *1209:A 0.00113879
2 *1174:B 0.000117227
3 *1166:B 0
4 *1162:Y 4.67694e-05
5 *209:12 0.000259669
6 *209:8 0.001328
7 *1174:B *1167:A 0.00014285
8 *1209:A *1284:D 9.6561e-06
9 *1209:A *1353:A 0
10 *1209:A *304:64 0.000501604
11 *209:8 *370:45 4.87953e-05
12 *209:12 *212:18 0
13 *1162:B *1209:A 0.000171375
14 *1162:B *209:12 3.34295e-05
15 *1174:A *1174:B 0.000318107
16 *1174:A *209:12 8.05006e-05
17 *208:10 *1209:A 0.000189448
18 *208:12 *1209:A 4.90803e-05
*RES
1 *1162:Y *209:8 14.7464 
2 *209:8 *209:12 7.66071 
3 *209:12 *1166:B 9.3 
4 *209:12 *1174:B 12.7286 
5 *209:8 *1209:A 31.6393 
*END

*D_NET *210 0.00204419
*CONN
*I *1165:A I *D sky130_fd_sc_hd__nand2_1
*I *1175:A I *D sky130_fd_sc_hd__and4_1
*I *1163:Y O *D sky130_fd_sc_hd__nand2_1
*CAP
1 *1165:A 0
2 *1175:A 0.000216127
3 *1163:Y 0.000240053
4 *210:10 0.00045618
5 *1175:A *1175:B 9.60939e-05
6 *1175:A *1175:C 0.000317602
7 *1175:A *1175:D 2.14658e-05
8 *1175:A *1351:A 4.52751e-05
9 *1175:A *310:14 0.000217153
10 *210:10 *1163:B 2.27416e-05
11 *210:10 *1164:A 0
12 *210:10 *1351:A 0.00018344
13 *210:10 *310:14 0.000228062
*RES
1 *1163:Y *210:10 20.3536 
2 *210:10 *1175:A 20.4429 
3 *210:10 *1165:A 13.8 
*END

*D_NET *211 0.000594262
*CONN
*I *1173:B I *D sky130_fd_sc_hd__nand2b_1
*I *1165:B I *D sky130_fd_sc_hd__nand2_1
*I *1164:X O *D sky130_fd_sc_hd__or2_1
*CAP
1 *1173:B 0.000175095
2 *1165:B 0
3 *1164:X 8.20209e-05
4 *211:6 0.000257116
5 *1173:B *212:10 8.00291e-05
6 *1173:A_N *1173:B 0
*RES
1 *1164:X *211:6 10.6571 
2 *211:6 *1165:B 9.3 
3 *211:6 *1173:B 12.5946 
*END

*D_NET *212 0.00214433
*CONN
*I *1211:A I *D sky130_fd_sc_hd__xnor2_1
*I *1174:C I *D sky130_fd_sc_hd__or3_1
*I *1166:C I *D sky130_fd_sc_hd__nor3_1
*I *1165:Y O *D sky130_fd_sc_hd__nand2_1
*CAP
1 *1211:A 5.28086e-05
2 *1174:C 0
3 *1166:C 9.93486e-05
4 *1165:Y 0.000359494
5 *212:18 0.000411615
6 *212:10 0.00072457
7 *1211:A *1210:A2 0
8 *212:18 *1211:B 2.89114e-05
9 *212:18 *304:62 0
10 *1162:A *212:18 0
11 *1162:B *212:18 0
12 *1173:A_N *1211:A 2.79509e-06
13 *1173:A_N *212:10 9.52877e-05
14 *1173:A_N *212:18 1.32552e-05
15 *1173:B *212:10 8.00291e-05
16 *1174:A *1166:C 0.000276211
17 *209:12 *212:18 0
*RES
1 *1165:Y *212:10 14.9071 
2 *212:10 *212:18 14.0179 
3 *212:18 *1166:C 11.8893 
4 *212:18 *1174:C 9.3 
5 *212:10 *1211:A 10.3357 
*END

*D_NET *213 0.000555902
*CONN
*I *1167:A I *D sky130_fd_sc_hd__inv_2
*I *1166:Y O *D sky130_fd_sc_hd__nor3_1
*CAP
1 *1167:A 0.000206526
2 *1166:Y 0.000206526
3 *1174:B *1167:A 0.00014285
*RES
1 *1166:Y *1167:A 30.9036 
*END

*D_NET *214 0.00235681
*CONN
*I *1172:A I *D sky130_fd_sc_hd__or2_1
*I *1171:B1 I *D sky130_fd_sc_hd__a211o_1
*I *1167:Y O *D sky130_fd_sc_hd__inv_2
*CAP
1 *1172:A 0.000313489
2 *1171:B1 0.000587208
3 *1167:Y 0
4 *214:4 0.000900697
5 *1171:B1 *1171:C1 6.59118e-05
6 *1171:B1 *1172:B 0
7 *1171:B1 *1282:D 8.5387e-05
8 *1171:B1 *217:12 0
9 *1171:B1 *218:14 3.18676e-05
10 *1206:A1 *1171:B1 0.000372248
*RES
1 *1167:Y *214:4 9.3 
2 *214:4 *1171:B1 29.8357 
3 *214:4 *1172:A 13.1393 
*END

*D_NET *215 0.00156695
*CONN
*I *1172:B I *D sky130_fd_sc_hd__or2_1
*I *1170:A I *D sky130_fd_sc_hd__nand2_1
*I *1206:B1_N I *D sky130_fd_sc_hd__a21bo_1
*I *1168:Y O *D sky130_fd_sc_hd__nand2_1
*CAP
1 *1172:B 9.25794e-05
2 *1170:A 0
3 *1206:B1_N 4.78641e-05
4 *1168:Y 0.000254334
5 *215:10 0.000205607
6 *215:6 0.000504656
7 *1172:B *304:62 0
8 *1206:B1_N *1206:A2 0.000144773
9 *215:6 *1169:A 0.000138881
10 *215:6 *216:6 7.32955e-05
11 *215:6 *310:14 1.33343e-05
12 *215:10 *1206:A2 3.53302e-05
13 *215:10 *216:6 5.62995e-05
14 *1171:B1 *1172:B 0
*RES
1 *1168:Y *215:6 12.7107 
2 *215:6 *215:10 2.5 
3 *215:10 *1206:B1_N 10.6571 
4 *215:10 *1170:A 9.3 
5 *215:6 *1172:B 19.6393 
*END

*D_NET *216 0.000980007
*CONN
*I *1170:B I *D sky130_fd_sc_hd__nand2_1
*I *1206:A2 I *D sky130_fd_sc_hd__a21bo_1
*I *1169:X O *D sky130_fd_sc_hd__or2_1
*CAP
1 *1170:B 0
2 *1206:A2 0.000259283
3 *1169:X 7.58715e-05
4 *216:6 0.000335154
5 *1206:B1_N *1206:A2 0.000144773
6 *215:6 *216:6 7.32955e-05
7 *215:10 *1206:A2 3.53302e-05
8 *215:10 *216:6 5.62995e-05
*RES
1 *1169:X *216:6 11.4786 
2 *216:6 *1206:A2 14.5143 
3 *216:6 *1170:B 9.3 
*END

*D_NET *217 0.00146729
*CONN
*I *1171:C1 I *D sky130_fd_sc_hd__a211o_1
*I *1205:B I *D sky130_fd_sc_hd__xnor2_1
*I *1170:Y O *D sky130_fd_sc_hd__nand2_1
*CAP
1 *1171:C1 0.000113322
2 *1205:B 0.000127335
3 *1170:Y 0.000374936
4 *217:12 0.000615593
5 *1171:C1 *1280:CLK 1.02504e-05
6 *1171:C1 *1282:D 7.83659e-05
7 *217:12 *304:18 0
8 *217:12 *304:38 0
9 *217:12 *304:47 0
10 *1171:B1 *1171:C1 6.59118e-05
11 *1171:B1 *217:12 0
12 *1206:A1 *1205:B 5.71472e-05
13 *203:8 *1205:B 2.44318e-05
*RES
1 *1170:Y *217:12 24.8536 
2 *217:12 *1205:B 11.4786 
3 *217:12 *1171:C1 20.8536 
*END

*D_NET *218 0.00493691
*CONN
*I *1176:A1 I *D sky130_fd_sc_hd__a21oi_1
*I *1177:A1 I *D sky130_fd_sc_hd__a21o_1
*I *1196:B I *D sky130_fd_sc_hd__and3_1
*I *1171:X O *D sky130_fd_sc_hd__a211o_1
*CAP
1 *1176:A1 0.000214022
2 *1177:A1 6.78791e-05
3 *1196:B 0
4 *1171:X 0.00133675
5 *218:21 0.000437334
6 *218:14 0.00149218
7 *1176:A1 *1288:CLK 8.07951e-05
8 *1176:A1 *224:14 8.69386e-05
9 *1177:A1 *222:14 0
10 *1177:A1 *224:14 0
11 *218:14 *1039:A 0
12 *218:14 *1197:B 0.000128822
13 *218:14 *1282:D 8.07397e-06
14 *218:14 *222:14 0.000105689
15 *218:14 *304:18 0.000245948
16 *218:14 *346:10 7.91064e-07
17 *218:14 *370:126 6.81335e-05
18 *1171:A1 *218:14 0.000144773
19 *1171:B1 *218:14 3.18676e-05
20 *1196:A *1176:A1 4.72917e-05
21 *1196:A *218:14 2.59355e-05
22 *1196:A *218:21 0.000117621
23 *1282:RESET_B *218:14 0.000225731
24 *120:19 *1176:A1 7.03295e-05
*RES
1 *1171:X *218:14 39.0143 
2 *218:14 *1196:B 9.3 
3 *218:14 *218:21 2.17857 
4 *218:21 *1177:A1 19.3357 
5 *218:21 *1176:A1 21.925 
*END

*D_NET *219 0.000646876
*CONN
*I *1175:B I *D sky130_fd_sc_hd__and4_1
*I *1172:X O *D sky130_fd_sc_hd__or2_1
*CAP
1 *1175:B 0.000144206
2 *1172:X 0.000144206
3 *1175:B *1175:D 0.000180777
4 *1175:B *304:62 8.15939e-05
5 *1175:A *1175:B 9.60939e-05
*RES
1 *1172:X *1175:B 31.3143 
*END

*D_NET *220 0.000949528
*CONN
*I *1175:C I *D sky130_fd_sc_hd__and4_1
*I *1173:Y O *D sky130_fd_sc_hd__nand2b_1
*CAP
1 *1175:C 0.000128693
2 *1173:Y 0.000128693
3 *1175:C *1175:D 5.52238e-05
4 *1175:C *1351:A 0.000319316
5 *1175:A *1175:C 0.000317602
*RES
1 *1173:Y *1175:C 32.2071 
*END

*D_NET *221 0.000813651
*CONN
*I *1175:D I *D sky130_fd_sc_hd__and4_1
*I *1174:X O *D sky130_fd_sc_hd__or3_1
*CAP
1 *1175:D 0.000278092
2 *1174:X 0.000278092
3 *1175:A *1175:D 2.14658e-05
4 *1175:B *1175:D 0.000180777
5 *1175:C *1175:D 5.52238e-05
*RES
1 *1174:X *1175:D 23.3857 
*END

*D_NET *222 0.00222752
*CONN
*I *1176:A2 I *D sky130_fd_sc_hd__a21oi_1
*I *1177:A2 I *D sky130_fd_sc_hd__a21o_1
*I *1196:C I *D sky130_fd_sc_hd__and3_1
*I *1175:X O *D sky130_fd_sc_hd__and4_1
*CAP
1 *1176:A2 0.000122568
2 *1177:A2 2.06112e-05
3 *1196:C 0
4 *1175:X 0.000695272
5 *222:21 0.000223653
6 *222:14 0.000775746
7 *222:14 *1046:A 0
8 *222:14 *224:14 0
9 *222:14 *310:14 0
10 *1177:A1 *222:14 0
11 *1177:B1 *1176:A2 3.99614e-06
12 *1177:B1 *1177:A2 3.99614e-06
13 *1196:A *1176:A2 8.07313e-05
14 *1196:A *1177:A2 0
15 *1196:A *222:14 9.50968e-06
16 *1196:A *222:21 9.87489e-05
17 *1287:RESET_B *222:14 0
18 *120:19 *1176:A2 8.69966e-05
19 *218:14 *222:14 0.000105689
*RES
1 *1175:X *222:14 29.0143 
2 *222:14 *1196:C 9.3 
3 *222:14 *222:21 1.69643 
4 *222:21 *1177:A2 9.72857 
5 *222:21 *1176:A2 12.3179 
*END

*D_NET *223 0.00137914
*CONN
*I *1197:A I *D sky130_fd_sc_hd__nor2_1
*I *1176:Y O *D sky130_fd_sc_hd__a21oi_1
*CAP
1 *1197:A 0.000406628
2 *1176:Y 0.000406628
3 *1197:A *1286:D 0
4 *1197:A *1288:CLK 0.000247778
5 *1197:A *370:126 0.000318101
*RES
1 *1176:Y *1197:A 36.1893 
*END

*D_NET *224 0.00389537
*CONN
*I *1198:B I *D sky130_fd_sc_hd__nand2_1
*I *1201:A2 I *D sky130_fd_sc_hd__a21o_1
*I *1179:A3 I *D sky130_fd_sc_hd__a311o_1
*I *1178:A3 I *D sky130_fd_sc_hd__a31oi_1
*I *1177:X O *D sky130_fd_sc_hd__a21o_1
*CAP
1 *1198:B 0
2 *1201:A2 0.000184723
3 *1179:A3 0.000246683
4 *1178:A3 4.36643e-05
5 *1177:X 0.000250707
6 *224:22 0.000381394
7 *224:20 0.00055499
8 *224:14 0.000529927
9 *1178:A3 *314:16 0
10 *1179:A3 *226:8 1.97695e-05
11 *1201:A2 *314:16 0
12 *224:14 *1287:D 0.000225616
13 *224:14 *1288:CLK 7.15591e-05
14 *224:14 *240:10 0.000125057
15 *224:14 *352:10 2.89114e-05
16 *224:20 *240:10 1.74352e-05
17 *224:22 *314:16 0
18 *1176:A1 *224:14 8.69386e-05
19 *1177:A1 *224:14 0
20 *1178:A1 *1179:A3 0.000270326
21 *1179:A1 *1179:A3 1.97695e-05
22 *1179:A2 *1178:A3 4.1331e-06
23 *1198:A *224:20 0.000528337
24 *1201:A1 *1201:A2 4.29272e-05
25 *116:18 *1179:A3 5.52238e-05
26 *116:18 *1201:A2 0
27 *118:19 *1179:A3 5.52302e-05
28 *118:28 *1179:A3 1.69961e-05
29 *118:47 *1178:A3 1.46624e-05
30 *118:47 *1201:A2 9.69119e-06
31 *118:47 *224:22 5.35516e-05
32 *120:19 *224:14 5.71472e-05
33 *222:14 *224:14 0
*RES
1 *1177:X *224:14 24.9071 
2 *224:14 *224:20 10.8036 
3 *224:20 *224:22 1.94643 
4 *224:22 *1178:A3 14.5321 
5 *224:22 *1179:A3 18.7643 
6 *224:20 *1201:A2 17.3 
7 *224:14 *1198:B 9.3 
*END

*D_NET *225 0.000625925
*CONN
*I *1180:B I *D sky130_fd_sc_hd__xnor2_1
*I *1178:Y O *D sky130_fd_sc_hd__a31oi_1
*CAP
1 *1180:B 0.000164107
2 *1178:Y 0.000164107
3 *1180:B *301:30 0
4 *1179:A2 *1180:B 1.02504e-05
5 *1179:C1 *1180:B 2.35985e-05
6 *1180:A *1180:B 0.000263862
*RES
1 *1178:Y *1180:B 31.6714 
*END

*D_NET *226 0.00236514
*CONN
*I *1189:A2 I *D sky130_fd_sc_hd__a31o_1
*I *1193:A1 I *D sky130_fd_sc_hd__a21oi_1
*I *1184:B I *D sky130_fd_sc_hd__nand2_1
*I *1179:X O *D sky130_fd_sc_hd__a311o_1
*CAP
1 *1189:A2 0.000270308
2 *1193:A1 1.24159e-05
3 *1184:B 2.03441e-05
4 *1179:X 0.000389427
5 *226:17 0.00037133
6 *226:8 0.000498377
7 *1189:A2 *1190:B 0.000184745
8 *1189:A2 *1191:A1 0.000266473
9 *1189:A2 *1193:B1 0.000148196
10 *1189:A2 *1195:A 5.33005e-05
11 *1189:A2 *305:93 0
12 *1193:A1 *1195:A 0
13 *1179:A3 *226:8 1.97695e-05
14 *1184:A *1184:B 5.7661e-06
15 *1184:A *1193:A1 5.7661e-06
16 *1184:A *226:17 5.62995e-05
17 *1189:A1 *1189:A2 4.27437e-05
18 *1191:C1 *1189:A2 1.98839e-05
*RES
1 *1179:X *226:8 16.0143 
2 *226:8 *1184:B 9.72857 
3 *226:8 *226:17 1.76786 
4 *226:17 *1193:A1 9.72857 
5 *226:17 *1189:A2 25.0321 
*END

*D_NET *227 0.00276233
*CONN
*I *1192:A1 I *D sky130_fd_sc_hd__a21o_1
*I *1189:B1 I *D sky130_fd_sc_hd__a31o_1
*I *1183:A_N I *D sky130_fd_sc_hd__nand2b_1
*I *1181:Y O *D sky130_fd_sc_hd__nor2_1
*CAP
1 *1192:A1 0.000257801
2 *1189:B1 0
3 *1183:A_N 6.895e-05
4 *1181:Y 0.000306219
5 *227:21 0.000715105
6 *227:10 0.000832473
7 *1183:A_N *1183:B 3.18676e-05
8 *1183:A_N *1291:D 6.05161e-06
9 *1183:A_N *228:6 7.03295e-05
10 *1192:A1 *1192:A2 2.27416e-05
11 *1192:A1 *305:93 0
12 *1192:A1 *371:10 0
13 *227:10 *1182:A 3.14193e-05
14 *227:10 *1182:B 4.27338e-05
15 *227:10 *1183:B 0
16 *227:10 *1360:A 1.24368e-05
17 *227:10 *228:6 0.000115926
18 *227:21 *1189:A3 1.88048e-05
19 *227:21 *228:21 0.000229475
20 *227:21 *371:10 0
21 *227:21 *371:14 0
22 *101:40 *1192:A1 0
*RES
1 *1181:Y *227:10 15.2107 
2 *227:10 *1183:A_N 11.0679 
3 *227:10 *227:21 14.0357 
4 *227:21 *1189:B1 13.8 
5 *227:21 *1192:A1 17.5143 
*END

*D_NET *228 0.0036236
*CONN
*I *1189:A3 I *D sky130_fd_sc_hd__a31o_1
*I *1191:A1 I *D sky130_fd_sc_hd__o211a_1
*I *1183:B I *D sky130_fd_sc_hd__nand2b_1
*I *1182:Y O *D sky130_fd_sc_hd__nand2_1
*CAP
1 *1189:A3 2.24922e-05
2 *1191:A1 0.000383006
3 *1183:B 0.000108591
4 *1182:Y 0.000340255
5 *228:21 0.000770902
6 *228:6 0.00081425
7 *1183:B *1291:D 1.51844e-05
8 *1191:A1 *1190:B 9.60343e-05
9 *1191:A1 *1191:A2 3.99614e-06
10 *228:6 *1182:A 1.24368e-05
11 *228:21 *305:82 1.08359e-05
12 *1056:A *228:21 0
13 *1183:A_N *1183:B 3.18676e-05
14 *1183:A_N *228:6 7.03295e-05
15 *1189:A2 *1191:A1 0.000266473
16 *101:40 *1189:A3 4.66511e-05
17 *101:40 *228:21 0.000266092
18 *227:10 *1183:B 0
19 *227:10 *228:6 0.000115926
20 *227:21 *1189:A3 1.88048e-05
21 *227:21 *228:21 0.000229475
*RES
1 *1182:Y *228:6 13.9429 
2 *228:6 *1183:B 11.108 
3 *228:6 *228:21 12.8214 
4 *228:21 *1191:A1 19.6036 
5 *228:21 *1189:A3 14.5321 
*END

*D_NET *229 0.000270205
*CONN
*I *1185:A I *D sky130_fd_sc_hd__xnor2_1
*I *1183:Y O *D sky130_fd_sc_hd__nand2b_1
*CAP
1 *1185:A 0.000119169
2 *1183:Y 0.000119169
3 *1185:A *1291:D 3.18676e-05
*RES
1 *1183:Y *1185:A 20.7786 
*END

*D_NET *230 0.000822832
*CONN
*I *1185:B I *D sky130_fd_sc_hd__xnor2_1
*I *1184:Y O *D sky130_fd_sc_hd__nand2_1
*CAP
1 *1185:B 0.000380937
2 *1184:Y 0.000380937
3 *1185:B *355:10 0
4 *1056:A *1185:B 2.61337e-05
5 *1184:A *1185:B 3.48235e-05
*RES
1 *1184:Y *1185:B 34.4036 
*END

*D_NET *231 0.0026025
*CONN
*I *1188:A_N I *D sky130_fd_sc_hd__and2b_1
*I *1192:B1 I *D sky130_fd_sc_hd__a21o_1
*I *1191:A2 I *D sky130_fd_sc_hd__o211a_1
*I *1186:Y O *D sky130_fd_sc_hd__nor2_1
*CAP
1 *1188:A_N 0
2 *1192:B1 3.98319e-05
3 *1191:A2 0.000147013
4 *1186:Y 0.000504795
5 *231:10 0.000303024
6 *231:6 0.000620974
7 *1191:A2 *1190:B 2.44318e-05
8 *1191:A2 *1191:B1 0.000183377
9 *1191:A2 *1193:B1 2.56601e-05
10 *1192:B1 *1192:A2 1.24368e-05
11 *231:6 *1051:A 5.52302e-05
12 *231:6 *1186:A 6.87673e-05
13 *231:6 *1186:B 5.33005e-05
14 *231:6 *1188:B 1.58163e-05
15 *231:6 *232:6 0.000273329
16 *231:10 *1190:B 0
17 *231:10 *1191:B1 5.83304e-05
18 *231:10 *232:17 0.000117903
19 *231:10 *305:93 3.90513e-05
20 *1191:A1 *1191:A2 3.99614e-06
21 *1292:RESET_B *231:6 5.52302e-05
*RES
1 *1186:Y *231:6 18.8714 
2 *231:6 *231:10 7.66071 
3 *231:10 *1191:A2 17.2464 
4 *231:10 *1192:B1 14.3357 
5 *231:6 *1188:A_N 9.3 
*END

*D_NET *232 0.00289029
*CONN
*I *1192:A2 I *D sky130_fd_sc_hd__a21o_1
*I *1191:B1 I *D sky130_fd_sc_hd__o211a_1
*I *1188:B I *D sky130_fd_sc_hd__and2b_1
*I *1187:Y O *D sky130_fd_sc_hd__nand2_1
*CAP
1 *1192:A2 0.000121832
2 *1191:B1 0.000158101
3 *1188:B 0.000121642
4 *1187:Y 0.00041935
5 *232:17 0.000315467
6 *232:6 0.000576527
7 *1191:B1 *1190:B 5.71472e-05
8 *1191:B1 *1193:B1 6.92148e-06
9 *1191:B1 *305:93 0.00021707
10 *232:6 *1051:A 2.89114e-05
11 *232:6 *1186:A 5.52302e-05
12 *232:17 *305:93 0.000128154
13 *1191:A2 *1191:B1 0.000183377
14 *1192:A1 *1192:A2 2.27416e-05
15 *1192:B1 *1192:A2 1.24368e-05
16 *231:6 *1188:B 1.58163e-05
17 *231:6 *232:6 0.000273329
18 *231:10 *1191:B1 5.83304e-05
19 *231:10 *232:17 0.000117903
*RES
1 *1187:Y *232:6 17.2286 
2 *232:6 *1188:B 11.0679 
3 *232:6 *232:17 6.14286 
4 *232:17 *1191:B1 17.8536 
5 *232:17 *1192:A2 16.0143 
*END

*D_NET *233 0.000255084
*CONN
*I *1190:A I *D sky130_fd_sc_hd__xnor2_1
*I *1188:X O *D sky130_fd_sc_hd__and2b_1
*CAP
1 *1190:A 6.26081e-05
2 *1188:X 6.26081e-05
3 *1190:A *1190:B 0.000129868
*RES
1 *1188:X *1190:A 29.2429 
*END

*D_NET *234 0.0015856
*CONN
*I *1190:B I *D sky130_fd_sc_hd__xnor2_1
*I *1189:X O *D sky130_fd_sc_hd__a31o_1
*CAP
1 *1190:B 0.000443761
2 *1189:X 0.000443761
3 *1190:B *1193:B1 0.000150625
4 *1190:B *305:93 0
5 *1189:A2 *1190:B 0.000184745
6 *1190:A *1190:B 0.000129868
7 *1191:A1 *1190:B 9.60343e-05
8 *1191:A2 *1190:B 2.44318e-05
9 *1191:B1 *1190:B 5.71472e-05
10 *1191:C1 *1190:B 5.52238e-05
11 *231:10 *1190:B 0
*RES
1 *1189:X *1190:B 37.9036 
*END

*D_NET *235 0.000263178
*CONN
*I *1193:A2 I *D sky130_fd_sc_hd__a21oi_1
*I *1191:X O *D sky130_fd_sc_hd__o211a_1
*CAP
1 *1193:A2 0.00010416
2 *1191:X 0.00010416
3 *1193:A2 *1193:B1 5.48581e-05
*RES
1 *1191:X *1193:A2 29.5464 
*END

*D_NET *236 0.000894496
*CONN
*I *1193:B1 I *D sky130_fd_sc_hd__a21oi_1
*I *1192:X O *D sky130_fd_sc_hd__a21o_1
*CAP
1 *1193:B1 0.000254118
2 *1192:X 0.000254118
3 *1193:B1 *305:82 0
4 *1193:B1 *305:93 0
5 *1189:A2 *1193:B1 0.000148196
6 *1190:B *1193:B1 0.000150625
7 *1191:A2 *1193:B1 2.56601e-05
8 *1191:B1 *1193:B1 6.92148e-06
9 *1193:A2 *1193:B1 5.48581e-05
*RES
1 *1192:X *1193:B1 32.9214 
*END

*D_NET *237 0.000305422
*CONN
*I *1195:A I *D sky130_fd_sc_hd__xnor2_1
*I *1193:Y O *D sky130_fd_sc_hd__a21oi_1
*CAP
1 *1195:A 0.000126061
2 *1193:Y 0.000126061
3 *1189:A2 *1195:A 5.33005e-05
4 *1193:A1 *1195:A 0
*RES
1 *1193:Y *1195:A 20.6893 
*END

*D_NET *238 0.00181948
*CONN
*I *1195:B I *D sky130_fd_sc_hd__xnor2_1
*I *1194:Y O *D sky130_fd_sc_hd__xnor2_1
*CAP
1 *1195:B 0.000545689
2 *1194:Y 0.000545689
3 *1195:B *1194:B 2.72449e-05
4 *1195:B *1293:CLK 0.00018077
5 *1195:B *1293:D 6.87574e-05
6 *1195:B *1359:A 0.000176234
7 *1195:B *332:32 0.000275094
*RES
1 *1194:Y *1195:B 38.9929 
*END

*D_NET *239 0.000727678
*CONN
*I *1197:B I *D sky130_fd_sc_hd__nor2_1
*I *1196:X O *D sky130_fd_sc_hd__and3_1
*CAP
1 *1197:B 0.000229111
2 *1196:X 0.000229111
3 *1197:B *1286:D 4.15914e-05
4 *1197:B *1288:CLK 0
5 *1197:B *370:126 9.90431e-05
6 *218:14 *1197:B 0.000128822
*RES
1 *1196:X *1197:B 32.9214 
*END

*D_NET *240 0.00185796
*CONN
*I *1200:A2 I *D sky130_fd_sc_hd__a21bo_1
*I *1199:B I *D sky130_fd_sc_hd__xnor2_1
*I *1198:Y O *D sky130_fd_sc_hd__nand2_1
*CAP
1 *1200:A2 0.000162945
2 *1199:B 0.000115013
3 *1198:Y 0.00024496
4 *240:10 0.000522917
5 *1200:A2 *1057:B 7.6644e-05
6 *1200:A2 *1288:CLK 2.81135e-05
7 *1200:A2 *352:10 0.000242372
8 *1200:A2 *352:18 3.34783e-05
9 *240:10 *1287:D 7.83659e-05
10 *240:10 *352:10 0.000153047
11 *1059:A *1200:A2 0
12 *1199:A *1200:A2 0
13 *1199:A *240:10 0
14 *1200:A1 *1200:A2 5.7616e-05
15 *224:14 *240:10 0.000125057
16 *224:20 *240:10 1.74352e-05
*RES
1 *1198:Y *240:10 18.3357 
2 *240:10 *1199:B 15.5679 
3 *240:10 *1200:A2 18.4786 
*END

*D_NET *241 0.000893659
*CONN
*I *1202:B I *D sky130_fd_sc_hd__xnor2_1
*I *1200:X O *D sky130_fd_sc_hd__a21bo_1
*CAP
1 *1202:B 0.00039375
2 *1200:X 0.00039375
3 *1202:B *1044:A 0
4 *1202:B *1057:A 0.00010096
5 *1202:B *1057:B 5.19842e-06
6 *1202:B *1288:CLK 0
7 *1202:B *1356:A 0
8 *1202:B *370:32 0
*RES
1 *1200:X *1202:B 33.7429 
*END

*D_NET *242 0.000455064
*CONN
*I *1203:C I *D sky130_fd_sc_hd__and3_1
*I *1201:X O *D sky130_fd_sc_hd__a21o_1
*CAP
1 *1203:C 0.00020716
2 *1201:X 0.00020716
3 *1066:B *1203:C 5.33702e-07
4 *1070:A1 *1203:C 0
5 *111:12 *1203:C 3.92757e-05
6 *112:6 *1203:C 9.33978e-07
*RES
1 *1201:X *1203:C 31.2607 
*END

*D_NET *243 0.000518874
*CONN
*I *1204:B I *D sky130_fd_sc_hd__xor2_1
*I *1203:X O *D sky130_fd_sc_hd__and3_1
*CAP
1 *1204:B 9.46594e-05
2 *1203:X 9.46594e-05
3 *1066:B *1204:B 0.000276211
4 *1070:A1 *1204:B 5.33433e-05
*RES
1 *1203:X *1204:B 21.6179 
*END

*D_NET *244 0.00119581
*CONN
*I *1208:A2 I *D sky130_fd_sc_hd__a21bo_1
*I *1207:B I *D sky130_fd_sc_hd__xnor2_1
*I *1206:X O *D sky130_fd_sc_hd__a21bo_1
*CAP
1 *1208:A2 0.00011112
2 *1207:B 0
3 *1206:X 0.000368981
4 *244:10 0.0004801
5 *1208:A2 *1157:A 5.52238e-05
6 *1208:A2 *1158:B 2.41972e-05
7 *1207:A *1208:A2 8.33463e-05
8 *1207:A *244:10 1.76135e-05
9 *205:8 *1208:A2 5.52238e-05
*RES
1 *1206:X *244:10 18.7464 
2 *244:10 *1207:B 13.8 
3 *244:10 *1208:A2 16.5857 
*END

*D_NET *245 0.002966
*CONN
*I *1210:A2 I *D sky130_fd_sc_hd__a21bo_1
*I *1209:B I *D sky130_fd_sc_hd__xnor2_1
*I *1208:X O *D sky130_fd_sc_hd__a21bo_1
*CAP
1 *1210:A2 0.000371274
2 *1209:B 0.000618656
3 *1208:X 0.000244074
4 *245:12 0.001234
5 *1209:B *1043:A 9.93955e-05
6 *1209:B *304:72 0
7 *245:12 *1043:A 5.10822e-05
8 *1166:A *245:12 5.65955e-05
9 *1173:A_N *1210:A2 2.77258e-05
10 *1210:B1_N *1210:A2 0.0001399
11 *1211:A *1210:A2 0
12 *204:19 *245:12 0.000123295
*RES
1 *1208:X *245:12 22.6036 
2 *245:12 *1209:B 28.1571 
3 *245:12 *1210:A2 15.1929 
*END

*D_NET *246 0.000203502
*CONN
*I *1211:B I *D sky130_fd_sc_hd__xnor2_1
*I *1210:X O *D sky130_fd_sc_hd__a21bo_1
*CAP
1 *1211:B 4.69295e-05
2 *1210:X 4.69295e-05
3 *1173:A_N *1211:B 8.07313e-05
4 *212:18 *1211:B 2.89114e-05
*RES
1 *1210:X *1211:B 19.9571 
*END

*D_NET *247 0.00261692
*CONN
*I *1214:A2 I *D sky130_fd_sc_hd__a21oi_1
*I *1215:C I *D sky130_fd_sc_hd__and3_1
*I *1212:Y O *D sky130_fd_sc_hd__nand2_1
*CAP
1 *1214:A2 7.10643e-05
2 *1215:C 2.19788e-05
3 *1212:Y 0.000667372
4 *247:14 0.000760415
5 *1214:A2 *1153:A 2.99621e-05
6 *247:14 *1148:B 0.000144773
7 *247:14 *1153:A 4.01861e-05
8 *247:14 *341:10 0.000339978
9 *247:14 *341:12 8.27532e-05
10 *1151:B1 *247:14 7.83587e-05
11 *1153:C *247:14 8.57208e-05
12 *1214:A1 *1214:A2 0.000147142
13 *1214:B1 *247:14 0
14 *188:21 *1214:A2 6.05161e-06
15 *195:8 *1214:A2 1.4606e-05
16 *195:8 *247:14 4.9563e-05
17 *197:12 *247:14 7.6997e-05
*RES
1 *1212:Y *247:14 28.5143 
2 *247:14 *1215:C 9.90714 
3 *247:14 *1214:A2 11.4964 
*END

*D_NET *248 0.00117765
*CONN
*I *1217:B1 I *D sky130_fd_sc_hd__a21o_1
*I *1216:A I *D sky130_fd_sc_hd__nor2_1
*I *1214:Y O *D sky130_fd_sc_hd__a21oi_1
*CAP
1 *1217:B1 0.000152686
2 *1216:A 0.000219583
3 *1214:Y 0
4 *248:6 0.000372269
5 *1216:A *1153:A 0
6 *1216:A *1216:B 0
7 *1216:A *1346:A 0.00010096
8 *1216:A *342:10 0
9 *1216:A *342:19 0
10 *1217:B1 *1153:A 0
11 *1217:B1 *1153:B 0.000186669
12 *1217:B1 *1217:A2 5.52302e-05
13 *1217:B1 *342:19 0
14 *1147:A_N *1216:A 0
15 *1294:A *1217:B1 7.32955e-05
16 *188:21 *1216:A 1.6959e-05
*RES
1 *1214:Y *248:6 13.8 
2 *248:6 *1216:A 17.9071 
3 *248:6 *1217:B1 17.6393 
*END

*D_NET *249 0.000202409
*CONN
*I *1216:B I *D sky130_fd_sc_hd__nor2_1
*I *1215:X O *D sky130_fd_sc_hd__and3_1
*CAP
1 *1216:B 9.65794e-05
2 *1215:X 9.65794e-05
3 *1216:A *1216:B 0
4 *188:21 *1216:B 9.25014e-06
*RES
1 *1215:X *1216:B 29.2429 
*END

*D_NET *250 0.00149913
*CONN
*I *1218:B I *D sky130_fd_sc_hd__xnor2_1
*I *1219:A2 I *D sky130_fd_sc_hd__a21bo_1
*I *1217:X O *D sky130_fd_sc_hd__a21o_1
*CAP
1 *1218:B 0
2 *1219:A2 0.000147819
3 *1217:X 0.000375033
4 *250:10 0.000522852
5 *1219:A2 *1280:D 0
6 *250:10 *1153:A 9.25014e-06
7 *250:10 *1347:A 0
8 *1144:B *250:10 0.000103285
9 *1146:B *250:10 0
10 *1155:C1 *250:10 0
11 *1218:A *1219:A2 1.04232e-05
12 *189:12 *1219:A2 9.90431e-05
13 *190:8 *250:10 5.80706e-06
14 *191:12 *1219:A2 0.000225616
15 *193:8 *250:10 0
*RES
1 *1217:X *250:10 25.1036 
2 *250:10 *1219:A2 12.7286 
3 *250:10 *1218:B 9.3 
*END

*D_NET *251 0.00123822
*CONN
*I *1220:B I *D sky130_fd_sc_hd__xnor2_1
*I *1219:X O *D sky130_fd_sc_hd__a21bo_1
*CAP
1 *1220:B 0.000364806
2 *1219:X 0.000364806
3 *1220:B *1145:A 7.80929e-05
4 *1220:B *1349:A 0.000225307
5 *1220:B *307:10 0.000102365
6 *1220:B *307:14 7.49332e-05
7 acc[18] *1220:B 2.79092e-05
8 *35:11 *1220:B 0
9 *189:12 *1220:B 0
*RES
1 *1219:X *1220:B 36.8321 
*END

*D_NET *252 0.00231189
*CONN
*I *1223:B I *D sky130_fd_sc_hd__xnor2_1
*I *1224:A2 I *D sky130_fd_sc_hd__a21bo_1
*I *1222:X O *D sky130_fd_sc_hd__a21bo_1
*CAP
1 *1223:B 0.000216716
2 *1224:A2 0.000124762
3 *1222:X 0.000254473
4 *252:10 0.000595951
5 *1223:B *1275:D 0.000142575
6 *1224:A2 *253:10 0.000225982
7 *252:10 *253:10 0.000153047
8 *1124:A *1224:A2 9.99853e-05
9 *1124:B *1224:A2 7.09928e-05
10 *1223:A *1223:B 0.00028816
11 *1223:A *252:10 1.08359e-05
12 *180:12 *252:10 0.00012841
*RES
1 *1222:X *252:10 19.4607 
2 *252:10 *1224:A2 17.2107 
3 *252:10 *1223:B 19.2464 
*END

*D_NET *253 0.00360021
*CONN
*I *1226:A2 I *D sky130_fd_sc_hd__a21bo_1
*I *1225:B I *D sky130_fd_sc_hd__xnor2_1
*I *1224:X O *D sky130_fd_sc_hd__a21bo_1
*CAP
1 *1226:A2 0.000225573
2 *1225:B 0.000207599
3 *1224:X 0.000442015
4 *253:10 0.000875187
5 *1133:A *253:10 0.000151333
6 *1138:A1 *1225:B 3.17148e-05
7 *1138:A1 *253:10 0.000358853
8 *1223:A *253:10 3.17148e-05
9 *1224:A2 *253:10 0.000225982
10 *1225:A *1225:B 0.000353998
11 *1226:A1 *1226:A2 0.000228784
12 *171:8 *253:10 9.78745e-05
13 *172:14 *1225:B 0.000125724
14 *172:14 *1226:A2 3.75081e-05
15 *173:14 *1226:A2 5.33005e-05
16 *180:12 *253:10 0
17 *186:12 *253:10 0
18 *252:10 *253:10 0.000153047
*RES
1 *1224:X *253:10 24.9071 
2 *253:10 *1225:B 18.8357 
3 *253:10 *1226:A2 18.05 
*END

*D_NET *254 0.000259278
*CONN
*I *1227:B I *D sky130_fd_sc_hd__xnor2_1
*I *1226:X O *D sky130_fd_sc_hd__a21bo_1
*CAP
1 *1227:B 0.000129639
2 *1226:X 0.000129639
*RES
1 *1226:X *1227:B 20.7786 
*END

*D_NET *255 0.000660932
*CONN
*I *1229:B I *D sky130_fd_sc_hd__and2_1
*I *1228:Y O *D sky130_fd_sc_hd__nand3_1
*CAP
1 *1229:B 0.00015515
2 *1228:Y 0.00015515
3 *1229:B *1342:A 0.00015304
4 *1119:A2 *1229:B 9.60939e-05
5 *1230:B *1229:B 1.19309e-05
6 *164:14 *1229:B 4.38128e-05
7 *165:8 *1229:B 4.57538e-05
*RES
1 *1228:Y *1229:B 30.9036 
*END

*D_NET *256 0.00144253
*CONN
*I *1231:B I *D sky130_fd_sc_hd__xnor2_1
*I *1232:A2 I *D sky130_fd_sc_hd__a21bo_1
*I *1230:Y O *D sky130_fd_sc_hd__nand2_1
*CAP
1 *1231:B 5.9402e-05
2 *1232:A2 0.00019797
3 *1230:Y 0.000237757
4 *256:8 0.000495128
5 *1231:B *1271:D 6.05161e-06
6 *1232:A2 *1342:A 0
7 *256:8 *1342:A 0
8 *1085:C *1232:A2 0
9 *1232:A1 *1232:A2 0.000232399
10 *128:12 *1232:A2 1.74352e-05
11 *130:12 *1232:A2 0.000188594
12 *130:12 *256:8 7.79781e-06
*RES
1 *1230:Y *256:8 18.175 
2 *256:8 *1232:A2 18.7643 
3 *256:8 *1231:B 14.7464 
*END

*D_NET *257 0.00286889
*CONN
*I *1234:A2 I *D sky130_fd_sc_hd__a21bo_1
*I *1233:B I *D sky130_fd_sc_hd__xnor2_1
*I *1232:X O *D sky130_fd_sc_hd__a21bo_1
*CAP
1 *1234:A2 0
2 *1233:B 0.000238322
3 *1232:X 0.00047616
4 *257:6 0.000714483
5 *1077:B *257:6 9.90367e-05
6 *1080:B *257:6 0.000227539
7 *1233:A *1233:B 0.000661699
8 *1233:A *257:6 0.000317082
9 *1234:B1_N *257:6 4.14279e-05
10 *124:10 *257:6 3.18676e-05
11 *125:14 *257:6 5.52238e-05
12 *128:12 *257:6 6.05161e-06
*RES
1 *1232:X *257:6 19.6929 
2 *257:6 *1233:B 15.5857 
3 *257:6 *1234:A2 9.3 
*END

*D_NET *258 0.00106783
*CONN
*I *1235:B I *D sky130_fd_sc_hd__xnor2_1
*I *1234:X O *D sky130_fd_sc_hd__a21bo_1
*CAP
1 *1235:B 0.00019736
2 *1234:X 0.00019736
3 *1235:B *302:22 0.000184635
4 *1235:B *339:12 0.000346639
5 *1233:A *1235:B 0.00014183
*RES
1 *1234:X *1235:B 33.3321 
*END

*D_NET *259 0.00138904
*CONN
*I *1238:A I *D sky130_fd_sc_hd__and2_1
*I *1239:A2 I *D sky130_fd_sc_hd__a21o_1
*I *1240:C I *D sky130_fd_sc_hd__nand3_1
*I *1236:X O *D sky130_fd_sc_hd__or2_1
*CAP
1 *1238:A 5.74099e-05
2 *1239:A2 0
3 *1240:C 9.17391e-05
4 *1236:X 0
5 *259:8 0.000226712
6 *259:4 0.000192383
7 *1240:C *1241:B 5.33005e-05
8 *1240:C *303:36 7.17932e-05
9 *259:8 *303:36 0.00017461
10 *1113:C *259:8 0
11 *1236:A *1238:A 5.7661e-06
12 *1237:A *1238:A 7.37749e-05
13 *1240:B *1240:C 0.00014576
14 *157:20 *259:8 0.000198698
15 *157:22 *1240:C 1.02504e-05
16 *157:22 *259:8 7.05447e-05
17 *159:20 *1238:A 6.05161e-06
18 *159:20 *259:8 1.02504e-05
*RES
1 *1236:X *259:4 9.3 
2 *259:4 *259:8 8.875 
3 *259:8 *1240:C 16.2821 
4 *259:8 *1239:A2 13.8 
5 *259:4 *1238:A 10.5679 
*END

*D_NET *260 0.000320365
*CONN
*I *1238:B I *D sky130_fd_sc_hd__and2_1
*I *1237:Y O *D sky130_fd_sc_hd__nand2_1
*CAP
1 *1238:B 9.36333e-05
2 *1237:Y 9.36333e-05
3 *1237:A *1238:B 0.000117498
4 *159:20 *1238:B 1.56e-05
*RES
1 *1237:Y *1238:B 20.7964 
*END

*D_NET *261 0.00216304
*CONN
*I *1241:A I *D sky130_fd_sc_hd__and2_1
*I *1243:C I *D sky130_fd_sc_hd__and3_1
*I *1242:A2 I *D sky130_fd_sc_hd__a21oi_1
*I *1239:X O *D sky130_fd_sc_hd__a21o_1
*CAP
1 *1241:A 9.34848e-05
2 *1243:C 2.46735e-05
3 *1242:A2 1.65253e-05
4 *1239:X 2.23854e-05
5 *261:14 0.00037523
6 *261:6 0.000449901
7 *261:14 *303:38 0
8 *1106:A *1242:A2 1.54142e-05
9 *1106:A *1243:C 9.30425e-05
10 *1113:C *261:14 0.000195555
11 *1116:B1 *261:14 8.9163e-05
12 *1117:A2 *1241:A 1.98839e-05
13 *1117:A3 *1241:A 0.000102197
14 *1117:A3 *261:6 0
15 *1117:A3 *261:14 2.89114e-05
16 *1117:B1 *261:14 0.000368466
17 *1242:A1 *1242:A2 5.62995e-05
18 *1242:A1 *1243:C 2.14314e-05
19 *149:21 *1242:A2 5.71472e-05
20 *149:21 *1243:C 0
21 *153:20 *261:14 0
22 *154:18 *1243:C 8.33859e-06
23 *154:18 *261:14 0
24 *156:6 *1241:A 9.60771e-05
25 *156:8 *1241:A 2.89114e-05
*RES
1 *1239:X *261:6 9.72857 
2 *261:6 *261:14 16.9464 
3 *261:14 *1242:A2 10.2464 
4 *261:14 *1243:C 10.3357 
5 *261:6 *1241:A 11.8893 
*END

*D_NET *262 0.000759858
*CONN
*I *1241:B I *D sky130_fd_sc_hd__and2_1
*I *1240:Y O *D sky130_fd_sc_hd__nand3_1
*CAP
1 *1241:B 0.000250624
2 *1240:Y 0.000250624
3 *1241:B *1267:D 3.25078e-05
4 *1241:B *303:36 0.000123295
5 *1241:B *369:20 0
6 *1241:B *369:30 4.34543e-05
7 *1240:B *1241:B 6.05161e-06
8 *1240:C *1241:B 5.33005e-05
*RES
1 *1240:Y *1241:B 31.4214 
*END

*D_NET *263 0.0012844
*CONN
*I *1244:A I *D sky130_fd_sc_hd__nor2_1
*I *1245:B1 I *D sky130_fd_sc_hd__a21oi_1
*I *1242:Y O *D sky130_fd_sc_hd__a21oi_1
*CAP
1 *1244:A 9.62835e-06
2 *1245:B1 0.000138344
3 *1242:Y 0.000127084
4 *263:12 0.000275056
5 *1244:A *1268:D 5.52302e-05
6 *1245:B1 *1115:A1 6.42242e-05
7 *1245:B1 *1244:B 2.8266e-06
8 *1245:B1 *1269:CLK 0
9 *1245:B1 *303:38 0
10 *1245:B1 *327:8 5.80706e-06
11 *263:12 *1115:A1 4.43256e-05
12 *263:12 *1259:A 0
13 *263:12 *1268:D 0.000225609
14 *1115:B1 *1244:A 4.27935e-05
15 *1115:B1 *263:12 0.00014285
16 *149:10 *1245:B1 0
17 *149:10 *263:12 0.000150625
*RES
1 *1242:Y *263:12 22.425 
2 *263:12 *1245:B1 20.55 
3 *263:12 *1244:A 9.83571 
*END

*D_NET *264 0.000271227
*CONN
*I *1244:B I *D sky130_fd_sc_hd__nor2_1
*I *1243:X O *D sky130_fd_sc_hd__and3_1
*CAP
1 *1244:B 9.50171e-05
2 *1243:X 9.50171e-05
3 *1106:B *1244:B 0
4 *1116:B1 *1244:B 7.83659e-05
5 *1245:B1 *1244:B 2.8266e-06
6 *149:10 *1244:B 0
*RES
1 *1243:X *1244:B 29.5464 
*END

*D_NET *265 0.00140365
*CONN
*I *1246:B I *D sky130_fd_sc_hd__xnor2_1
*I *1245:Y O *D sky130_fd_sc_hd__a21oi_1
*CAP
1 *1246:B 0.000645275
2 *1245:Y 0.000645275
3 *1246:B *303:55 4.56216e-05
4 *1246:A *1246:B 6.74815e-05
*RES
1 *1245:Y *1246:B 36.0643 
*END

*D_NET *266 0.000666463
*CONN
*I *1249:B I *D sky130_fd_sc_hd__nor2_1
*I *1248:X O *D sky130_fd_sc_hd__o21a_1
*CAP
1 *1249:B 0.000333232
2 *1248:X 0.000333232
3 *1248:B1 *1249:B 0
4 *1249:A *1249:B 0
*RES
1 *1248:X *1249:B 32.9214 
*END

*D_NET *267 0.000378344
*CONN
*I *1251:B I *D sky130_fd_sc_hd__xnor2_1
*I *1250:Y O *D sky130_fd_sc_hd__nor2_1
*CAP
1 *1251:B 0.000143985
2 *1250:Y 0.000143985
3 *1251:B *1265:CLK 0
4 *1250:B *1251:B 5.52302e-05
5 *1251:A *1251:B 3.51442e-05
6 *145:12 *1251:B 0
*RES
1 *1250:Y *1251:B 30.0821 
*END

*D_NET *268 0.000387064
*CONN
*I *1253:B I *D sky130_fd_sc_hd__and2_1
*I *1252:X O *D sky130_fd_sc_hd__or2_1
*CAP
1 *1253:B 0.000118322
2 *1252:X 0.000118322
3 *1253:B *1252:A 5.33005e-05
4 *143:14 *1253:B 9.71197e-05
*RES
1 *1252:X *1253:B 20.7786 
*END

*D_NET *269 0.000501701
*CONN
*I *1262:D I *D sky130_fd_sc_hd__dfrtp_1
*I *1253:X O *D sky130_fd_sc_hd__and2_1
*CAP
1 *1262:D 0.000150617
2 *1253:X 0.000150617
3 *1262:D *1094:A 5.56943e-05
4 *1262:D *306:10 0
5 *1262:D *345:29 0.000144773
*RES
1 *1253:X *1262:D 30.2964 
*END

*D_NET *270 0.00115769
*CONN
*I *1263:D I *D sky130_fd_sc_hd__dfrtp_1
*I *1247:Y O *D sky130_fd_sc_hd__xnor2_1
*CAP
1 *1263:D 0.000384645
2 *1247:Y 0.000384645
3 *1263:D *1262:CLK 0.000200546
4 *1263:D *303:97 4.1331e-06
5 *1263:D *345:10 0
6 *1263:D *345:29 0
7 *143:14 *1263:D 0.00018372
*RES
1 *1247:Y *1263:D 36.1714 
*END

*D_NET *271 0.000406685
*CONN
*I *1264:D I *D sky130_fd_sc_hd__dfrtp_1
*I *1249:Y O *D sky130_fd_sc_hd__nor2_1
*CAP
1 *1264:D 0.000191972
2 *1249:Y 0.000191972
3 *1249:A *1264:D 2.27416e-05
*RES
1 *1249:Y *1264:D 30.2964 
*END

*D_NET *272 0.000325604
*CONN
*I *1265:D I *D sky130_fd_sc_hd__dfrtp_4
*I *1251:Y O *D sky130_fd_sc_hd__xnor2_1
*CAP
1 *1265:D 0.000122273
2 *1251:Y 0.000122273
3 *1265:D *368:18 8.10576e-05
*RES
1 *1251:Y *1265:D 20.7964 
*END

*D_NET *273 0.000269768
*CONN
*I *1266:D I *D sky130_fd_sc_hd__dfrtp_1
*I *1238:X O *D sky130_fd_sc_hd__and2_1
*CAP
1 *1266:D 4.87586e-05
2 *1238:X 4.87586e-05
3 *1266:D *1364:A 7.83587e-05
4 *1266:D *303:36 4.48113e-05
5 *1266:D *360:10 4.90803e-05
*RES
1 *1238:X *1266:D 29.2429 
*END

*D_NET *274 0.000196734
*CONN
*I *1267:D I *D sky130_fd_sc_hd__dfrtp_1
*I *1241:X O *D sky130_fd_sc_hd__and2_1
*CAP
1 *1267:D 4.50889e-05
2 *1241:X 4.50889e-05
3 *1267:D *303:36 9.10431e-06
4 *1267:D *369:30 9.25014e-06
5 *1267:D *369:56 5.56943e-05
6 *1241:B *1267:D 3.25078e-05
*RES
1 *1241:X *1267:D 28.9393 
*END

*D_NET *275 0.00190993
*CONN
*I *1268:D I *D sky130_fd_sc_hd__dfrtp_1
*I *1244:Y O *D sky130_fd_sc_hd__nor2_1
*CAP
1 *1268:D 0.000616585
2 *1244:Y 0.000616585
3 *1268:D *1115:A2 0.000142856
4 *1268:D *364:8 9.90367e-05
5 *1115:B1 *1268:D 2.44318e-05
6 *1116:B1 *1268:D 0.000129595
7 *1244:A *1268:D 5.52302e-05
8 *263:12 *1268:D 0.000225609
*RES
1 *1244:Y *1268:D 30.6357 
*END

*D_NET *276 0.00032033
*CONN
*I *1269:D I *D sky130_fd_sc_hd__dfrtp_1
*I *1246:Y O *D sky130_fd_sc_hd__xnor2_1
*CAP
1 *1269:D 0.000128053
2 *1246:Y 0.000128053
3 *1246:A *1269:D 6.42242e-05
*RES
1 *1246:Y *1269:D 29.7786 
*END

*D_NET *277 0.000260525
*CONN
*I *1270:D I *D sky130_fd_sc_hd__dfrtp_1
*I *1229:X O *D sky130_fd_sc_hd__and2_1
*CAP
1 *1270:D 8.98966e-05
2 *1229:X 8.98966e-05
3 *1270:D *1270:CLK 8.07313e-05
*RES
1 *1229:X *1270:D 20.3679 
*END

*D_NET *278 0.00129382
*CONN
*I *1271:D I *D sky130_fd_sc_hd__dfrtp_1
*I *1231:Y O *D sky130_fd_sc_hd__xnor2_1
*CAP
1 *1271:D 0.000608984
2 *1231:Y 0.000608984
3 *1271:D *1030:A 0
4 *1271:D *1268:CLK 6.97972e-05
5 *1271:D *1342:A 0
6 *1231:B *1271:D 6.05161e-06
*RES
1 *1231:Y *1271:D 36.0107 
*END

*D_NET *279 0.000585045
*CONN
*I *1272:D I *D sky130_fd_sc_hd__dfrtp_1
*I *1233:Y O *D sky130_fd_sc_hd__xnor2_1
*CAP
1 *1272:D 0.000292523
2 *1233:Y 0.000292523
3 *1272:D *338:21 0
*RES
1 *1233:Y *1272:D 31.1179 
*END

*D_NET *280 0.000456178
*CONN
*I *1273:D I *D sky130_fd_sc_hd__dfrtp_1
*I *1235:Y O *D sky130_fd_sc_hd__xnor2_1
*CAP
1 *1273:D 0.000182874
2 *1235:Y 0.000182874
3 *1273:D *302:16 4.1331e-06
4 *1273:D *302:22 4.57445e-05
5 *1235:A *1273:D 4.0552e-05
6 *1273:RESET_B *1273:D 0
*RES
1 *1235:Y *1273:D 30.6 
*END

*D_NET *281 0.00024841
*CONN
*I *1274:D I *D sky130_fd_sc_hd__dfrtp_1
*I *1221:X O *D sky130_fd_sc_hd__xor2_1
*CAP
1 *1274:D 9.10556e-05
2 *1221:X 9.10556e-05
3 *1274:D *336:10 6.62983e-05
*RES
1 *1221:X *1274:D 20.3679 
*END

*D_NET *282 0.00120541
*CONN
*I *1275:D I *D sky130_fd_sc_hd__dfrtp_1
*I *1223:Y O *D sky130_fd_sc_hd__xnor2_1
*CAP
1 *1275:D 0.000464529
2 *1223:Y 0.000464529
3 *1275:D *1034:A 2.59355e-05
4 *1223:B *1275:D 0.000142575
5 *1275:RESET_B *1275:D 5.52238e-05
6 *186:12 *1275:D 5.26184e-05
*RES
1 *1223:Y *1275:D 35.4214 
*END

*D_NET *283 0.00148676
*CONN
*I *1276:D I *D sky130_fd_sc_hd__dfrtp_1
*I *1225:Y O *D sky130_fd_sc_hd__xnor2_1
*CAP
1 *1276:D 0.000657704
2 *1225:Y 0.000657704
3 *1276:D *302:37 0.000171348
*RES
1 *1225:Y *1276:D 38.0286 
*END

*D_NET *284 0.000375138
*CONN
*I *1277:D I *D sky130_fd_sc_hd__dfrtp_1
*I *1227:Y O *D sky130_fd_sc_hd__xnor2_1
*CAP
1 *1277:D 8.12834e-05
2 *1227:Y 8.12834e-05
3 *1277:D *1036:A 0.000109311
4 *1227:A *1277:D 0.00010326
*RES
1 *1227:Y *1277:D 29.475 
*END

*D_NET *285 0.000298299
*CONN
*I *1278:D I *D sky130_fd_sc_hd__dfrtp_1
*I *1213:X O *D sky130_fd_sc_hd__xor2_1
*CAP
1 *1278:D 0.000108919
2 *1213:X 0.000108919
3 *1278:D *341:10 8.04612e-05
*RES
1 *1213:X *1278:D 20.7786 
*END

*D_NET *286 0.000792527
*CONN
*I *1279:D I *D sky130_fd_sc_hd__dfrtp_1
*I *1216:Y O *D sky130_fd_sc_hd__nor2_1
*CAP
1 *1279:D 0.000308517
2 *1216:Y 0.000308517
3 *1279:D *1346:A 0.000175493
*RES
1 *1216:Y *1279:D 32.2429 
*END

*D_NET *287 0.00130987
*CONN
*I *1280:D I *D sky130_fd_sc_hd__dfrtp_1
*I *1218:Y O *D sky130_fd_sc_hd__xnor2_1
*CAP
1 *1280:D 0.000614571
2 *1218:Y 0.000614571
3 *1146:A *1280:D 8.07313e-05
4 *1219:A2 *1280:D 0
*RES
1 *1218:Y *1280:D 29.0107 
*END

*D_NET *288 0.000684652
*CONN
*I *1281:D I *D sky130_fd_sc_hd__dfrtp_1
*I *1220:Y O *D sky130_fd_sc_hd__xnor2_1
*CAP
1 *1281:D 0.000266795
2 *1220:Y 0.000266795
3 *1281:D *307:10 0
4 *1220:A *1281:D 0.000151061
*RES
1 *1220:Y *1281:D 31.5286 
*END

*D_NET *289 0.00061409
*CONN
*I *1282:D I *D sky130_fd_sc_hd__dfrtp_1
*I *1205:Y O *D sky130_fd_sc_hd__xnor2_1
*CAP
1 *1282:D 0.000183289
2 *1205:Y 0.000183289
3 *1282:D *304:18 7.56856e-05
4 *1171:B1 *1282:D 8.5387e-05
5 *1171:C1 *1282:D 7.83659e-05
6 *218:14 *1282:D 8.07397e-06
*RES
1 *1205:Y *1282:D 30.7295 
*END

*D_NET *290 0.00106998
*CONN
*I *1283:D I *D sky130_fd_sc_hd__dfrtp_1
*I *1207:Y O *D sky130_fd_sc_hd__xnor2_1
*CAP
1 *1283:D 0.000454408
2 *1207:Y 0.000454408
3 *1283:D *1042:A 0.000118592
4 *1283:D *1281:CLK 4.25716e-05
5 *1283:RESET_B *1283:D 0
*RES
1 *1207:Y *1283:D 33.8857 
*END

*D_NET *291 0.000445723
*CONN
*I *1284:D I *D sky130_fd_sc_hd__dfrtp_1
*I *1209:Y O *D sky130_fd_sc_hd__xnor2_1
*CAP
1 *1284:D 0.000191441
2 *1209:Y 0.000191441
3 *1284:D *304:64 5.31841e-05
4 *1209:A *1284:D 9.6561e-06
*RES
1 *1209:Y *1284:D 21.2071 
*END

*D_NET *292 0.000382121
*CONN
*I *1285:D I *D sky130_fd_sc_hd__dfrtp_1
*I *1211:Y O *D sky130_fd_sc_hd__xnor2_1
*CAP
1 *1285:D 0.000152173
2 *1211:Y 0.000152173
3 *1285:D *304:62 7.17235e-05
4 *1285:D *304:64 6.05161e-06
*RES
1 *1211:Y *1285:D 30.2964 
*END

*D_NET *293 0.000398632
*CONN
*I *1286:D I *D sky130_fd_sc_hd__dfrtp_1
*I *1197:Y O *D sky130_fd_sc_hd__nor2_1
*CAP
1 *1286:D 0.000142156
2 *1197:Y 0.000142156
3 *1286:D *1286:CLK 7.27294e-05
4 *1197:A *1286:D 0
5 *1197:B *1286:D 4.15914e-05
*RES
1 *1197:Y *1286:D 29.908 
*END

*D_NET *294 0.00141937
*CONN
*I *1287:D I *D sky130_fd_sc_hd__dfrtp_1
*I *1199:Y O *D sky130_fd_sc_hd__xnor2_1
*CAP
1 *1287:D 0.000545806
2 *1199:Y 0.000545806
3 *1287:D *1288:CLK 2.37761e-05
4 *1287:D *370:120 0
5 *224:14 *1287:D 0.000225616
6 *240:10 *1287:D 7.83659e-05
*RES
1 *1199:Y *1287:D 37.475 
*END

*D_NET *295 0.000333763
*CONN
*I *1288:D I *D sky130_fd_sc_hd__dfrtp_1
*I *1202:Y O *D sky130_fd_sc_hd__xnor2_1
*CAP
1 *1288:D 0.00011362
2 *1202:Y 0.00011362
3 *1202:A *1288:D 0.000106524
*RES
1 *1202:Y *1288:D 20.7964 
*END

*D_NET *296 0.0012562
*CONN
*I *1289:D I *D sky130_fd_sc_hd__dfrtp_1
*I *1204:X O *D sky130_fd_sc_hd__xor2_1
*CAP
1 *1289:D 0.000363415
2 *1204:X 0.000363415
3 *1289:D *1060:A 9.90431e-05
4 *1289:D *1289:CLK 8.07313e-05
5 *1289:D *353:32 6.8646e-06
6 *1289:D *354:6 4.89867e-05
7 *1289:D *354:12 1.32552e-05
8 *107:10 *1289:D 0.000128146
9 *107:16 *1289:D 0.00015234
*RES
1 *1204:X *1289:D 35.6 
*END

*D_NET *297 0.000160787
*CONN
*I *1290:D I *D sky130_fd_sc_hd__dfrtp_1
*I *1180:Y O *D sky130_fd_sc_hd__xnor2_1
*CAP
1 *1290:D 6.14201e-05
2 *1180:Y 6.14201e-05
3 *1290:D *305:45 3.79467e-05
4 *1290:RESET_B *1290:D 0
*RES
1 *1180:Y *1290:D 28.9393 
*END

*D_NET *298 0.000553774
*CONN
*I *1291:D I *D sky130_fd_sc_hd__dfrtp_1
*I *1185:Y O *D sky130_fd_sc_hd__xnor2_1
*CAP
1 *1291:D 0.000250335
2 *1185:Y 0.000250335
3 *1291:D *371:20 0
4 *1183:A_N *1291:D 6.05161e-06
5 *1183:B *1291:D 1.51844e-05
6 *1185:A *1291:D 3.18676e-05
*RES
1 *1185:Y *1291:D 31.725 
*END

*D_NET *299 0.000389759
*CONN
*I *1292:D I *D sky130_fd_sc_hd__dfrtp_1
*I *1190:Y O *D sky130_fd_sc_hd__xnor2_1
*CAP
1 *1292:D 0.00019488
2 *1190:Y 0.00019488
*RES
1 *1190:Y *1292:D 21.7429 
*END

*D_NET *300 0.000438896
*CONN
*I *1293:D I *D sky130_fd_sc_hd__dfrtp_1
*I *1195:Y O *D sky130_fd_sc_hd__xnor2_1
*CAP
1 *1293:D 0.000135548
2 *1195:Y 0.000135548
3 *1293:D *1293:CLK 9.90431e-05
4 *1195:B *1293:D 6.87574e-05
*RES
1 *1195:Y *1293:D 21.2071 
*END

*D_NET *301 0.0079766
*CONN
*I *1298:A I *D sky130_fd_sc_hd__clkbuf_16
*I *1297:A I *D sky130_fd_sc_hd__clkbuf_16
*I *1296:A I *D sky130_fd_sc_hd__clkbuf_16
*I *1295:A I *D sky130_fd_sc_hd__clkbuf_16
*I *1294:X O *D sky130_fd_sc_hd__clkbuf_16
*CAP
1 *1298:A 0.000172394
2 *1297:A 0.000763921
3 *1296:A 0.000140061
4 *1295:A 0.000675621
5 *1294:X 0.000226325
6 *301:30 0.00173271
7 *301:12 0.00162748
8 *301:8 0.00183452
9 *1297:A *1286:CLK 0.000141326
10 *1297:A *305:8 4.58194e-05
11 *1297:A *305:12 0.00014181
12 *1298:A *305:8 0.000120587
13 *301:12 *1030:A 0
14 *301:30 *351:12 8.07951e-05
15 *301:30 *370:120 9.32406e-05
16 *1180:A *301:30 0
17 *1180:B *301:30 0
18 *1286:RESET_B *1297:A 0.000179995
*RES
1 *1294:X *301:8 17.2107 
2 *301:8 *301:12 19.1964 
3 *301:12 *1295:A 19.6929 
4 *301:12 *1296:A 11.4786 
5 *301:8 *301:30 19.5 
6 *301:30 *1297:A 19.7107 
7 *301:30 *1298:A 11.9071 
*END

*D_NET *302 0.0130745
*CONN
*I *1275:CLK I *D sky130_fd_sc_hd__dfrtp_1
*I *1299:A I *D sky130_fd_sc_hd__clkbuf_4
*I *1274:CLK I *D sky130_fd_sc_hd__dfrtp_1
*I *1273:CLK I *D sky130_fd_sc_hd__dfrtp_1
*I *1272:CLK I *D sky130_fd_sc_hd__dfrtp_1
*I *1278:CLK I *D sky130_fd_sc_hd__dfrtp_1
*I *1279:CLK I *D sky130_fd_sc_hd__dfrtp_1
*I *1277:CLK I *D sky130_fd_sc_hd__dfrtp_1
*I *1276:CLK I *D sky130_fd_sc_hd__dfrtp_1
*I *1295:X O *D sky130_fd_sc_hd__clkbuf_16
*CAP
1 *1275:CLK 0.000271284
2 *1299:A 7.19737e-05
3 *1274:CLK 3.45413e-05
4 *1273:CLK 0
5 *1272:CLK 3.58312e-05
6 *1278:CLK 0.000765447
7 *1279:CLK 0
8 *1277:CLK 0
9 *1276:CLK 0.000263491
10 *1295:X 3.72704e-05
11 *302:95 0.000441591
12 *302:52 0.00162392
13 *302:37 0.00139513
14 *302:24 0.00126729
15 *302:22 0.00170129
16 *302:16 0.00169668
17 *302:10 0.000645839
18 *302:8 0.000248537
19 *1275:CLK *368:28 0.000224356
20 *302:16 *1135:B 0
21 *302:16 *339:12 4.88699e-05
22 *302:22 *334:8 8.43535e-06
23 *302:22 *338:8 2.42577e-05
24 *302:22 *339:12 0.000129314
25 *302:22 *368:100 5.33433e-05
26 *302:52 *1036:A 0
27 *302:52 *337:12 0.000200413
28 *302:52 *350:14 0.000176234
29 *1138:B2 *302:52 0
30 *1227:A *302:37 7.92975e-05
31 *1235:B *302:22 0.000184635
32 *1272:RESET_B *302:22 0.000266153
33 *1273:D *302:16 4.1331e-06
34 *1273:D *302:22 4.57445e-05
35 *1276:D *302:37 0.000171348
36 *1276:RESET_B *1272:CLK 1.02132e-05
37 *1276:RESET_B *302:22 4.68274e-05
38 *1276:RESET_B *302:24 0.000114579
39 *1279:RESET_B *302:52 0
40 *126:10 *302:22 0
41 *167:14 *302:16 0
42 *169:14 *302:52 0
43 *178:10 *302:37 1.76135e-05
44 *178:10 *302:52 7.57773e-05
45 *179:10 *302:52 0
46 *183:10 *302:16 0
47 *183:21 *302:16 0
48 *184:14 *1275:CLK 0.000118339
49 *184:14 *302:10 0.000106542
50 *184:14 *302:16 6.65302e-05
51 *184:14 *302:95 9.34004e-05
52 *186:12 *1278:CLK 6.75007e-05
53 *198:10 *1278:CLK 0.000240572
*RES
1 *1295:X *302:8 14.3357 
2 *302:8 *302:10 2.55357 
3 *302:10 *302:16 8.48214 
4 *302:16 *302:22 23.8214 
5 *302:22 *302:24 5.875 
6 *302:24 *1276:CLK 12.6214 
7 *302:24 *302:37 15.8571 
8 *302:37 *1277:CLK 13.8 
9 *302:37 *302:52 20.5714 
10 *302:52 *1279:CLK 9.3 
11 *302:52 *1278:CLK 32.1393 
12 *302:22 *1272:CLK 10.0321 
13 *302:16 *1273:CLK 13.8 
14 *302:10 *1274:CLK 14.3357 
15 *302:8 *302:95 2.25 
16 *302:95 *1299:A 14.7464 
17 *302:95 *1275:CLK 20.4786 
*END

*D_NET *303 0.0122942
*CONN
*I *1262:CLK I *D sky130_fd_sc_hd__dfrtp_1
*I *1263:CLK I *D sky130_fd_sc_hd__dfrtp_1
*I *1266:CLK I *D sky130_fd_sc_hd__dfrtp_1
*I *1267:CLK I *D sky130_fd_sc_hd__dfrtp_1
*I *1268:CLK I *D sky130_fd_sc_hd__dfrtp_1
*I *1271:CLK I *D sky130_fd_sc_hd__dfrtp_1
*I *1269:CLK I *D sky130_fd_sc_hd__dfrtp_1
*I *1265:CLK I *D sky130_fd_sc_hd__dfrtp_4
*I *1270:CLK I *D sky130_fd_sc_hd__dfrtp_1
*I *1296:X O *D sky130_fd_sc_hd__clkbuf_16
*CAP
1 *1262:CLK 0.000424699
2 *1263:CLK 0
3 *1266:CLK 0
4 *1267:CLK 0
5 *1268:CLK 0.000139059
6 *1271:CLK 2.23854e-05
7 *1269:CLK 4.35938e-05
8 *1265:CLK 0.000172306
9 *1270:CLK 0.00074211
10 *1296:X 0
11 *303:97 0.000719243
12 *303:55 0.00115696
13 *303:38 0.00148839
14 *303:36 0.000921773
15 *303:32 0.00049488
16 *303:30 0.000715922
17 *303:8 0.000959796
18 *303:4 0.000444373
19 *1262:CLK *1092:B 0.000171368
20 *1262:CLK *360:10 7.54156e-05
21 *1265:CLK *1100:A 0
22 *1268:CLK *1030:A 0
23 *1270:CLK *1099:A1 0
24 *1270:CLK *1100:A 0
25 *1270:CLK *1101:A2 0
26 *1270:CLK *324:14 0
27 *1270:CLK *369:30 8.90314e-05
28 *303:30 *360:31 0.00013008
29 *303:36 *1100:B 0
30 *303:36 *1364:A 0
31 *303:36 *360:10 0
32 *303:36 *360:43 0
33 *303:36 *369:20 0
34 *303:36 *369:56 0
35 *303:38 *369:56 0
36 *303:55 *1102:A 6.87476e-05
37 *303:55 *1245:A2 0.000142856
38 *303:55 *1259:A 0.000186662
39 *303:55 *364:20 1.74352e-05
40 *303:97 *1256:A 0.000128154
41 *303:97 *360:10 9.11365e-06
42 *303:97 *360:31 4.30382e-05
43 *1095:A *1262:CLK 5.80706e-06
44 *1097:A2 *1262:CLK 0
45 *1106:B *303:38 0.000177948
46 *1114:B1 *1270:CLK 0.000148189
47 *1114:C1 *1270:CLK 0
48 *1116:B1 *303:38 0
49 *1117:B1 *303:38 0
50 *1240:B *303:36 4.08555e-06
51 *1240:C *303:36 7.17932e-05
52 *1241:B *303:36 0.000123295
53 *1245:B1 *1269:CLK 0
54 *1245:B1 *303:38 0
55 *1246:A *1269:CLK 0
56 *1246:A *303:38 0
57 *1246:B *303:55 4.56216e-05
58 *1247:A *1262:CLK 0
59 *1251:A *1265:CLK 0
60 *1251:B *1265:CLK 0
61 *1263:D *1262:CLK 0.000200546
62 *1263:D *303:97 4.1331e-06
63 *1266:D *303:36 4.48113e-05
64 *1267:D *303:36 9.10431e-06
65 *1270:D *1270:CLK 8.07313e-05
66 *1270:RESET_B *1270:CLK 0.000125877
67 *1271:D *1268:CLK 6.97972e-05
68 *1271:RESET_B *1268:CLK 5.19842e-06
69 *1271:RESET_B *303:55 4.37999e-05
70 *141:16 *1262:CLK 0.000101545
71 *145:12 *1265:CLK 0.00034251
72 *145:12 *1270:CLK 0.000261707
73 *151:21 *303:38 0
74 *154:18 *303:38 0.000140021
75 *159:20 *303:36 4.53834e-05
76 *164:10 *1270:CLK 0.000560292
77 *259:8 *303:36 0.00017461
78 *261:14 *303:38 0
*RES
1 *1296:X *303:4 9.3 
2 *303:4 *303:8 5.03571 
3 *303:8 *1270:CLK 32.7286 
4 *303:8 *1265:CLK 18.175 
5 *303:4 *303:30 6.69643 
6 *303:30 *303:32 0.428571 
7 *303:32 *303:36 14.3393 
8 *303:36 *303:38 9.23214 
9 *303:38 *1269:CLK 14.5321 
10 *303:38 *303:55 20.375 
11 *303:55 *1271:CLK 9.72857 
12 *303:55 *1268:CLK 20.9071 
13 *303:36 *1267:CLK 13.8 
14 *303:32 *1266:CLK 9.3 
15 *303:30 *303:97 9.875 
16 *303:97 *1263:CLK 13.8 
17 *303:97 *1262:CLK 23.8714 
*END

*D_NET *304 0.010688
*CONN
*I *1285:CLK I *D sky130_fd_sc_hd__dfrtp_1
*I *1284:CLK I *D sky130_fd_sc_hd__dfrtp_1
*I *1283:CLK I *D sky130_fd_sc_hd__dfrtp_1
*I *1281:CLK I *D sky130_fd_sc_hd__dfrtp_1
*I *1287:CLK I *D sky130_fd_sc_hd__dfrtp_1
*I *1300:A I *D sky130_fd_sc_hd__clkbuf_8
*I *1282:CLK I *D sky130_fd_sc_hd__dfrtp_1
*I *1280:CLK I *D sky130_fd_sc_hd__dfrtp_1
*I *1297:X O *D sky130_fd_sc_hd__clkbuf_16
*CAP
1 *1285:CLK 0
2 *1284:CLK 0
3 *1283:CLK 0
4 *1281:CLK 0.000921918
5 *1287:CLK 0.000149297
6 *1300:A 0
7 *1282:CLK 0
8 *1280:CLK 0.000431144
9 *1297:X 0
10 *304:72 0.00137198
11 *304:64 0.000973076
12 *304:62 0.00109461
13 *304:47 0.000826428
14 *304:38 0.00018475
15 *304:18 0.000836539
16 *304:6 0.000484617
17 *1281:CLK *1040:A 0
18 *1281:CLK *344:8 0.000153474
19 *1281:CLK *344:10 7.15846e-05
20 *1281:CLK *370:55 0
21 *1287:CLK *1168:B 5.52302e-05
22 *1287:CLK *1169:A 5.33433e-05
23 *1287:CLK *310:14 3.9846e-05
24 *304:18 *346:10 6.97332e-05
25 *304:38 *346:10 5.80217e-05
26 *304:47 *346:10 7.58571e-05
27 *304:62 *1351:A 0.00096062
28 *304:62 *312:12 0
29 *304:62 *346:10 7.80714e-06
30 *304:64 *1160:A 4.88637e-05
31 *304:64 *1161:B 5.52302e-05
32 *304:64 *348:8 0.000312209
33 *304:72 *1043:A 0
34 *304:72 *370:55 4.1331e-06
35 *1171:A1 *304:18 0
36 *1171:C1 *1280:CLK 1.02504e-05
37 *1172:B *304:62 0
38 *1175:B *304:62 8.15939e-05
39 *1209:A *304:64 0.000501604
40 *1209:B *304:72 0
41 *1220:A *1281:CLK 0
42 *1281:RESET_B *1281:CLK 3.92854e-05
43 *1282:D *304:18 7.56856e-05
44 *1283:D *1281:CLK 4.25716e-05
45 *1283:RESET_B *304:72 0
46 *1284:D *304:64 5.31841e-05
47 *1284:RESET_B *304:64 4.8474e-05
48 *1284:RESET_B *304:72 0
49 *1285:D *304:62 7.17235e-05
50 *1285:D *304:64 6.05161e-06
51 *208:10 *304:64 0.000271352
52 *212:18 *304:62 0
53 *217:12 *304:18 0
54 *217:12 *304:38 0
55 *217:12 *304:47 0
56 *218:14 *304:18 0.000245948
*RES
1 *1297:X *304:6 13.8 
2 *304:6 *304:18 14.3214 
3 *304:18 *1280:CLK 25.5679 
4 *304:18 *1282:CLK 9.3 
5 *304:6 *304:38 1.94643 
6 *304:38 *1300:A 13.8 
7 *304:38 *304:47 2.55357 
8 *304:47 *1287:CLK 16.8 
9 *304:47 *304:62 18.8393 
10 *304:62 *304:64 14.0893 
11 *304:64 *304:72 12.875 
12 *304:72 *1281:CLK 28.925 
13 *304:72 *1283:CLK 13.8 
14 *304:64 *1284:CLK 9.3 
15 *304:62 *1285:CLK 9.3 
*END

*D_NET *305 0.0142863
*CONN
*I *1289:CLK I *D sky130_fd_sc_hd__dfrtp_1
*I *1292:CLK I *D sky130_fd_sc_hd__dfrtp_1
*I *1293:CLK I *D sky130_fd_sc_hd__dfrtp_1
*I *1290:CLK I *D sky130_fd_sc_hd__dfrtp_1
*I *1291:CLK I *D sky130_fd_sc_hd__dfrtp_1
*I *1264:CLK I *D sky130_fd_sc_hd__dfrtp_1
*I *1301:A I *D sky130_fd_sc_hd__clkbuf_4
*I *1288:CLK I *D sky130_fd_sc_hd__dfrtp_1
*I *1286:CLK I *D sky130_fd_sc_hd__dfrtp_1
*I *1298:X O *D sky130_fd_sc_hd__clkbuf_16
*CAP
1 *1289:CLK 0.000386085
2 *1292:CLK 0
3 *1293:CLK 6.30663e-05
4 *1290:CLK 0
5 *1291:CLK 0.000598751
6 *1264:CLK 0.000312984
7 *1301:A 0
8 *1288:CLK 0.000767808
9 *1286:CLK 0.000121214
10 *1298:X 0
11 *305:93 0.000840848
12 *305:82 0.000851121
13 *305:47 0.00105408
14 *305:45 0.000346251
15 *305:12 0.00113546
16 *305:8 0.000533023
17 *305:6 0.000661055
18 *305:4 0.000503859
19 *1288:CLK *1046:A 0
20 *1288:CLK *1057:B 6.81083e-05
21 *1288:CLK *1356:A 0.000138437
22 *1288:CLK *352:10 0.000397134
23 *1289:CLK *354:6 0.00027322
24 *1289:CLK *370:12 0.000198698
25 *1291:CLK *1049:A 0.000537165
26 *1291:CLK *371:20 0.000175502
27 *305:8 *351:12 2.28598e-05
28 *305:12 *351:12 0.000106511
29 *305:82 *1055:A 0.000120587
30 *305:82 *1359:A 0.000186669
31 *305:82 *319:14 4.72818e-05
32 *305:82 *355:25 3.14193e-05
33 *1056:B *305:82 5.52238e-05
34 *1176:A1 *1288:CLK 8.07951e-05
35 *1180:A *305:45 0.000227729
36 *1184:A *305:82 0
37 *1189:A2 *305:93 0
38 *1190:B *305:93 0
39 *1191:B1 *305:93 0.00021707
40 *1192:A1 *305:93 0
41 *1193:B1 *305:82 0
42 *1193:B1 *305:93 0
43 *1195:B *1293:CLK 0.00018077
44 *1197:A *1288:CLK 0.000247778
45 *1197:B *1288:CLK 0
46 *1200:A2 *1288:CLK 2.81135e-05
47 *1202:B *1288:CLK 0
48 *1286:D *1286:CLK 7.27294e-05
49 *1286:RESET_B *305:12 9.84792e-05
50 *1287:D *1288:CLK 2.37761e-05
51 *1287:RESET_B *1288:CLK 0
52 *1289:D *1289:CLK 8.07313e-05
53 *1289:RESET_B *1289:CLK 0.00010326
54 *1290:D *305:45 3.79467e-05
55 *1293:D *1293:CLK 9.90431e-05
56 *1297:A *1286:CLK 0.000141326
57 *1297:A *305:8 4.58194e-05
58 *1297:A *305:12 0.00014181
59 *1298:A *305:8 0.000120587
60 *101:8 *305:82 9.90431e-05
61 *101:40 *305:82 0.00034358
62 *101:40 *305:93 0.000216297
63 *103:10 *305:6 0.000265794
64 *103:10 *305:8 6.05161e-06
65 *103:10 *305:82 0.000623771
66 *224:14 *1288:CLK 7.15591e-05
67 *228:21 *305:82 1.08359e-05
68 *231:10 *305:93 3.90513e-05
69 *232:17 *305:93 0.000128154
*RES
1 *1298:X *305:4 9.3 
2 *305:4 *305:6 4.64286 
3 *305:6 *305:8 5.46429 
4 *305:8 *305:12 5.89286 
5 *305:12 *1286:CLK 12.7107 
6 *305:12 *1288:CLK 36.6214 
7 *305:8 *1301:A 9.3 
8 *305:6 *305:45 9.48214 
9 *305:45 *305:47 2.55357 
10 *305:47 *1264:CLK 19.3179 
11 *305:47 *1291:CLK 26.6571 
12 *305:45 *1290:CLK 13.8 
13 *305:4 *305:82 16.0357 
14 *305:82 *1293:CLK 15.5679 
15 *305:82 *305:93 10.1429 
16 *305:93 *1292:CLK 13.8 
17 *305:93 *1289:CLK 23.425 
*END

*D_NET *306 0.00147975
*CONN
*I *1252:A I *D sky130_fd_sc_hd__or2_1
*I *1096:A I *D sky130_fd_sc_hd__nand2_1
*I *1306:X O *D sky130_fd_sc_hd__clkbuf_1
*CAP
1 *1252:A 9.16986e-05
2 *1096:A 0.000103613
3 *1306:X 0.000185904
4 *306:10 0.000381215
5 *1096:A *332:32 0.000247764
6 *1096:A *345:29 0
7 *306:10 *309:6 5.52238e-05
8 *306:10 *332:32 0.000295844
9 *1253:B *1252:A 5.33005e-05
10 *1262:D *306:10 0
11 *143:12 *1096:A 6.5185e-05
*RES
1 *1306:X *306:10 18.1036 
2 *306:10 *1096:A 16.9607 
3 *306:10 *1252:A 15.1571 
*END

*D_NET *307 0.00331542
*CONN
*I *1152:B1 I *D sky130_fd_sc_hd__o211a_1
*I *1142:A I *D sky130_fd_sc_hd__or2_1
*I *1143:A I *D sky130_fd_sc_hd__nand2_1
*I *1307:X O *D sky130_fd_sc_hd__buf_1
*CAP
1 *1152:B1 0.000399018
2 *1142:A 0
3 *1143:A 7.10924e-05
4 *1307:X 0.000367231
5 *307:14 0.000189636
6 *307:10 0.000884792
7 *1143:A *343:18 0.000150539
8 *1152:B1 *1152:A1 0.000214982
9 *1152:B1 *308:8 0.000618912
10 *307:10 *1155:A2 0
11 *307:14 *1155:A2 0
12 *1220:A *307:10 5.33334e-05
13 *1220:B *307:10 0.000102365
14 *1220:B *307:14 7.49332e-05
15 *1281:D *307:10 0
16 *202:8 *1152:B1 0.000188586
*RES
1 *1307:X *307:10 19.7464 
2 *307:10 *307:14 7.05357 
3 *307:14 *1143:A 11.0857 
4 *307:14 *1142:A 9.3 
5 *307:10 *1152:B1 23.2821 
*END

*D_NET *308 0.00262084
*CONN
*I *1145:A I *D sky130_fd_sc_hd__xnor2_1
*I *1152:A1 I *D sky130_fd_sc_hd__o211a_1
*I *1155:A1 I *D sky130_fd_sc_hd__a211oi_1
*I *1308:X O *D sky130_fd_sc_hd__buf_1
*CAP
1 *1145:A 6.58653e-05
2 *1152:A1 0.000122392
3 *1155:A1 1.56769e-05
4 *1308:X 0
5 *308:8 0.000483286
6 *308:4 0.000411083
7 *1145:A *1349:A 3.51442e-05
8 *308:8 *1155:A2 0.000140933
9 *1152:B1 *1152:A1 0.000214982
10 *1152:B1 *308:8 0.000618912
11 *1155:B1 *1152:A1 0.000321912
12 *1155:B1 *1155:A1 1.04232e-05
13 *1220:B *1145:A 7.80929e-05
14 *1307:A *1145:A 5.10602e-05
15 *35:11 *1145:A 2.76516e-05
16 *202:8 *1152:A1 2.3426e-05
*RES
1 *1308:X *308:4 9.3 
2 *308:4 *308:8 8.35714 
3 *308:8 *1155:A1 9.72857 
4 *308:8 *1152:A1 14.4071 
5 *308:4 *1145:A 20.55 
*END

*D_NET *309 0.00193727
*CONN
*I *1094:A I *D sky130_fd_sc_hd__nor2_1
*I *1092:A I *D sky130_fd_sc_hd__nand2_1
*I *1309:X O *D sky130_fd_sc_hd__clkbuf_1
*CAP
1 *1094:A 0.00016449
2 *1092:A 7.07088e-05
3 *1309:X 0.000319695
4 *309:6 0.000554893
5 *1092:A *321:12 1.92789e-05
6 *1094:A *1092:B 0.000256871
7 *1094:A *345:29 0
8 *309:6 *321:12 0.000169066
9 *1093:A *1092:A 0
10 *1262:D *1094:A 5.56943e-05
11 *1306:A *309:6 0.000271345
12 *306:10 *309:6 5.52238e-05
*RES
1 *1309:X *309:6 15.9964 
2 *309:6 *1092:A 10.5679 
3 *309:6 *1094:A 22.675 
*END

*D_NET *310 0.00238452
*CONN
*I *1168:A I *D sky130_fd_sc_hd__nand2_1
*I *1169:A I *D sky130_fd_sc_hd__or2_1
*I *1310:X O *D sky130_fd_sc_hd__clkbuf_1
*CAP
1 *1168:A 2.83028e-05
2 *1169:A 4.04153e-05
3 *1310:X 0.000750617
4 *310:14 0.000819335
5 *310:14 *1164:A 0
6 *310:14 *1168:B 5.52302e-05
7 *310:14 *1351:A 0
8 *1175:A *310:14 0.000217153
9 *1287:CLK *1169:A 5.33433e-05
10 *1287:CLK *310:14 3.9846e-05
11 *210:10 *310:14 0.000228062
12 *215:6 *1169:A 0.000138881
13 *215:6 *310:14 1.33343e-05
14 *222:14 *310:14 0
*RES
1 *1310:X *310:14 33.675 
2 *310:14 *1169:A 10.6571 
3 *310:14 *1168:A 9.72857 
*END

*D_NET *311 0.00218773
*CONN
*I *1158:A I *D sky130_fd_sc_hd__or2_1
*I *1157:A I *D sky130_fd_sc_hd__nand2_1
*I *1311:X O *D sky130_fd_sc_hd__clkbuf_1
*CAP
1 *1158:A 0
2 *1157:A 0.000142561
3 *1311:X 0.000532619
4 *311:12 0.00067518
5 *1157:A *1158:B 5.9539e-05
6 *311:12 *1043:A 0
7 *311:12 *1158:B 3.4846e-06
8 *1159:B *1157:A 5.33005e-05
9 *1166:A *1157:A 0.000202179
10 *1166:A *311:12 5.49489e-05
11 *1174:A *311:12 9.6365e-05
12 *1208:A2 *1157:A 5.52238e-05
13 *204:6 *1157:A 3.08664e-05
14 *204:19 *1157:A 8.23613e-05
15 *205:8 *1157:A 0.000175434
16 *205:8 *311:12 2.36643e-05
*RES
1 *1311:X *311:12 27.7643 
2 *311:12 *1157:A 14.925 
3 *311:12 *1158:A 9.3 
*END

*D_NET *312 0.000847014
*CONN
*I *1161:A I *D sky130_fd_sc_hd__nand2_1
*I *1160:A I *D sky130_fd_sc_hd__or2_1
*I *1312:X O *D sky130_fd_sc_hd__clkbuf_1
*CAP
1 *1161:A 0
2 *1160:A 0.000175112
3 *1312:X 0.000155926
4 *312:12 0.000331037
5 *1160:A *1161:B 3.03304e-05
6 *1160:A *348:8 5.62995e-05
7 *312:12 *1351:A 0
8 *312:12 *1353:A 4.94455e-05
9 *304:62 *312:12 0
10 *304:64 *1160:A 4.88637e-05
*RES
1 *1312:X *312:12 20.7821 
2 *312:12 *1160:A 12.8893 
3 *312:12 *1161:A 9.3 
*END

*D_NET *313 0.00100443
*CONN
*I *1164:A I *D sky130_fd_sc_hd__or2_1
*I *1163:A I *D sky130_fd_sc_hd__nand2_1
*I *1313:X O *D sky130_fd_sc_hd__clkbuf_1
*CAP
1 *1164:A 0.000189155
2 *1163:A 4.79998e-05
3 *1313:X 7.45608e-05
4 *313:8 0.000311716
5 *1163:A *1044:A 0
6 *1163:A *1163:B 3.46677e-05
7 *1164:A *1044:A 0
8 *1164:A *1164:B 7.80929e-05
9 *1164:A *1351:A 0
10 *313:8 *1044:A 6.75704e-05
11 *313:8 *1163:B 4.59075e-05
12 *1285:RESET_B *1164:A 0.000154762
13 *210:10 *1164:A 0
14 *310:14 *1164:A 0
*RES
1 *1313:X *313:8 11.0857 
2 *313:8 *1163:A 10.2643 
3 *313:8 *1164:A 22.675 
*END

*D_NET *314 0.0033539
*CONN
*I *1072:A I *D sky130_fd_sc_hd__or2_1
*I *1071:A I *D sky130_fd_sc_hd__nand2_1
*I *1314:X O *D sky130_fd_sc_hd__clkbuf_1
*CAP
1 *1072:A 0
2 *1071:A 2.47499e-05
3 *1314:X 0.000952991
4 *314:16 0.000977741
5 *1071:A *1071:B 7.17136e-05
6 *1071:A *1072:B 9.90367e-05
7 *314:16 *1071:B 9.71197e-05
8 *314:16 *1072:B 1.98839e-05
9 *314:16 *1355:A 0.00036658
10 *314:16 *351:27 1.52978e-05
11 acc[24] *314:16 9.33978e-07
12 *1063:B *314:16 0
13 *1064:B *314:16 0.000128161
14 *1073:A *314:16 0
15 *1073:B *314:16 5.52302e-05
16 *1178:A3 *314:16 0
17 *1201:A2 *314:16 0
18 *1203:A *314:16 0
19 *110:12 *314:16 0
20 *110:27 *314:16 0.000442078
21 *111:12 *314:16 0
22 *118:8 *314:16 4.43256e-05
23 *120:10 *1071:A 3.03304e-05
24 *120:10 *314:16 2.77289e-05
25 *224:22 *314:16 0
*RES
1 *1314:X *314:16 38.8893 
2 *314:16 *1071:A 10.6571 
3 *314:16 *1072:A 9.3 
*END

*D_NET *315 0.00195516
*CONN
*I *1057:A I *D sky130_fd_sc_hd__nand2_1
*I *1058:A I *D sky130_fd_sc_hd__or2_1
*I *1315:X O *D sky130_fd_sc_hd__clkbuf_1
*CAP
1 *1057:A 0.000284654
2 *1058:A 7.809e-05
3 *1315:X 0.000329747
4 *315:8 0.000692491
5 *1057:A *1057:B 6.70062e-06
6 *1057:A *1058:B 6.87574e-05
7 *1058:A *1356:A 0
8 *1058:A *370:120 1.21328e-05
9 *315:8 *1355:A 0
10 *315:8 *1356:A 0
11 *315:8 *370:120 0
12 *1059:A *1058:A 2.8266e-06
13 *1065:A *1057:A 0.000140933
14 *1202:B *1057:A 0.00010096
15 *1288:RESET_B *315:8 0.000104974
16 *104:8 *1057:A 0.000116336
17 *104:21 *1058:A 1.65558e-05
*RES
1 *1315:X *315:8 19.9964 
2 *315:8 *1058:A 14.8357 
3 *315:8 *1057:A 20.0768 
*END

*D_NET *316 0.00126861
*CONN
*I *1067:B1 I *D sky130_fd_sc_hd__o211a_1
*I *1061:A I *D sky130_fd_sc_hd__nand2_1
*I *1062:A I *D sky130_fd_sc_hd__or2_1
*I *1316:X O *D sky130_fd_sc_hd__buf_1
*CAP
1 *1067:B1 0.000152271
2 *1061:A 0
3 *1062:A 4.39276e-05
4 *1316:X 0.000100883
5 *316:14 0.000129829
6 *316:10 0.000339056
7 *1062:A *353:8 0.00010096
8 *1062:A *353:17 5.71472e-05
9 *1067:B1 *1060:A 4.22245e-05
10 *1067:B1 *353:32 5.63467e-05
11 *1067:B1 *354:12 5.52302e-05
12 *316:10 *318:10 4.25809e-05
13 *316:14 *353:17 4.7194e-05
14 *316:14 *353:32 0.00010096
*RES
1 *1316:X *316:10 19.9429 
2 *316:10 *316:14 2.19643 
3 *316:14 *1062:A 10.6571 
4 *316:14 *1061:A 9.3 
5 *316:10 *1067:B1 12.6527 
*END

*D_NET *317 0.000838133
*CONN
*I *1079:A I *D sky130_fd_sc_hd__or2_1
*I *1078:A I *D sky130_fd_sc_hd__nand2_1
*I *1317:X O *D sky130_fd_sc_hd__clkbuf_1
*CAP
1 *1079:A 0.000132387
2 *1078:A 0
3 *1317:X 0.000113804
4 *317:12 0.000246191
5 *1079:A *1074:B 3.57366e-05
6 *1079:A *1078:B 5.52302e-05
7 *1079:A *334:8 1.94103e-05
8 *1079:A *368:100 5.52238e-05
9 *317:12 *1074:A 4.97121e-06
10 *317:12 *1340:A 5.26091e-05
11 *317:12 *328:10 2.56694e-05
12 *1317:A *317:12 1.92905e-05
13 *125:6 *1079:A 1.92789e-05
14 *125:14 *317:12 5.83304e-05
*RES
1 *1317:X *317:12 20.7821 
2 *317:12 *1078:A 9.3 
3 *317:12 *1079:A 11.9071 
*END

*D_NET *318 0.00180398
*CONN
*I *1067:A1 I *D sky130_fd_sc_hd__o211a_1
*I *1060:A I *D sky130_fd_sc_hd__xnor2_1
*I *1068:A1 I *D sky130_fd_sc_hd__a211o_1
*I *1318:X O *D sky130_fd_sc_hd__buf_1
*CAP
1 *1067:A1 0
2 *1060:A 0.000142753
3 *1068:A1 9.52736e-05
4 *1318:X 0.000239698
5 *318:21 0.000142753
6 *318:10 0.000334971
7 *1060:A *353:32 0.000217533
8 *1060:A *354:12 0.000105793
9 *1068:A1 *1068:A2 0.000172375
10 *318:10 *1068:A2 1.02504e-05
11 *318:10 *1357:A 3.69047e-06
12 *318:10 *354:12 7.22594e-05
13 *1067:B1 *1060:A 4.22245e-05
14 *1068:C1 *1068:A1 4.79842e-05
15 *1289:D *1060:A 9.90431e-05
16 *107:10 *1060:A 3.48001e-05
17 *316:10 *318:10 4.25809e-05
*RES
1 *1318:X *318:10 17.5143 
2 *318:10 *1068:A1 16.05 
3 *318:10 *318:21 4.5 
4 *318:21 *1060:A 14.1036 
5 *318:21 *1067:A1 9.3 
*END

*D_NET *319 0.00252567
*CONN
*I *1054:A I *D sky130_fd_sc_hd__nand2_1
*I *1055:A I *D sky130_fd_sc_hd__or2_1
*I *1319:X O *D sky130_fd_sc_hd__clkbuf_1
*CAP
1 *1054:A 1.11927e-05
2 *1055:A 5.98006e-05
3 *1319:X 0.000514646
4 *319:14 0.000585639
5 *1054:A *1359:A 0
6 *1055:A *1055:B 1.97695e-05
7 *1055:A *355:25 0.000273269
8 *319:14 *1359:A 0.000580379
9 *319:14 *332:32 0.000126439
10 *319:14 *355:25 8.57023e-05
11 *319:14 *371:14 4.57445e-05
12 *1056:B *1055:A 5.52238e-05
13 *305:82 *1055:A 0.000120587
14 *305:82 *319:14 4.72818e-05
*RES
1 *1319:X *319:14 30.05 
2 *319:14 *1055:A 12.3179 
3 *319:14 *1054:A 9.72857 
*END

*D_NET *320 0.000949627
*CONN
*I *1182:A I *D sky130_fd_sc_hd__nand2_1
*I *1181:A I *D sky130_fd_sc_hd__nor2_1
*I *1320:X O *D sky130_fd_sc_hd__clkbuf_1
*CAP
1 *1182:A 0.00016925
2 *1181:A 0
3 *1320:X 0.000181743
4 *320:12 0.000350993
5 *1182:A *1182:B 9.60875e-05
6 *1182:A *1360:A 6.3481e-05
7 *320:12 *332:32 3.97543e-05
8 *320:12 *356:10 4.46186e-06
9 *1320:A *320:12 0
10 *227:10 *1182:A 3.14193e-05
11 *228:6 *1182:A 1.24368e-05
*RES
1 *1320:X *320:12 20.8893 
2 *320:12 *1181:A 9.3 
3 *320:12 *1182:A 12.7464 
*END

*D_NET *321 0.00229959
*CONN
*I *1091:A I *D sky130_fd_sc_hd__nor2_1
*I *1090:A I *D sky130_fd_sc_hd__and2_1
*I *1321:X O *D sky130_fd_sc_hd__clkbuf_1
*CAP
1 *1091:A 1.24159e-05
2 *1090:A 9.14809e-05
3 *1321:X 0.000741712
4 *321:12 0.000845609
5 *1090:A *1091:B 5.2714e-05
6 *1091:A *1091:B 5.7661e-06
7 *321:12 *1053:A 0
8 *1092:A *321:12 1.92789e-05
9 *1097:B1 *321:12 0.000102207
10 *1306:A *321:12 0.000146523
11 *1321:A *321:12 1.21955e-05
12 *139:6 *321:12 0.000100625
13 *309:6 *321:12 0.000169066
*RES
1 *1321:X *321:12 32.0857 
2 *321:12 *1090:A 11.0857 
3 *321:12 *1091:A 9.72857 
*END

*D_NET *322 0.00091393
*CONN
*I *1187:A I *D sky130_fd_sc_hd__nand2_1
*I *1186:A I *D sky130_fd_sc_hd__nor2_1
*I *1322:X O *D sky130_fd_sc_hd__clkbuf_1
*CAP
1 *1187:A 0
2 *1186:A 0.000132292
3 *1322:X 0.000127541
4 *322:12 0.000259833
5 *1186:A *1186:B 5.52238e-05
6 *322:12 *1359:A 5.68956e-05
7 *322:12 *332:32 0.00015234
8 *322:12 *358:10 5.80706e-06
9 *231:6 *1186:A 6.87673e-05
10 *232:6 *1186:A 5.52302e-05
*RES
1 *1322:X *322:12 20.7821 
2 *322:12 *1186:A 12.3357 
3 *322:12 *1187:A 9.3 
*END

*D_NET *323 0.00107237
*CONN
*I *1194:A I *D sky130_fd_sc_hd__xnor2_1
*I *1323:X O *D sky130_fd_sc_hd__clkbuf_1
*CAP
1 *1194:A 0.000187594
2 *1323:X 0.000187594
3 *1194:A *1194:B 0.000252623
4 *1194:A *1359:A 6.39901e-05
5 *1194:A *1363:A 0.000153047
6 acc[31] *1194:A 0.00016478
7 *1323:A *1194:A 6.27457e-05
*RES
1 *1323:X *1194:A 34.1 
*END

*D_NET *324 0.00482718
*CONN
*I *1099:A1 I *D sky130_fd_sc_hd__a21o_1
*I *1114:A1 I *D sky130_fd_sc_hd__o221ai_4
*I *1100:A I *D sky130_fd_sc_hd__xor2_1
*I *1101:A1 I *D sky130_fd_sc_hd__o22ai_1
*I *1324:X O *D sky130_fd_sc_hd__clkbuf_2
*CAP
1 *1099:A1 0.000213289
2 *1114:A1 0
3 *1100:A 0.000348661
4 *1101:A1 0
5 *1324:X 0.000744387
6 *324:14 0.0004965
7 *324:8 0.000311848
8 *324:6 0.00112169
9 *1099:A1 *1100:B 7.46814e-05
10 *1099:A1 *360:43 0.000270243
11 *1100:A *1100:B 0.00014285
12 *1100:A *1101:A2 6.0038e-05
13 *324:6 *1364:A 0.000390841
14 *324:6 *360:43 1.58163e-05
15 *324:8 *360:43 0.00017752
16 *324:14 *1101:A2 0.000179656
17 *324:14 *360:43 5.71472e-05
18 *1099:B1 *1099:A1 5.80706e-06
19 *1113:C *1099:A1 2.14378e-05
20 *1114:B1 *1099:A1 0
21 *1114:B2 *1099:A1 0
22 *1114:B2 *324:8 5.33433e-05
23 *1114:C1 *1099:A1 3.34366e-05
24 *1265:CLK *1100:A 0
25 *1270:CLK *1099:A1 0
26 *1270:CLK *1100:A 0
27 *1270:CLK *324:14 0
28 *145:12 *1099:A1 0
29 *146:8 *1099:A1 0
30 *157:20 *324:6 0.000107988
*RES
1 *1324:X *324:6 23.8 
2 *324:6 *324:8 3.82143 
3 *324:8 *324:14 8 
4 *324:14 *1101:A1 13.8 
5 *324:14 *1100:A 20.55 
6 *324:8 *1114:A1 9.3 
7 *324:6 *1099:A1 23.5857 
*END

*D_NET *325 0.00060611
*CONN
*I *1110:A I *D sky130_fd_sc_hd__nand2_1
*I *1111:A I *D sky130_fd_sc_hd__or2_1
*I *1325:X O *D sky130_fd_sc_hd__clkbuf_1
*CAP
1 *1110:A 0
2 *1111:A 2.46662e-05
3 *1325:X 0.000108103
4 *325:10 0.00013277
5 *1111:A *1110:B 5.52302e-05
6 *1111:A *362:14 9.90367e-05
7 *325:10 *362:14 0
8 *1324:A *325:10 4.34543e-05
9 *157:8 *1111:A 0.00014285
*RES
1 *1325:X *325:10 20.2464 
2 *325:10 *1111:A 10.6571 
3 *325:10 *1110:A 9.3 
*END

*D_NET *326 0.00130305
*CONN
*I *1108:A I *D sky130_fd_sc_hd__or2_1
*I *1107:A I *D sky130_fd_sc_hd__nand2_1
*I *1326:X O *D sky130_fd_sc_hd__clkbuf_1
*CAP
1 *1108:A 0
2 *1107:A 0.000255664
3 *1326:X 0.000144384
4 *326:14 0.000400048
5 *1107:A *1260:A 4.52936e-05
6 *1107:A *1364:A 6.26653e-05
7 *1107:A *1366:A 0.000203489
8 *326:14 *1364:A 1.5942e-05
9 acc[5] *1107:A 8.49861e-06
10 *1109:B *326:14 7.90149e-05
11 *1326:A *326:14 2.04825e-05
12 *154:6 *1107:A 5.71472e-05
13 *154:10 *1107:A 1.04232e-05
*RES
1 *1326:X *326:14 16.6393 
2 *326:14 *1107:A 19.3714 
3 *326:14 *1108:A 13.8 
*END

*D_NET *327 0.00136912
*CONN
*I *1115:A1 I *D sky130_fd_sc_hd__a21oi_1
*I *1245:A1 I *D sky130_fd_sc_hd__a21oi_1
*I *1102:A I *D sky130_fd_sc_hd__xnor2_1
*I *1327:X O *D sky130_fd_sc_hd__buf_1
*CAP
1 *1115:A1 0.000166114
2 *1245:A1 0
3 *1102:A 0.000121788
4 *1327:X 0.000131699
5 *327:10 0.000121788
6 *327:8 0.000297812
7 *1102:A *1245:A2 0.000142856
8 *1102:A *364:20 0.00010946
9 *1115:A1 *364:14 0
10 *327:8 *1367:A 0
11 *1115:B1 *1115:A1 5.52238e-05
12 *1245:B1 *1115:A1 6.42242e-05
13 *1245:B1 *327:8 5.80706e-06
14 *149:10 *1115:A1 3.92757e-05
15 *263:12 *1115:A1 4.43256e-05
16 *303:55 *1102:A 6.87476e-05
*RES
1 *1327:X *327:8 15.7464 
2 *327:8 *327:10 4.5 
3 *327:10 *1102:A 12.7464 
4 *327:10 *1245:A1 9.3 
5 *327:8 *1115:A1 16.8 
*END

*D_NET *328 0.0016852
*CONN
*I *1075:A I *D sky130_fd_sc_hd__nor2_1
*I *1074:A I *D sky130_fd_sc_hd__nand2_1
*I *1076:A I *D sky130_fd_sc_hd__or2_1
*I *1328:X O *D sky130_fd_sc_hd__clkbuf_1
*CAP
1 *1075:A 0.000160215
2 *1074:A 3.42819e-05
3 *1076:A 0.000345543
4 *1328:X 0
5 *328:10 0.000474364
6 *328:4 0.000254755
7 *1074:A *335:31 0
8 *1075:A *1075:B 5.33005e-05
9 *1075:A *1341:A 3.4855e-05
10 *1076:A *1081:A 0
11 *1076:A *335:16 8.0786e-06
12 *1086:A1 *1074:A 1.88048e-05
13 *1086:A1 *1075:A 3.18676e-05
14 *1086:A1 *1076:A 2.14658e-05
15 *1086:A1 *328:10 2.34204e-05
16 *1086:A2 *1076:A 9.90431e-05
17 *1086:B1 *1076:A 2.69949e-05
18 *1120:B1 *1076:A 3.05446e-05
19 *1317:A *328:10 5.30637e-06
20 *125:14 *1074:A 3.17163e-05
21 *317:12 *1074:A 4.97121e-06
22 *317:12 *328:10 2.56694e-05
*RES
1 *1328:X *328:4 9.3 
2 *328:4 *328:10 6.07143 
3 *328:10 *1076:A 18.6571 
4 *328:10 *1074:A 14.8357 
5 *328:4 *1075:A 12.6393 
*END

*D_NET *329 0.00090895
*CONN
*I *1103:A I *D sky130_fd_sc_hd__and2_1
*I *1104:A I *D sky130_fd_sc_hd__nor2_1
*I *1329:X O *D sky130_fd_sc_hd__clkbuf_1
*CAP
1 *1103:A 7.82551e-05
2 *1104:A 0
3 *1329:X 0.000320035
4 *329:8 0.00039829
5 *1103:A *1103:B 5.52238e-05
6 *151:6 *1103:A 5.71472e-05
*RES
1 *1329:X *329:8 14.675 
2 *329:8 *1104:A 9.3 
3 *329:8 *1103:A 11.0857 
*END

*D_NET *330 0.00142638
*CONN
*I *1087:A I *D sky130_fd_sc_hd__nand2_1
*I *1088:A I *D sky130_fd_sc_hd__or2_1
*I *1330:X O *D sky130_fd_sc_hd__clkbuf_1
*CAP
1 *1087:A 0
2 *1088:A 8.0847e-05
3 *1330:X 0.00026554
4 *330:10 0.000346387
5 *1088:A *1088:B 5.52238e-05
6 *330:10 *1030:A 0.00030178
7 *330:10 *1369:A 0.000376606
*RES
1 *1330:X *330:10 27.2286 
2 *330:10 *1088:A 10.6571 
3 *330:10 *1087:A 9.3 
*END

*D_NET *331 0.00146623
*CONN
*I *1081:A I *D sky130_fd_sc_hd__nand2_1
*I *1082:A I *D sky130_fd_sc_hd__or2_1
*I *1331:X O *D sky130_fd_sc_hd__clkbuf_1
*CAP
1 *1081:A 0.000319459
2 *1082:A 0.00014319
3 *1331:X 4.36033e-05
4 *331:8 0.000506252
5 *1081:A *1081:B 6.11433e-05
6 *1081:A *335:16 0
7 *1081:A *367:25 9.06455e-05
8 *1082:A *1342:A 0
9 *1082:A *367:25 7.56551e-05
10 acc[12] *1082:A 2.82057e-05
11 acc[12] *331:8 5.33005e-05
12 *1076:A *1081:A 0
13 *1331:A *1082:A 0.000144773
14 *129:12 *1081:A 0
*RES
1 *1331:X *331:8 14.3357 
2 *331:8 *1082:A 16.9071 
3 *331:8 *1081:A 19.3179 
*END

*D_NET *332 0.00854528
*CONN
*I *1304:A I *D sky130_fd_sc_hd__buf_4
*I *1305:A I *D sky130_fd_sc_hd__buf_2
*I *1302:A I *D sky130_fd_sc_hd__buf_4
*I *1303:A I *D sky130_fd_sc_hd__buf_2
*I *1332:X O *D sky130_fd_sc_hd__buf_1
*CAP
1 *1304:A 0.00032724
2 *1305:A 0
3 *1302:A 5.68661e-05
4 *1303:A 0.000247963
5 *1332:X 0.000222456
6 *332:32 0.00192725
7 *332:10 0.00185735
8 *332:6 0.000784632
9 *332:10 *1358:A 0
10 *332:10 *1359:A 0
11 *332:32 *1053:A 0.000584167
12 *332:32 *1359:A 0.000229621
13 *332:32 *333:14 0
14 *332:32 *345:29 0
15 *332:32 *356:10 0.000150625
16 *332:32 *358:10 4.06875e-05
17 *332:32 *368:8 0.00010096
18 *332:32 *371:8 9.74356e-05
19 *332:32 *371:10 6.76747e-05
20 *332:32 *371:14 0.000125255
21 acc[0] *332:32 0
22 acc[1] *1303:A 0
23 acc[1] *332:32 5.83233e-05
24 acc[27] *1304:A 4.01768e-05
25 acc[29] *332:32 0
26 *1096:A *332:32 0.000247764
27 *1195:B *332:32 0.000275094
28 *1262:RESET_B *332:32 0.000179656
29 *1263:RESET_B *1303:A 6.72598e-05
30 *1266:RESET_B *1303:A 0
31 *1292:RESET_B *332:32 5.33882e-05
32 *1293:RESET_B *332:32 3.79467e-05
33 *1306:A *332:32 8.77587e-05
34 *1309:A *332:32 0
35 *1319:A *332:32 3.47737e-05
36 *1320:A *332:32 0
37 *1325:A *1303:A 2.85737e-05
38 *1332:A *332:10 0
39 *306:10 *332:32 0.000295844
40 *319:14 *332:32 0.000126439
41 *320:12 *332:32 3.97543e-05
42 *322:12 *332:32 0.00015234
*RES
1 *1332:X *332:6 11.8893 
2 *332:6 *332:10 8.57143 
3 *332:10 *332:32 47.4821 
4 *332:32 *1303:A 23.2821 
5 *332:32 *1302:A 10.2464 
6 *332:10 *1305:A 13.8 
7 *332:6 *1304:A 15.1036 
*END

*D_NET *333 0.000947793
*CONN
*I *1252:B I *D sky130_fd_sc_hd__or2_1
*I *1339:A I *D sky130_fd_sc_hd__buf_2
*I *1096:B I *D sky130_fd_sc_hd__nand2_1
*I *1262:Q O *D sky130_fd_sc_hd__dfrtp_1
*CAP
1 *1252:B 6.66566e-05
2 *1339:A 0
3 *1096:B 5.63185e-05
4 *1262:Q 8.03796e-05
5 *333:14 0.00032686
6 *333:8 0.000417578
7 *1306:A *333:8 0
8 *332:32 *333:14 0
*RES
1 *1262:Q *333:8 15.1393 
2 *333:8 *333:14 9.01786 
3 *333:14 *1096:B 10.2464 
4 *333:14 *1339:A 9.3 
5 *333:8 *1252:B 14.7464 
*END

*D_NET *334 0.00153041
*CONN
*I *1078:B I *D sky130_fd_sc_hd__nand2_1
*I *1079:B I *D sky130_fd_sc_hd__or2_1
*I *1340:A I *D sky130_fd_sc_hd__buf_2
*I *1272:Q O *D sky130_fd_sc_hd__dfrtp_1
*CAP
1 *1078:B 1.98156e-05
2 *1079:B 0
3 *1340:A 0.000159902
4 *1272:Q 0.000269202
5 *334:8 0.00044892
6 *1340:A *1035:A 0
7 *1340:A *368:100 9.25014e-06
8 *334:8 *368:100 0.000405733
9 *1079:A *1078:B 5.52302e-05
10 *1079:A *334:8 1.94103e-05
11 *1272:RESET_B *334:8 7.77652e-05
12 *1317:A *1340:A 4.1331e-06
13 *302:22 *334:8 8.43535e-06
14 *317:12 *1340:A 5.26091e-05
*RES
1 *1272:Q *334:8 15.6036 
2 *334:8 *1340:A 21.1571 
3 *334:8 *1079:B 9.3 
4 *334:8 *1078:B 9.83571 
*END

*D_NET *335 0.00424852
*CONN
*I *1076:B I *D sky130_fd_sc_hd__or2_1
*I *1341:A I *D sky130_fd_sc_hd__buf_2
*I *1075:B I *D sky130_fd_sc_hd__nor2_1
*I *1074:B I *D sky130_fd_sc_hd__nand2_1
*I *1273:Q O *D sky130_fd_sc_hd__dfrtp_1
*CAP
1 *1076:B 3.21122e-05
2 *1341:A 0.00020531
3 *1075:B 2.39392e-05
4 *1074:B 0.000250543
5 *1273:Q 0.000545702
6 *335:31 0.000429261
7 *335:16 0.000647447
8 *335:12 0.000774707
9 acc[11] *1341:A 5.52302e-05
10 *1074:A *335:31 0
11 *1075:A *1075:B 5.33005e-05
12 *1075:A *1341:A 3.4855e-05
13 *1076:A *335:16 8.0786e-06
14 *1077:A *335:31 1.52978e-05
15 *1077:B *335:31 3.92757e-05
16 *1079:A *1074:B 3.57366e-05
17 *1081:A *335:16 0
18 *1085:C *335:12 0
19 *1086:A1 *335:31 6.19181e-05
20 *1086:A2 *1074:B 1.00073e-05
21 *1086:B1 *1074:B 9.71197e-05
22 *1086:B1 *335:16 0
23 *1120:A2 *335:12 6.05161e-06
24 *1120:B1 *335:12 0.000350386
25 *1120:B1 *335:16 9.60875e-05
26 *1328:A *335:31 9.25014e-06
27 *121:6 *1074:B 0.000186662
28 *125:6 *1074:B 2.51343e-06
29 *125:14 *335:31 0
30 *128:8 *335:12 0
31 *131:10 *335:12 0.000270943
32 *167:14 *335:12 6.78055e-06
*RES
1 *1273:Q *335:12 29.1036 
2 *335:12 *335:16 2.60714 
3 *335:16 *1074:B 13.0321 
4 *335:16 *335:31 12.4643 
5 *335:31 *1075:B 9.83571 
6 *335:31 *1341:A 13.1571 
7 *335:12 *1076:B 9.83571 
*END

*D_NET *336 0.00761343
*CONN
*I *1342:A I *D sky130_fd_sc_hd__buf_2
*I *1139:A2 I *D sky130_fd_sc_hd__a31o_1
*I *1134:B I *D sky130_fd_sc_hd__nand2_1
*I *1135:B I *D sky130_fd_sc_hd__or2_1
*I *1274:Q O *D sky130_fd_sc_hd__dfrtp_1
*CAP
1 *1342:A 0.00174322
2 *1139:A2 0.000129937
3 *1134:B 0
4 *1135:B 0.000205314
5 *1274:Q 0
6 *336:29 0.000167312
7 *336:10 0.00122927
8 *336:4 0.0027298
9 *1135:B *339:18 5.52238e-05
10 *1139:A2 *1139:A1 1.74352e-05
11 *1082:A *1342:A 0
12 *1089:B *1342:A 0
13 *1136:A *1135:B 8.02891e-05
14 *1136:A *336:10 1.69115e-05
15 *1137:B1 *1139:A2 0.000123496
16 *1137:B1 *336:29 9.90367e-05
17 *1221:B *336:10 0.000127476
18 *1222:A2 *336:10 5.33005e-05
19 *1222:B1_N *336:10 2.56601e-05
20 *1228:C *1342:A 0
21 *1229:B *1342:A 0.00015304
22 *1230:B *1342:A 0
23 *1232:A2 *1342:A 0
24 *1271:D *1342:A 0
25 *1274:D *336:10 6.62983e-05
26 *1274:RESET_B *336:10 4.85567e-05
27 *1331:A *1342:A 4.46186e-06
28 *129:12 *1342:A 0.000116535
29 *136:14 *1342:A 0
30 *164:10 *1342:A 0
31 *183:10 *1135:B 0.000152594
32 *183:10 *336:10 9.25014e-06
33 *183:21 *336:10 0.000117189
34 *186:12 *1139:A2 0.00014183
35 *256:8 *1342:A 0
36 *302:16 *1135:B 0
*RES
1 *1274:Q *336:4 9.3 
2 *336:4 *336:10 17.3571 
3 *336:10 *1135:B 18.675 
4 *336:10 *336:29 5.44643 
5 *336:29 *1134:B 9.3 
6 *336:29 *1139:A2 12.7464 
7 *336:4 *1342:A 45.175 
*END

*D_NET *337 0.00290079
*CONN
*I *1343:A I *D sky130_fd_sc_hd__buf_2
*I *1123:B I *D sky130_fd_sc_hd__or2_1
*I *1122:B I *D sky130_fd_sc_hd__nand2_1
*I *1275:Q O *D sky130_fd_sc_hd__dfrtp_1
*CAP
1 *1343:A 0.000312969
2 *1123:B 0
3 *1122:B 8.39882e-05
4 *1275:Q 0.000243526
5 *337:12 0.00019275
6 *337:6 0.000665256
7 *1122:B *1123:A 4.08637e-05
8 *1122:B *350:14 5.52238e-05
9 *1343:A *1036:A 5.52302e-05
10 *1343:A *350:14 0.000534222
11 *1343:A *368:49 0.000172309
12 *337:6 *368:49 0.000288807
13 *169:14 *1122:B 5.52302e-05
14 *302:52 *337:12 0.000200413
*RES
1 *1275:Q *337:6 14.3536 
2 *337:6 *337:12 11.5536 
3 *337:12 *1122:B 11.0857 
4 *337:12 *1123:B 9.3 
5 *337:6 *1343:A 17.2643 
*END

*D_NET *338 0.00210709
*CONN
*I *1126:B I *D sky130_fd_sc_hd__nand2_1
*I *1125:B I *D sky130_fd_sc_hd__or2_1
*I *1344:A I *D sky130_fd_sc_hd__buf_2
*I *1276:Q O *D sky130_fd_sc_hd__dfrtp_1
*CAP
1 *1126:B 0
2 *1125:B 2.56851e-05
3 *1344:A 0.00012333
4 *1276:Q 0.000342703
5 *338:21 0.000498764
6 *338:8 0.000939112
7 *1125:B *1125:A 5.49489e-05
8 *1272:D *338:21 0
9 *1276:RESET_B *338:8 9.82855e-05
10 *1276:RESET_B *338:21 0
11 *302:22 *338:8 2.42577e-05
*RES
1 *1276:Q *338:8 18.0321 
2 *338:8 *1344:A 15.7464 
3 *338:8 *338:21 12.5179 
4 *338:21 *1125:B 9.83571 
5 *338:21 *1126:B 9.3 
*END

*D_NET *339 0.00334216
*CONN
*I *1135:A I *D sky130_fd_sc_hd__or2_1
*I *1134:A I *D sky130_fd_sc_hd__nand2_1
*I *1139:A1 I *D sky130_fd_sc_hd__a31o_1
*I *1333:X O *D sky130_fd_sc_hd__buf_1
*CAP
1 *1135:A 0
2 *1134:A 3.56297e-05
3 *1139:A1 0.000131569
4 *1333:X 0.000640237
5 *339:18 0.000408371
6 *339:12 0.00088141
7 *339:12 *1035:A 0.000179527
8 *339:12 *361:12 0
9 *339:12 *368:100 0
10 *1135:B *339:18 5.52238e-05
11 *1136:A *1134:A 5.59013e-05
12 *1136:A *339:18 0.000159326
13 *1136:B *339:18 8.07313e-05
14 *1137:B1 *1139:A1 0.000148616
15 *1139:A2 *1139:A1 1.74352e-05
16 *1235:B *339:12 0.000346639
17 *180:12 *1134:A 4.1331e-06
18 *183:10 *339:18 1.92283e-05
19 *302:16 *339:12 4.88699e-05
20 *302:22 *339:12 0.000129314
*RES
1 *1333:X *339:12 32.3179 
2 *339:12 *339:18 9.64286 
3 *339:18 *1139:A1 16.4071 
4 *339:18 *1134:A 14.5321 
5 *339:12 *1135:A 9.3 
*END

*D_NET *340 0.00184166
*CONN
*I *1129:B I *D sky130_fd_sc_hd__nor2_1
*I *1130:B I *D sky130_fd_sc_hd__or2_1
*I *1128:B I *D sky130_fd_sc_hd__nand2_1
*I *1345:A I *D sky130_fd_sc_hd__buf_2
*I *1277:Q O *D sky130_fd_sc_hd__dfrtp_1
*CAP
1 *1129:B 0.000362437
2 *1130:B 0
3 *1128:B 0
4 *1345:A 0
5 *1277:Q 0.00019817
6 *340:28 0.000453624
7 *340:19 0.000116362
8 *340:12 0.000223344
9 *1129:B *1129:A 0.000334934
10 *340:28 *1128:A 5.7661e-06
11 acc[15] *340:12 1.92905e-05
12 *1138:B1 *1129:B 0
13 *1138:C1 *1129:B 3.48705e-05
14 *175:6 *1129:B 3.65607e-05
15 *175:6 *340:28 5.62995e-05
*RES
1 *1277:Q *340:12 21.6036 
2 *340:12 *1345:A 9.3 
3 *340:12 *340:19 0.535714 
4 *340:19 *1128:B 9.3 
5 *340:19 *340:28 1.78571 
6 *340:28 *1130:B 9.3 
7 *340:28 *1129:B 15.2286 
*END

*D_NET *341 0.00559909
*CONN
*I *1149:B I *D sky130_fd_sc_hd__or2_1
*I *1346:A I *D sky130_fd_sc_hd__buf_2
*I *1154:A2 I *D sky130_fd_sc_hd__a31o_1
*I *1148:B I *D sky130_fd_sc_hd__nand2_1
*I *1278:Q O *D sky130_fd_sc_hd__dfrtp_1
*CAP
1 *1149:B 0
2 *1346:A 0.000531869
3 *1154:A2 0.000135632
4 *1148:B 3.68675e-05
5 *1278:Q 0.0010501
6 *341:40 0.000654276
7 *341:12 0.000201726
8 *341:10 0.00120173
9 *1148:B *1148:A 5.52238e-05
10 *1154:A2 *1149:A 3.17148e-05
11 *1154:A2 *373:12 0.000188734
12 *341:12 *1148:A 5.33005e-05
13 *341:40 *1149:A 0.000156047
14 *1147:A_N *1154:A2 0
15 *1150:A *1148:B 2.44318e-05
16 *1150:A *341:10 2.89114e-05
17 *1150:A *341:12 1.98839e-05
18 *1150:B *341:40 3.25247e-05
19 *1153:C *1148:B 1.97695e-05
20 *1153:C *1154:A2 0
21 *1213:B *341:10 4.43256e-05
22 *1215:A *1154:A2 0
23 *1216:A *1346:A 0.00010096
24 *1278:D *341:10 8.04612e-05
25 *1278:RESET_B *341:10 0.000138106
26 *1279:D *1346:A 0.000175493
27 *193:8 *1154:A2 0
28 *195:8 *1148:B 1.74352e-05
29 *197:6 *341:10 5.20669e-05
30 *197:12 *341:40 0
31 *247:14 *1148:B 0.000144773
32 *247:14 *341:10 0.000339978
33 *247:14 *341:12 8.27532e-05
*RES
1 *1278:Q *341:10 24.3536 
2 *341:10 *341:12 0.946429 
3 *341:12 *1148:B 11.0857 
4 *341:12 *1154:A2 21.1571 
5 *341:10 *341:40 11.4821 
6 *341:40 *1346:A 19.7286 
7 *341:40 *1149:B 9.3 
*END

*D_NET *342 0.00318735
*CONN
*I *1347:A I *D sky130_fd_sc_hd__buf_2
*I *1217:A2 I *D sky130_fd_sc_hd__a21o_1
*I *1153:B I *D sky130_fd_sc_hd__and3_1
*I *1141:B I *D sky130_fd_sc_hd__xnor2_1
*I *1279:Q O *D sky130_fd_sc_hd__dfrtp_1
*CAP
1 *1347:A 0.00026834
2 *1217:A2 1.29591e-05
3 *1153:B 0.000350938
4 *1141:B 0
5 *1279:Q 0.000312188
6 *342:23 0.000411886
7 *342:19 0.000408211
8 *342:10 0.000404071
9 *1347:A *1141:A 4.56437e-05
10 *342:10 *1141:A 3.51442e-05
11 *342:19 *1141:A 0.000194299
12 *1144:A *1347:A 0
13 *1147:A_N *1153:B 9.09372e-05
14 *1153:C *1153:B 5.33882e-05
15 *1216:A *342:10 0
16 *1216:A *342:19 0
17 *1217:B1 *1153:B 0.000186669
18 *1217:B1 *1217:A2 5.52302e-05
19 *1217:B1 *342:19 0
20 *1294:A *1153:B 8.86862e-05
21 *1294:A *1217:A2 0.00010096
22 *1294:A *342:23 0.000142856
23 *1337:A *1347:A 2.49459e-05
24 *35:11 *1347:A 0
25 *250:10 *1347:A 0
*RES
1 *1279:Q *342:10 18.7107 
2 *342:10 *1141:B 13.8 
3 *342:10 *342:19 2.55357 
4 *342:19 *342:23 5.85714 
5 *342:23 *1153:B 25.425 
6 *342:23 *1217:A2 10.2464 
7 *342:19 *1347:A 18.7821 
*END

*D_NET *343 0.00188341
*CONN
*I *1152:C1 I *D sky130_fd_sc_hd__o211a_1
*I *1143:B I *D sky130_fd_sc_hd__nand2_1
*I *1142:B I *D sky130_fd_sc_hd__or2_1
*I *1348:A I *D sky130_fd_sc_hd__buf_2
*I *1280:Q O *D sky130_fd_sc_hd__dfrtp_1
*CAP
1 *1152:C1 0.000104161
2 *1143:B 0
3 *1142:B 0
4 *1348:A 6.10973e-05
5 *1280:Q 8.77254e-05
6 *343:18 0.000246609
7 *343:12 0.000553578
8 *343:8 0.000559952
9 *1152:C1 *1152:A2 4.1331e-06
10 *1143:A *343:18 0.000150539
11 *1155:C1 *1152:C1 5.98293e-05
12 *1155:C1 *343:8 5.5782e-05
*RES
1 *1280:Q *343:8 15.7464 
2 *343:8 *343:12 10.375 
3 *343:12 *343:18 3.85714 
4 *343:18 *1348:A 10.2464 
5 *343:18 *1142:B 9.3 
6 *343:12 *1143:B 9.3 
7 *343:8 *1152:C1 16.05 
*END

*D_NET *344 0.00330305
*CONN
*I *1152:A2 I *D sky130_fd_sc_hd__o211a_1
*I *1155:A2 I *D sky130_fd_sc_hd__a211oi_1
*I *1145:B I *D sky130_fd_sc_hd__xnor2_1
*I *1349:A I *D sky130_fd_sc_hd__buf_2
*I *1281:Q O *D sky130_fd_sc_hd__dfrtp_1
*CAP
1 *1152:A2 0.000173428
2 *1155:A2 0.000197854
3 *1145:B 0
4 *1349:A 0.00020484
5 *1281:Q 6.30201e-05
6 *344:10 0.000420832
7 *344:8 0.000662214
8 *344:6 0.000484816
9 *1145:A *1349:A 3.51442e-05
10 *1146:B *1152:A2 0
11 *1146:B *1155:A2 4.71964e-05
12 *1152:C1 *1152:A2 4.1331e-06
13 *1220:A *1152:A2 0
14 *1220:A *1155:A2 1.69115e-05
15 *1220:B *1349:A 0.000225307
16 *1281:CLK *344:8 0.000153474
17 *1281:CLK *344:10 7.15846e-05
18 *1307:A *1349:A 6.39262e-05
19 *35:11 *1349:A 0
20 *192:8 *344:8 6.87574e-05
21 *192:8 *344:10 0.000268682
22 *307:10 *1155:A2 0
23 *307:14 *1155:A2 0
24 *308:8 *1155:A2 0.000140933
*RES
1 *1281:Q *344:6 10.2464 
2 *344:6 *344:8 5.46429 
3 *344:8 *344:10 5.46429 
4 *344:10 *1349:A 23.5857 
5 *344:10 *1145:B 9.3 
6 *344:8 *1155:A2 22.2107 
7 *344:6 *1152:A2 20.8536 
*END

*D_NET *345 0.00332674
*CONN
*I *1092:B I *D sky130_fd_sc_hd__nand2_1
*I *1094:B I *D sky130_fd_sc_hd__nor2_1
*I *1350:A I *D sky130_fd_sc_hd__buf_2
*I *1263:Q O *D sky130_fd_sc_hd__dfrtp_1
*CAP
1 *1092:B 0.000210707
2 *1094:B 0
3 *1350:A 0
4 *1263:Q 0.000491989
5 *345:29 0.00064804
6 *345:10 0.000929322
7 acc[1] *345:10 0
8 acc[1] *345:29 0
9 *1094:A *1092:B 0.000256871
10 *1094:A *345:29 0
11 *1095:A *1092:B 0.000126623
12 *1096:A *345:29 0
13 *1097:B1 *1092:B 0
14 *1262:CLK *1092:B 0.000171368
15 *1262:D *345:29 0.000144773
16 *1263:D *345:10 0
17 *1263:D *345:29 0
18 *141:16 *345:29 5.33005e-05
19 *143:12 *345:29 6.74911e-05
20 *143:14 *1092:B 5.52302e-05
21 *143:14 *345:29 0.000171023
22 *332:32 *345:29 0
*RES
1 *1263:Q *345:10 19.9786 
2 *345:10 *1350:A 13.8 
3 *345:10 *345:29 14.2857 
4 *345:29 *1094:B 9.3 
5 *345:29 *1092:B 24.8893 
*END

*D_NET *346 0.00384857
*CONN
*I *1168:B I *D sky130_fd_sc_hd__nand2_1
*I *1351:A I *D sky130_fd_sc_hd__buf_2
*I *1169:B I *D sky130_fd_sc_hd__or2_1
*I *1282:Q O *D sky130_fd_sc_hd__dfrtp_1
*CAP
1 *1168:B 1.16062e-05
2 *1351:A 0.000510175
3 *1169:B 0
4 *1282:Q 0.000395005
5 *346:12 0.000581121
6 *346:10 0.000477557
7 *1164:A *1351:A 0
8 *1175:A *1351:A 4.52751e-05
9 *1175:C *1351:A 0.000319316
10 *1282:RESET_B *346:10 4.17828e-05
11 *1287:CLK *1168:B 5.52302e-05
12 *1312:A *1351:A 0
13 *210:10 *1351:A 0.00018344
14 *218:14 *346:10 7.91064e-07
15 *304:18 *346:10 6.97332e-05
16 *304:38 *346:10 5.80217e-05
17 *304:47 *346:10 7.58571e-05
18 *304:62 *1351:A 0.00096062
19 *304:62 *346:10 7.80714e-06
20 *310:14 *1168:B 5.52302e-05
21 *310:14 *1351:A 0
22 *312:12 *1351:A 0
*RES
1 *1282:Q *346:10 21.9607 
2 *346:10 *346:12 0.946429 
3 *346:12 *1169:B 13.8 
4 *346:12 *1351:A 29.0321 
5 *346:10 *1168:B 14.3357 
*END

*D_NET *347 0.00331081
*CONN
*I *1158:B I *D sky130_fd_sc_hd__or2_1
*I *1157:B I *D sky130_fd_sc_hd__nand2_1
*I *1352:A I *D sky130_fd_sc_hd__buf_2
*I *1283:Q O *D sky130_fd_sc_hd__dfrtp_1
*CAP
1 *1158:B 0.000428169
2 *1157:B 5.40981e-05
3 *1352:A 0.000231061
4 *1283:Q 0
5 *347:19 0.00127896
6 *347:4 0.00102775
7 *1157:A *1158:B 5.9539e-05
8 *1159:B *1158:B 2.21701e-05
9 *1208:A2 *1158:B 2.41972e-05
10 *35:11 *1352:A 0
11 *205:8 *1157:B 0
12 *205:8 *1158:B 0.000181381
13 *311:12 *1158:B 3.4846e-06
*RES
1 *1283:Q *347:4 9.3 
2 *347:4 *1352:A 21.6036 
3 *347:4 *347:19 9.16071 
4 *347:19 *1157:B 10.3357 
5 *347:19 *1158:B 23.9786 
*END

*D_NET *348 0.00113078
*CONN
*I *1161:B I *D sky130_fd_sc_hd__nand2_1
*I *1160:B I *D sky130_fd_sc_hd__or2_1
*I *1353:A I *D sky130_fd_sc_hd__buf_2
*I *1284:Q O *D sky130_fd_sc_hd__dfrtp_1
*CAP
1 *1161:B 8.9501e-06
2 *1160:B 0
3 *1353:A 0.000150662
4 *1284:Q 0.000141052
5 *348:8 0.000300664
6 *1160:A *1161:B 3.03304e-05
7 *1160:A *348:8 5.62995e-05
8 *1209:A *1353:A 0
9 *1311:A *1353:A 0
10 *1312:A *1353:A 0
11 *207:10 *348:8 2.59355e-05
12 *304:64 *1161:B 5.52302e-05
13 *304:64 *348:8 0.000312209
14 *312:12 *1353:A 4.94455e-05
*RES
1 *1284:Q *348:8 13.0321 
2 *348:8 *1353:A 21.1571 
3 *348:8 *1160:B 9.3 
4 *348:8 *1161:B 9.83571 
*END

*D_NET *349 0.00222876
*CONN
*I *1163:B I *D sky130_fd_sc_hd__nand2_1
*I *1354:A I *D sky130_fd_sc_hd__buf_2
*I *1164:B I *D sky130_fd_sc_hd__or2_1
*I *1285:Q O *D sky130_fd_sc_hd__dfrtp_1
*CAP
1 *1163:B 0.000336572
2 *1354:A 0
3 *1164:B 0.000228584
4 *1285:Q 0
5 *349:25 0.000622172
6 *349:4 0.000514184
7 *1163:B *1044:A 0.000195721
8 *1164:B *1044:A 0
9 *349:25 *1044:A 6.5185e-05
10 *349:25 *1356:A 0
11 *1163:A *1163:B 3.46677e-05
12 *1164:A *1164:B 7.80929e-05
13 *1285:RESET_B *1164:B 8.49318e-05
14 *1313:A *349:25 0
15 *210:10 *1163:B 2.27416e-05
16 *313:8 *1163:B 4.59075e-05
*RES
1 *1285:Q *349:4 9.3 
2 *349:4 *1164:B 22.5143 
3 *349:4 *349:25 13.125 
4 *349:25 *1354:A 9.3 
5 *349:25 *1163:B 15.6214 
*END

*D_NET *350 0.00168747
*CONN
*I *1123:A I *D sky130_fd_sc_hd__or2_1
*I *1122:A I *D sky130_fd_sc_hd__nand2_1
*I *1334:X O *D sky130_fd_sc_hd__clkbuf_1
*CAP
1 *1123:A 5.8715e-05
2 *1122:A 0
3 *1334:X 0.000324407
4 *350:14 0.000383122
5 *350:14 *1036:A 6.58195e-05
6 *1122:B *1123:A 4.08637e-05
7 *1122:B *350:14 5.52238e-05
8 *1343:A *350:14 0.000534222
9 *169:14 *1123:A 4.88637e-05
10 *302:52 *350:14 0.000176234
*RES
1 *1334:X *350:14 26.1393 
2 *350:14 *1122:A 9.3 
3 *350:14 *1123:A 10.6571 
*END

*D_NET *351 0.0045355
*CONN
*I *1355:A I *D sky130_fd_sc_hd__buf_2
*I *1071:B I *D sky130_fd_sc_hd__nand2_1
*I *1072:B I *D sky130_fd_sc_hd__or2_1
*I *1286:Q O *D sky130_fd_sc_hd__dfrtp_1
*CAP
1 *1355:A 0.000512822
2 *1071:B 0.000107604
3 *1072:B 3.21227e-05
4 *1286:Q 0.000186296
5 *351:27 0.0007134
6 *351:12 0.000311392
7 *1355:A *370:120 0.000576997
8 *351:12 *370:120 0.000168939
9 *351:27 *370:120 3.83222e-05
10 *1064:B *1355:A 0.000129868
11 *1071:A *1071:B 7.17136e-05
12 *1071:A *1072:B 9.90367e-05
13 *1179:A2 *351:27 0
14 *1288:RESET_B *1355:A 0
15 *1314:A *1355:A 0
16 *1315:A *1355:A 0
17 *110:27 *1355:A 0.000431827
18 *118:8 *1071:B 0.000271345
19 *120:10 *1071:B 3.48705e-05
20 *120:10 *1072:B 0.0001399
21 *120:19 *1071:B 0
22 *301:30 *351:12 8.07951e-05
23 *305:8 *351:12 2.28598e-05
24 *305:12 *351:12 0.000106511
25 *314:16 *1071:B 9.71197e-05
26 *314:16 *1072:B 1.98839e-05
27 *314:16 *1355:A 0.00036658
28 *314:16 *351:27 1.52978e-05
29 *315:8 *1355:A 0
*RES
1 *1286:Q *351:12 17.8357 
2 *351:12 *1072:B 15.1571 
3 *351:12 *351:27 1.69643 
4 *351:27 *1071:B 17.5321 
5 *351:27 *1355:A 30.6214 
*END

*D_NET *352 0.00357042
*CONN
*I *1057:B I *D sky130_fd_sc_hd__nand2_1
*I *1356:A I *D sky130_fd_sc_hd__buf_2
*I *1058:B I *D sky130_fd_sc_hd__or2_1
*I *1287:Q O *D sky130_fd_sc_hd__dfrtp_1
*CAP
1 *1057:B 0.000199163
2 *1356:A 0.000371437
3 *1058:B 4.06349e-05
4 *1287:Q 0.00013415
5 *352:18 0.000610546
6 *352:10 0.000531788
7 *1057:A *1057:B 6.70062e-06
8 *1057:A *1058:B 6.87574e-05
9 *1058:A *1356:A 0
10 *1059:A *352:18 3.0285e-05
11 *1065:A *1058:B 5.52302e-05
12 *1200:A1 *1058:B 2.28598e-05
13 *1200:A1 *352:18 5.59013e-05
14 *1200:A2 *1057:B 7.6644e-05
15 *1200:A2 *352:10 0.000242372
16 *1200:A2 *352:18 3.34783e-05
17 *1202:B *1057:B 5.19842e-06
18 *1202:B *1356:A 0
19 *1288:CLK *1057:B 6.81083e-05
20 *1288:CLK *1356:A 0.000138437
21 *1288:CLK *352:10 0.000397134
22 *1315:A *1356:A 0
23 *104:8 *1057:B 0.0001399
24 *104:8 *1058:B 0.000140933
25 *104:21 *1356:A 1.19402e-05
26 *104:21 *352:18 6.8646e-06
27 *224:14 *352:10 2.89114e-05
28 *240:10 *352:10 0.000153047
29 *315:8 *1356:A 0
30 *349:25 *1356:A 0
*RES
1 *1287:Q *352:10 19.3179 
2 *352:10 *352:18 12 
3 *352:18 *1058:B 15.5679 
4 *352:18 *1356:A 21.5143 
5 *352:10 *1057:B 17.3357 
*END

*D_NET *353 0.00240266
*CONN
*I *1357:A I *D sky130_fd_sc_hd__buf_2
*I *1067:C1 I *D sky130_fd_sc_hd__o211a_1
*I *1061:B I *D sky130_fd_sc_hd__nand2_1
*I *1062:B I *D sky130_fd_sc_hd__or2_1
*I *1288:Q O *D sky130_fd_sc_hd__dfrtp_1
*CAP
1 *1357:A 0.00028832
2 *1067:C1 0
3 *1061:B 0
4 *1062:B 0
5 *1288:Q 0.000175283
6 *353:32 0.000566885
7 *353:17 0.000359148
8 *353:8 0.000255866
9 *1357:A *354:12 2.46999e-05
10 *353:32 *1068:A2 1.88048e-05
11 *353:32 *354:12 4.1331e-06
12 *1060:A *353:32 0.000217533
13 *1062:A *353:8 0.00010096
14 *1062:A *353:17 5.71472e-05
15 *1063:B *353:8 5.52238e-05
16 *1067:B1 *353:32 5.63467e-05
17 *1289:D *353:32 6.8646e-06
18 *1318:A *1357:A 5.80706e-06
19 *107:10 *353:32 4.46186e-06
20 *110:12 *353:8 5.33334e-05
21 *316:14 *353:17 4.7194e-05
22 *316:14 *353:32 0.00010096
23 *318:10 *1357:A 3.69047e-06
*RES
1 *1288:Q *353:8 12.7286 
2 *353:8 *1062:B 9.3 
3 *353:8 *353:17 1.78571 
4 *353:17 *1061:B 9.3 
5 *353:17 *353:32 9.91071 
6 *353:32 *1067:C1 13.8 
7 *353:32 *1357:A 18.8357 
*END

*D_NET *354 0.00338221
*CONN
*I *1358:A I *D sky130_fd_sc_hd__buf_2
*I *1060:B I *D sky130_fd_sc_hd__xnor2_1
*I *1067:A2 I *D sky130_fd_sc_hd__o211a_1
*I *1068:A2 I *D sky130_fd_sc_hd__a211o_1
*I *1289:Q O *D sky130_fd_sc_hd__dfrtp_1
*CAP
1 *1358:A 0.000116806
2 *1060:B 3.82418e-05
3 *1067:A2 0
4 *1068:A2 9.03634e-05
5 *1289:Q 0
6 *354:12 0.000410141
7 *354:6 0.00108237
8 *354:4 0.000841152
9 *1358:A *370:12 0
10 *1060:A *354:12 0.000105793
11 *1066:B *1068:A2 4.1331e-06
12 *1067:B1 *354:12 5.52302e-05
13 *1068:A1 *1068:A2 0.000172375
14 *1289:CLK *354:6 0.00027322
15 *1289:D *354:6 4.89867e-05
16 *1289:D *354:12 1.32552e-05
17 *1357:A *354:12 2.46999e-05
18 *107:10 *1068:A2 0
19 *318:10 *1068:A2 1.02504e-05
20 *318:10 *354:12 7.22594e-05
21 *332:10 *1358:A 0
22 *353:32 *1068:A2 1.88048e-05
23 *353:32 *354:12 4.1331e-06
*RES
1 *1289:Q *354:4 9.3 
2 *354:4 *354:6 9.57143 
3 *354:6 *354:12 9.35714 
4 *354:12 *1068:A2 16.05 
5 *354:12 *1067:A2 13.8 
6 *354:6 *1060:B 10.0321 
7 *354:4 *1358:A 20.2464 
*END

*D_NET *355 0.00543728
*CONN
*I *1359:A I *D sky130_fd_sc_hd__buf_2
*I *1054:B I *D sky130_fd_sc_hd__nand2_1
*I *1055:B I *D sky130_fd_sc_hd__or2_1
*I *1290:Q O *D sky130_fd_sc_hd__dfrtp_1
*CAP
1 *1359:A 0.00103205
2 *1054:B 0
3 *1055:B 3.12428e-05
4 *1290:Q 0.000217359
5 *355:25 0.00129088
6 *355:10 0.000507434
7 *1359:A *1194:B 0.000227736
8 *1359:A *1363:A 0.000144512
9 *1359:A *358:10 0.000125731
10 acc[28] *1359:A 1.28585e-05
11 acc[30] *1359:A 1.21955e-05
12 *1054:A *1359:A 0
13 *1055:A *1055:B 1.97695e-05
14 *1055:A *355:25 0.000273269
15 *1056:A *355:25 4.1331e-06
16 *1185:B *355:10 0
17 *1194:A *1359:A 6.39901e-05
18 *1195:B *1359:A 0.000176234
19 *1322:A *1359:A 9.68786e-05
20 *1323:A *1359:A 0
21 *101:40 *1359:A 3.03304e-05
22 *305:82 *1359:A 0.000186669
23 *305:82 *355:25 3.14193e-05
24 *319:14 *1359:A 0.000580379
25 *319:14 *355:25 8.57023e-05
26 *322:12 *1359:A 5.68956e-05
27 *332:10 *1359:A 0
28 *332:32 *1359:A 0.000229621
*RES
1 *1290:Q *355:10 22.0679 
2 *355:10 *1055:B 10.0321 
3 *355:10 *355:25 13.9643 
4 *355:25 *1054:B 9.3 
5 *355:25 *1359:A 43.4786 
*END

*D_NET *356 0.000814541
*CONN
*I *1181:B I *D sky130_fd_sc_hd__nor2_1
*I *1360:A I *D sky130_fd_sc_hd__buf_2
*I *1182:B I *D sky130_fd_sc_hd__nand2_1
*I *1291:Q O *D sky130_fd_sc_hd__dfrtp_1
*CAP
1 *1181:B 0
2 *1360:A 9.1637e-05
3 *1182:B 2.79263e-05
4 *1291:Q 0.000102794
5 *356:10 0.000222357
6 acc[29] *356:10 0
7 *1182:A *1182:B 9.60875e-05
8 *1182:A *1360:A 6.3481e-05
9 *227:10 *1182:B 4.27338e-05
10 *227:10 *1360:A 1.24368e-05
11 *320:12 *356:10 4.46186e-06
12 *332:32 *356:10 0.000150625
*RES
1 *1291:Q *356:10 20.2464 
2 *356:10 *1182:B 10.2464 
3 *356:10 *1360:A 11.5143 
4 *356:10 *1181:B 9.3 
*END

*D_NET *357 0.00259887
*CONN
*I *1361:A I *D sky130_fd_sc_hd__buf_2
*I *1091:B I *D sky130_fd_sc_hd__nor2_1
*I *1090:B I *D sky130_fd_sc_hd__and2_1
*I *1264:Q O *D sky130_fd_sc_hd__dfrtp_1
*CAP
1 *1361:A 0.000956859
2 *1091:B 4.38594e-05
3 *1090:B 2.2879e-05
4 *1264:Q 0
5 *357:10 0.000250641
6 *357:6 0.00114076
7 *1361:A *1255:A 0
8 *357:10 *1255:A 0
9 *1090:A *1091:B 5.2714e-05
10 *1091:A *1091:B 5.7661e-06
11 *138:10 *1090:B 2.44318e-05
12 *138:10 *1091:B 0.00010096
*RES
1 *1264:Q *357:6 13.8 
2 *357:6 *357:10 7.66071 
3 *357:10 *1090:B 9.83571 
4 *357:10 *1091:B 11.1036 
5 *357:6 *1361:A 29.425 
*END

*D_NET *358 0.000577676
*CONN
*I *1362:A I *D sky130_fd_sc_hd__buf_2
*I *1186:B I *D sky130_fd_sc_hd__nor2_1
*I *1187:B I *D sky130_fd_sc_hd__nand2_1
*I *1292:Q O *D sky130_fd_sc_hd__dfrtp_1
*CAP
1 *1362:A 7.80562e-05
2 *1186:B 1.42885e-05
3 *1187:B 0
4 *1292:Q 0
5 *358:10 7.04068e-05
6 *358:4 0.000134174
7 *1186:A *1186:B 5.52238e-05
8 *1359:A *358:10 0.000125731
9 *231:6 *1186:B 5.33005e-05
10 *322:12 *358:10 5.80706e-06
11 *332:32 *358:10 4.06875e-05
*RES
1 *1292:Q *358:4 9.3 
2 *358:4 *358:10 10.6429 
3 *358:10 *1187:B 9.3 
4 *358:10 *1186:B 9.83571 
5 *358:4 *1362:A 10.5679 
*END

*D_NET *359 0.00127336
*CONN
*I *1363:A I *D sky130_fd_sc_hd__buf_2
*I *1194:B I *D sky130_fd_sc_hd__xnor2_1
*I *1293:Q O *D sky130_fd_sc_hd__dfrtp_1
*CAP
1 *1363:A 3.70207e-05
2 *1194:B 6.63058e-05
3 *1293:Q 0.000130772
4 *359:8 0.000234098
5 *1194:A *1194:B 0.000252623
6 *1194:A *1363:A 0.000153047
7 *1195:B *1194:B 2.72449e-05
8 *1359:A *1194:B 0.000227736
9 *1359:A *1363:A 0.000144512
*RES
1 *1293:Q *359:8 15.1571 
2 *359:8 *1194:B 17.2643 
3 *359:8 *1363:A 15.7464 
*END

*D_NET *360 0.00859661
*CONN
*I *1099:A2 I *D sky130_fd_sc_hd__a21o_1
*I *1100:B I *D sky130_fd_sc_hd__xor2_1
*I *1114:A2 I *D sky130_fd_sc_hd__o221ai_4
*I *1101:A2 I *D sky130_fd_sc_hd__o22ai_1
*I *1364:A I *D sky130_fd_sc_hd__buf_2
*I *1265:Q O *D sky130_fd_sc_hd__dfrtp_4
*CAP
1 *1099:A2 5.40981e-05
2 *1100:B 0.000563086
3 *1114:A2 0
4 *1101:A2 0.000107039
5 *1364:A 0.000710691
6 *1265:Q 0.000308493
7 *360:43 0.000581565
8 *360:33 0.00103761
9 *360:31 0.000503052
10 *360:10 0.00146814
11 *1364:A *1256:A 4.8476e-05
12 *1364:A *1365:A 0
13 *1364:A *363:10 0.000197984
14 *1364:A *369:20 4.62632e-05
15 *360:10 *1256:A 0.000118289
16 *360:10 *368:18 5.52302e-05
17 *1099:A1 *1100:B 7.46814e-05
18 *1099:A1 *360:43 0.000270243
19 *1099:B1 *1100:B 6.85604e-05
20 *1100:A *1100:B 0.00014285
21 *1100:A *1101:A2 6.0038e-05
22 *1107:A *1364:A 6.26653e-05
23 *1109:A *1364:A 0
24 *1109:B *1364:A 0.000128154
25 *1113:C *360:43 0.00010326
26 *1114:B2 *360:43 0.000129901
27 *1262:CLK *360:10 7.54156e-05
28 *1265:RESET_B *360:10 0
29 *1266:D *1364:A 7.83587e-05
30 *1266:D *360:10 4.90803e-05
31 *1270:CLK *1101:A2 0
32 *157:20 *1364:A 0.000534229
33 *159:20 *360:43 0
34 *161:10 *360:43 0
35 *303:30 *360:31 0.00013008
36 *303:36 *1100:B 0
37 *303:36 *1364:A 0
38 *303:36 *360:10 0
39 *303:36 *360:43 0
40 *303:97 *360:10 9.11365e-06
41 *303:97 *360:31 4.30382e-05
42 *324:6 *1364:A 0.000390841
43 *324:6 *360:43 1.58163e-05
44 *324:8 *360:43 0.00017752
45 *324:14 *1101:A2 0.000179656
46 *324:14 *360:43 5.71472e-05
47 *326:14 *1364:A 1.5942e-05
*RES
1 *1265:Q *360:10 20.5321 
2 *360:10 *1364:A 41.2821 
3 *360:10 *360:31 10.375 
4 *360:31 *360:33 4.5 
5 *360:33 *360:43 13.4643 
6 *360:43 *1101:A2 21.1571 
7 *360:43 *1114:A2 9.3 
8 *360:33 *1100:B 23.55 
9 *360:31 *1099:A2 10.3357 
*END

*D_NET *361 0.00167196
*CONN
*I *1125:A I *D sky130_fd_sc_hd__or2_1
*I *1126:A I *D sky130_fd_sc_hd__nand2_1
*I *1335:X O *D sky130_fd_sc_hd__clkbuf_1
*CAP
1 *1125:A 0.000153509
2 *1126:A 0
3 *1335:X 0.000654995
4 *361:12 0.000808503
5 *1125:B *1125:A 5.49489e-05
6 *339:12 *361:12 0
*RES
1 *1335:X *361:12 29.4071 
2 *361:12 *1126:A 9.3 
3 *361:12 *1125:A 12.3357 
*END

*D_NET *362 0.00160664
*CONN
*I *1110:B I *D sky130_fd_sc_hd__nand2_1
*I *1111:B I *D sky130_fd_sc_hd__or2_1
*I *1365:A I *D sky130_fd_sc_hd__buf_2
*I *1266:Q O *D sky130_fd_sc_hd__dfrtp_1
*CAP
1 *1110:B 9.96091e-05
2 *1111:B 0
3 *1365:A 0.00022143
4 *1266:Q 0.000264251
5 *362:14 0.00058529
6 *362:14 *369:12 9.90367e-05
7 acc[4] *1365:A 6.20731e-05
8 *1111:A *1110:B 5.52302e-05
9 *1111:A *362:14 9.90367e-05
10 *1324:A *1365:A 6.74911e-05
11 *1324:A *362:14 0
12 *1326:A *1365:A 1.02504e-05
13 *1364:A *1365:A 0
14 *157:8 *1110:B 2.14658e-05
15 *157:8 *362:14 2.14757e-05
16 *157:20 *1365:A 0
17 *157:20 *362:14 0
18 *325:10 *362:14 0
*RES
1 *1266:Q *362:14 22.8536 
2 *362:14 *1365:A 22.9786 
3 *362:14 *1111:B 9.3 
4 *362:14 *1110:B 11.0857 
*END

*D_NET *363 0.00135404
*CONN
*I *1108:B I *D sky130_fd_sc_hd__or2_1
*I *1366:A I *D sky130_fd_sc_hd__buf_2
*I *1107:B I *D sky130_fd_sc_hd__nand2_1
*I *1267:Q O *D sky130_fd_sc_hd__dfrtp_1
*CAP
1 *1108:B 0.000198429
2 *1366:A 0.000108801
3 *1107:B 0
4 *1267:Q 0
5 *363:10 0.000228313
6 *363:4 0.000317941
7 *1366:A *1260:A 5.33334e-05
8 *1107:A *1366:A 0.000203489
9 *1109:A *363:10 4.57445e-05
10 *1364:A *363:10 0.000197984
*RES
1 *1267:Q *363:4 9.3 
2 *363:4 *363:10 11.5536 
3 *363:10 *1107:B 9.3 
4 *363:10 *1366:A 12.3357 
5 *363:4 *1108:B 12.3179 
*END

*D_NET *364 0.00194056
*CONN
*I *1115:A2 I *D sky130_fd_sc_hd__a21oi_1
*I *1102:B I *D sky130_fd_sc_hd__xnor2_1
*I *1245:A2 I *D sky130_fd_sc_hd__a21oi_1
*I *1367:A I *D sky130_fd_sc_hd__buf_2
*I *1268:Q O *D sky130_fd_sc_hd__dfrtp_1
*CAP
1 *1115:A2 5.08031e-05
2 *1102:B 0
3 *1245:A2 6.08796e-05
4 *1367:A 0.00019117
5 *1268:Q 7.88227e-05
6 *364:20 0.000338552
7 *364:14 0.00025673
8 *364:8 0.000299854
9 *364:14 *1259:A 0
10 *1102:A *1245:A2 0.000142856
11 *1102:A *364:20 0.00010946
12 *1115:A1 *364:14 0
13 *1268:D *1115:A2 0.000142856
14 *1268:D *364:8 9.90367e-05
15 *1327:A *1367:A 9.25014e-06
16 *149:10 *364:14 0
17 *303:55 *1245:A2 0.000142856
18 *303:55 *364:20 1.74352e-05
19 *327:8 *1367:A 0
*RES
1 *1268:Q *364:8 10.9786 
2 *364:8 *364:14 11.5536 
3 *364:14 *364:20 6.28571 
4 *364:20 *1367:A 16.9964 
5 *364:20 *1245:A2 15.8893 
6 *364:14 *1102:B 9.3 
7 *364:8 *1115:A2 10.6571 
*END

*D_NET *365 0.0015615
*CONN
*I *1368:A I *D sky130_fd_sc_hd__buf_2
*I *1104:B I *D sky130_fd_sc_hd__nor2_1
*I *1103:B I *D sky130_fd_sc_hd__and2_1
*I *1269:Q O *D sky130_fd_sc_hd__dfrtp_1
*CAP
1 *1368:A 0.000202615
2 *1104:B 0
3 *1103:B 5.80491e-05
4 *1269:Q 0
5 *365:12 0.00039279
6 *365:4 0.000537355
7 *365:12 *1260:A 0
8 *1103:A *1103:B 5.52238e-05
9 *1246:A *365:12 0
10 *1269:RESET_B *1368:A 0.000128496
11 *1269:RESET_B *365:12 0.000138106
12 *151:6 *1103:B 4.88637e-05
*RES
1 *1269:Q *365:4 9.3 
2 *365:4 *365:12 13.6429 
3 *365:12 *1103:B 10.6571 
4 *365:12 *1104:B 9.3 
5 *365:4 *1368:A 12.2107 
*END

*D_NET *366 0.00245437
*CONN
*I *1087:B I *D sky130_fd_sc_hd__nand2_1
*I *1369:A I *D sky130_fd_sc_hd__buf_2
*I *1088:B I *D sky130_fd_sc_hd__or2_1
*I *1270:Q O *D sky130_fd_sc_hd__dfrtp_1
*CAP
1 *1087:B 0
2 *1369:A 0.00049868
3 *1088:B 0.000108496
4 *1270:Q 0.000296914
5 *366:12 0.000904089
6 *1369:A *1259:A 0
7 *366:12 *1030:A 0
8 *366:12 *1259:A 0.000129755
9 acc[8] *1369:A 2.89114e-05
10 *1088:A *1088:B 5.52238e-05
11 *1268:RESET_B *1369:A 5.56943e-05
12 *134:12 *366:12 0
13 *330:10 *1369:A 0.000376606
*RES
1 *1270:Q *366:12 24.4429 
2 *366:12 *1088:B 11.0857 
3 *366:12 *1369:A 29.4964 
4 *366:12 *1087:B 9.3 
*END

*D_NET *367 0.00185182
*CONN
*I *1370:A I *D sky130_fd_sc_hd__buf_2
*I *1082:B I *D sky130_fd_sc_hd__or2_1
*I *1081:B I *D sky130_fd_sc_hd__nand2_1
*I *1271:Q O *D sky130_fd_sc_hd__dfrtp_1
*CAP
1 *1370:A 0.000169741
2 *1082:B 0
3 *1081:B 6.69664e-05
4 *1271:Q 0
5 *367:25 0.000423827
6 *367:4 0.000321053
7 acc[12] *1370:A 5.23057e-05
8 acc[12] *367:25 0.000348588
9 acc[9] *1370:A 5.52302e-05
10 *1081:A *1081:B 6.11433e-05
11 *1081:A *367:25 9.06455e-05
12 *1082:A *367:25 7.56551e-05
13 *1271:RESET_B *1081:B 0
14 *1331:A *367:25 0.000186662
*RES
1 *1271:Q *367:4 9.3 
2 *367:4 *1081:B 10.8714 
3 *367:4 *367:25 15.3214 
4 *367:25 *1082:B 9.3 
5 *367:25 *1370:A 12.7286 
*END

*D_NET *368 0.0222452
*CONN
*I *1254:A I *D sky130_fd_sc_hd__inv_2
*I *1030:A I *D sky130_fd_sc_hd__inv_2
*I *1033:A I *D sky130_fd_sc_hd__inv_2
*I *1032:A I *D sky130_fd_sc_hd__inv_2
*I *1031:A I *D sky130_fd_sc_hd__inv_2
*I *1035:A I *D sky130_fd_sc_hd__inv_2
*I *1037:A I *D sky130_fd_sc_hd__inv_2
*I *1038:A I *D sky130_fd_sc_hd__inv_2
*I *1036:A I *D sky130_fd_sc_hd__inv_2
*I *1034:A I *D sky130_fd_sc_hd__inv_2
*I *1302:X O *D sky130_fd_sc_hd__buf_4
*CAP
1 *1254:A 0
2 *1030:A 0.00119745
3 *1033:A 7.93035e-05
4 *1032:A 0
5 *1031:A 0
6 *1035:A 0.000653491
7 *1037:A 0.000352097
8 *1038:A 0
9 *1036:A 0.000874604
10 *1034:A 0.000103134
11 *1302:X 0.00017922
12 *368:100 0.00122644
13 *368:90 0.00107106
14 *368:84 0.00108659
15 *368:49 0.00149214
16 *368:28 0.00143491
17 *368:24 0.00138931
18 *368:22 0.00188477
19 *368:18 0.00348806
20 *368:8 0.00141722
21 *1036:A *1128:A 0
22 *1036:A *372:10 0
23 acc[14] *1035:A 3.67257e-05
24 acc[1] *368:8 3.67142e-05
25 *1079:A *368:100 5.52238e-05
26 *1089:B *1030:A 5.26091e-05
27 *1119:B1 *368:90 0
28 *1120:C1 *368:90 0
29 *1227:A *1036:A 2.49484e-05
30 *1228:C *1030:A 0
31 *1235:A *368:90 0.000219064
32 *1235:A *368:100 0.000186669
33 *1263:RESET_B *368:8 0.000312209
34 *1265:D *368:18 8.10576e-05
35 *1268:CLK *1030:A 0
36 *1271:D *1030:A 0
37 *1273:RESET_B *368:90 2.27416e-05
38 *1273:RESET_B *368:100 5.30637e-06
39 *1274:RESET_B *368:84 0
40 *1275:CLK *368:28 0.000224356
41 *1275:D *1034:A 2.59355e-05
42 *1275:RESET_B *1034:A 7.83659e-05
43 *1275:RESET_B *368:49 4.80729e-05
44 *1276:RESET_B *1035:A 7.94648e-05
45 *1277:D *1036:A 0.000109311
46 *1277:RESET_B *1036:A 0
47 *1333:A *1035:A 5.52302e-05
48 *1335:A *1035:A 0.000142856
49 *1340:A *1035:A 0
50 *1340:A *368:100 9.25014e-06
51 *1343:A *1036:A 5.52302e-05
52 *1343:A *368:49 0.000172309
53 *125:14 *368:100 0
54 *126:10 *368:100 4.57445e-05
55 *127:23 *368:100 2.79092e-05
56 *131:10 *368:90 0
57 *134:12 *1030:A 4.57445e-05
58 *136:14 *1030:A 0
59 *166:6 *1033:A 0.000230482
60 *167:14 *368:90 0
61 *178:10 *1036:A 8.98801e-05
62 *184:14 *1037:A 0.000187741
63 *186:12 *1034:A 0.000146474
64 *186:12 *368:49 5.66157e-05
65 *301:12 *1030:A 0
66 *302:22 *368:100 5.33433e-05
67 *302:52 *1036:A 0
68 *330:10 *1030:A 0.00030178
69 *332:32 *368:8 0.00010096
70 *334:8 *368:100 0.000405733
71 *337:6 *368:49 0.000288807
72 *339:12 *1035:A 0.000179527
73 *339:12 *368:100 0
74 *350:14 *1036:A 6.58195e-05
75 *360:10 *368:18 5.52302e-05
76 *366:12 *1030:A 0
*RES
1 *1302:X *368:8 13.9607 
2 *368:8 *368:18 20.125 
3 *368:18 *368:22 16.1607 
4 *368:22 *368:24 3.82143 
5 *368:24 *368:28 13.25 
6 *368:28 *1034:A 16.2821 
7 *368:28 *368:49 17.4107 
8 *368:49 *1036:A 34.4786 
9 *368:49 *1038:A 9.3 
10 *368:24 *1037:A 26.3179 
11 *368:22 *368:84 13.4286 
12 *368:84 *368:90 14.3929 
13 *368:90 *368:100 21.6964 
14 *368:100 *1035:A 30.8536 
15 *368:100 *1031:A 9.3 
16 *368:90 *1032:A 9.3 
17 *368:84 *1033:A 15.9786 
18 *368:18 *1030:A 42.1036 
19 *368:8 *1254:A 9.3 
*END

*D_NET *369 0.0101645
*CONN
*I *1257:A I *D sky130_fd_sc_hd__inv_2
*I *1256:A I *D sky130_fd_sc_hd__inv_2
*I *1258:A I *D sky130_fd_sc_hd__inv_2
*I *1260:A I *D sky130_fd_sc_hd__inv_2
*I *1261:A I *D sky130_fd_sc_hd__inv_2
*I *1259:A I *D sky130_fd_sc_hd__inv_2
*I *1303:X O *D sky130_fd_sc_hd__buf_2
*CAP
1 *1257:A 0
2 *1256:A 0.000528355
3 *1258:A 0
4 *1260:A 0.000510714
5 *1261:A 3.5968e-05
6 *1259:A 0.000655373
7 *1303:X 0.000271072
8 *369:56 0.000944152
9 *369:30 0.00155019
10 *369:20 0.00166259
11 *369:16 0.00103238
12 *369:12 0.000404798
13 acc[3] *1260:A 0.000117421
14 *1107:A *1260:A 4.52936e-05
15 *1109:A *369:20 0
16 *1117:A1 *1259:A 0
17 *1117:A1 *1261:A 0
18 *1117:A2 *369:30 0.00039393
19 *1241:B *369:20 0
20 *1241:B *369:30 4.34543e-05
21 *1265:RESET_B *1256:A 2.27416e-05
22 *1266:RESET_B *1256:A 0
23 *1266:RESET_B *369:12 0.000154762
24 *1267:D *369:30 9.25014e-06
25 *1267:D *369:56 5.56943e-05
26 *1267:RESET_B *369:56 0
27 *1268:RESET_B *1259:A 0
28 *1270:CLK *369:30 8.90314e-05
29 *1329:A *1260:A 0
30 *1364:A *1256:A 4.8476e-05
31 *1364:A *369:20 4.62632e-05
32 *1366:A *1260:A 5.33334e-05
33 *1369:A *1259:A 0
34 *149:10 *1259:A 0
35 *153:20 *1259:A 0
36 *154:6 *1260:A 9.22103e-06
37 *154:10 *369:56 0.00027323
38 *156:6 *369:30 0.000292976
39 *156:8 *369:30 4.27935e-05
40 *157:20 *369:12 9.25014e-06
41 *157:20 *369:20 0
42 *159:6 *369:16 0.000199934
43 *263:12 *1259:A 0
44 *303:36 *369:20 0
45 *303:36 *369:56 0
46 *303:38 *369:56 0
47 *303:55 *1259:A 0.000186662
48 *303:97 *1256:A 0.000128154
49 *360:10 *1256:A 0.000118289
50 *362:14 *369:12 9.90367e-05
51 *364:14 *1259:A 0
52 *365:12 *1260:A 0
53 *366:12 *1259:A 0.000129755
*RES
1 *1303:X *369:12 23.55 
2 *369:12 *369:16 7.91071 
3 *369:16 *369:20 6.08036 
4 *369:20 *369:30 20.9196 
5 *369:30 *1259:A 26.925 
6 *369:30 *1261:A 14.5321 
7 *369:20 *369:56 13.9732 
8 *369:56 *1260:A 27.7107 
9 *369:56 *1258:A 9.3 
10 *369:16 *1256:A 24.4964 
11 *369:12 *1257:A 9.3 
*END

*D_NET *370 0.0204244
*CONN
*I *1048:A I *D sky130_fd_sc_hd__inv_2
*I *1045:A I *D sky130_fd_sc_hd__inv_2
*I *1041:A I *D sky130_fd_sc_hd__inv_2
*I *1039:A I *D sky130_fd_sc_hd__inv_2
*I *1047:A I *D sky130_fd_sc_hd__inv_2
*I *1044:A I *D sky130_fd_sc_hd__inv_2
*I *1043:A I *D sky130_fd_sc_hd__inv_2
*I *1042:A I *D sky130_fd_sc_hd__inv_2
*I *1040:A I *D sky130_fd_sc_hd__inv_2
*I *1046:A I *D sky130_fd_sc_hd__inv_2
*I *1304:X O *D sky130_fd_sc_hd__buf_4
*CAP
1 *1048:A 0
2 *1045:A 3.08973e-05
3 *1041:A 0
4 *1039:A 0.00140629
5 *1047:A 2.23854e-05
6 *1044:A 0.000373499
7 *1043:A 0.000178651
8 *1042:A 0.000215916
9 *1040:A 0.000314412
10 *1046:A 0.000320902
11 *1304:X 0.000275751
12 *370:126 0.00208742
13 *370:120 0.00152541
14 *370:55 0.00111649
15 *370:45 0.00242822
16 *370:32 0.00208667
17 *370:30 0.000983939
18 *370:26 0.000603224
19 *370:24 0.00198881
20 *370:12 0.00137843
21 *1058:A *370:120 1.21328e-05
22 *1059:B *370:120 0
23 *1063:A *370:24 0.000151061
24 *1068:B1 *370:24 0.000190136
25 *1159:B *370:45 7.48301e-06
26 *1159:B *370:55 1.40415e-05
27 *1162:A *370:45 5.52302e-05
28 *1163:A *1044:A 0
29 *1163:B *1044:A 0.000195721
30 *1164:A *1044:A 0
31 *1164:B *1044:A 0
32 *1174:A *370:45 0.00018778
33 *1197:A *370:126 0.000318101
34 *1197:B *370:126 9.90431e-05
35 *1199:A *370:120 0
36 *1202:B *1044:A 0
37 *1202:B *370:32 0
38 *1209:B *1043:A 9.93955e-05
39 *1281:CLK *1040:A 0
40 *1281:CLK *370:55 0
41 *1283:D *1042:A 0.000118592
42 *1285:RESET_B *1044:A 0
43 *1286:RESET_B *370:120 0.000171375
44 *1286:RESET_B *370:126 2.89016e-05
45 *1287:D *370:120 0
46 *1288:CLK *1046:A 0
47 *1288:RESET_B *370:26 2.27416e-05
48 *1288:RESET_B *370:30 5.30637e-06
49 *1289:CLK *370:12 0.000198698
50 *1289:RESET_B *370:12 2.89016e-05
51 *1355:A *370:120 0.000576997
52 *1358:A *370:12 0
53 *209:8 *370:45 4.87953e-05
54 *218:14 *1039:A 0
55 *218:14 *370:126 6.81335e-05
56 *222:14 *1046:A 0
57 *245:12 *1043:A 5.10822e-05
58 *301:30 *370:120 9.32406e-05
59 *304:72 *1043:A 0
60 *304:72 *370:55 4.1331e-06
61 *311:12 *1043:A 0
62 *313:8 *1044:A 6.75704e-05
63 *315:8 *370:120 0
64 *349:25 *1044:A 6.5185e-05
65 *351:12 *370:120 0.000168939
66 *351:27 *370:120 3.83222e-05
*RES
1 *1304:X *370:12 23.925 
2 *370:12 *370:24 20.3393 
3 *370:24 *370:26 1.35714 
4 *370:26 *370:30 12.4286 
5 *370:30 *370:32 1.64286 
6 *370:32 *1046:A 19.6929 
7 *370:32 *370:45 23.9286 
8 *370:45 *370:55 13.2321 
9 *370:55 *1040:A 19.3179 
10 *370:55 *1042:A 18.0321 
11 *370:45 *1043:A 22.0143 
12 *370:30 *1044:A 21.925 
13 *370:26 *1047:A 9.72857 
14 *370:24 *370:120 26.7857 
15 *370:120 *370:126 13.3036 
16 *370:126 *1039:A 41.9607 
17 *370:126 *1041:A 9.3 
18 *370:120 *1045:A 9.83571 
19 *370:12 *1048:A 9.3 
*END

*D_NET *371 0.00761605
*CONN
*I *1051:A I *D sky130_fd_sc_hd__inv_2
*I *1052:A I *D sky130_fd_sc_hd__inv_2
*I *1050:A I *D sky130_fd_sc_hd__inv_2
*I *1053:A I *D sky130_fd_sc_hd__inv_2
*I *1049:A I *D sky130_fd_sc_hd__inv_2
*I *1255:A I *D sky130_fd_sc_hd__inv_2
*I *1305:X O *D sky130_fd_sc_hd__buf_2
*CAP
1 *1051:A 1.40355e-05
2 *1052:A 0
3 *1050:A 4.39637e-05
4 *1053:A 0.000299615
5 *1049:A 0.000194162
6 *1255:A 0.000283541
7 *1305:X 0.000179137
8 *371:42 0.000474659
9 *371:20 0.00127901
10 *371:14 0.00127785
11 *371:10 0.000852345
12 *371:8 0.000700056
13 acc[2] *1053:A 0
14 *1192:A1 *371:10 0
15 *1291:CLK *1049:A 0.000537165
16 *1291:CLK *371:20 0.000175502
17 *1291:D *371:20 0
18 *1291:RESET_B *1050:A 2.28598e-05
19 *1291:RESET_B *371:42 6.94994e-05
20 *1292:RESET_B *371:8 0.00010326
21 *1293:RESET_B *371:10 0.000104974
22 *1309:A *1053:A 0
23 *1321:A *1053:A 0
24 *1361:A *1255:A 0
25 *227:21 *371:10 0
26 *227:21 *371:14 0
27 *231:6 *1051:A 5.52302e-05
28 *232:6 *1051:A 2.89114e-05
29 *319:14 *371:14 4.57445e-05
30 *321:12 *1053:A 0
31 *332:32 *1053:A 0.000584167
32 *332:32 *371:8 9.74356e-05
33 *332:32 *371:10 6.76747e-05
34 *332:32 *371:14 0.000125255
35 *357:10 *1255:A 0
*RES
1 *1305:X *371:8 17.8714 
2 *371:8 *371:10 9.83929 
3 *371:10 *371:14 11.3036 
4 *371:14 *371:20 14.6964 
5 *371:20 *1255:A 18.7821 
6 *371:20 *1049:A 18.8536 
7 *371:14 *371:42 2.5 
8 *371:42 *1053:A 25.7107 
9 *371:42 *1050:A 10.2643 
10 *371:10 *1052:A 13.8 
11 *371:8 *1051:A 14.3357 
*END

*D_NET *372 0.00197972
*CONN
*I *1129:A I *D sky130_fd_sc_hd__nor2_1
*I *1130:A I *D sky130_fd_sc_hd__or2_1
*I *1128:A I *D sky130_fd_sc_hd__nand2_1
*I *1336:X O *D sky130_fd_sc_hd__buf_1
*CAP
1 *1129:A 6.87314e-05
2 *1130:A 0
3 *1128:A 0.000135841
4 *1336:X 0.000497412
5 *372:27 6.87314e-05
6 *372:10 0.000633252
7 *1036:A *1128:A 0
8 *1036:A *372:10 0
9 *1129:B *1129:A 0.000334934
10 *1131:A *1129:A 1.04232e-05
11 *1131:B *1129:A 0.00010096
12 *1138:C1 *1129:A 2.89114e-05
13 *1336:A *372:10 0
14 *175:6 *1129:A 9.47613e-05
15 *340:28 *1128:A 5.7661e-06
*RES
1 *1336:X *372:10 20.5679 
2 *372:10 *1128:A 15.8446 
3 *372:10 *372:27 4.5 
4 *372:27 *1130:A 9.3 
5 *372:27 *1129:A 12.7286 
*END

*D_NET *373 0.00297803
*CONN
*I *1154:A1 I *D sky130_fd_sc_hd__a31o_1
*I *1148:A I *D sky130_fd_sc_hd__nand2_1
*I *1149:A I *D sky130_fd_sc_hd__or2_1
*I *1337:X O *D sky130_fd_sc_hd__buf_1
*CAP
1 *1154:A1 0
2 *1148:A 2.65992e-05
3 *1149:A 0.000161374
4 *1337:X 0.000834924
5 *373:12 0.000262545
6 *373:10 0.000909496
7 *1148:B *1148:A 5.52238e-05
8 *1150:A *1148:A 9.60875e-05
9 *1151:B1 *373:10 0
10 *1151:B1 *373:12 0
11 *1154:A2 *1149:A 3.17148e-05
12 *1154:A2 *373:12 0.000188734
13 *1154:B1 *373:10 1.02504e-05
14 *1154:B1 *373:12 0.000128154
15 *1155:C1 *373:10 6.35798e-05
16 *193:8 *373:10 0
17 *341:12 *1148:A 5.33005e-05
18 *341:40 *1149:A 0.000156047
*RES
1 *1337:X *373:10 26.9429 
2 *373:10 *373:12 2.55357 
3 *373:12 *1149:A 16.8179 
4 *373:12 *1148:A 14.7464 
5 *373:10 *1154:A1 13.8 
*END

*D_NET *374 0.00249633
*CONN
*I *1153:A I *D sky130_fd_sc_hd__and3_1
*I *1217:A1 I *D sky130_fd_sc_hd__a21o_1
*I *1141:A I *D sky130_fd_sc_hd__xnor2_1
*I *1338:X O *D sky130_fd_sc_hd__buf_1
*CAP
1 *1153:A 0.000374405
2 *1217:A1 0
3 *1141:A 0.000125261
4 *1338:X 0
5 *374:17 0.000580718
6 *374:4 0.000331574
7 *1147:A_N *1153:A 0.000173097
8 *1153:C *1153:A 0
9 *1214:A1 *1153:A 4.08749e-06
10 *1214:A2 *1153:A 2.99621e-05
11 *1216:A *1153:A 0
12 *1217:B1 *1153:A 0
13 *1294:A *1153:A 0.000129515
14 *1294:A *374:17 0.000315158
15 *1338:A *1141:A 0
16 *1347:A *1141:A 4.56437e-05
17 *35:11 *1141:A 1.19402e-05
18 *188:21 *1153:A 0
19 *193:8 *1153:A 0
20 *195:8 *1153:A 9.60939e-05
21 *247:14 *1153:A 4.01861e-05
22 *250:10 *1153:A 9.25014e-06
23 *342:10 *1141:A 3.51442e-05
24 *342:19 *1141:A 0.000194299
*RES
1 *1338:X *374:4 9.3 
2 *374:4 *1141:A 21.7643 
3 *374:4 *374:17 3 
4 *374:17 *1217:A1 9.3 
5 *374:17 *1153:A 25.5679 
*END
