*SPEF "ieee 1481-1999"
*DESIGN "acc32"
*DATE "16:17:31 Saturday September 19, 2026"
*VENDOR "The OpenROAD Project"
*PROGRAM "OpenROAD"
*VERSION "edf00dff99f6c40d67a30c0e22a8191c5d2ed9d6"
*DESIGN_FLOW "NAME_SCOPE LOCAL" "PIN_CAP NONE"
*DIVIDER /
*DELIMITER :
*BUS_DELIMITER []
*T_UNIT 1 NS
*C_UNIT 1 PF
*R_UNIT 1 OHM
*L_UNIT 1 HENRY

*NAME_MAP
*3 acc[0]
*4 acc[10]
*5 acc[11]
*6 acc[12]
*7 acc[13]
*8 acc[14]
*9 acc[15]
*10 acc[16]
*11 acc[17]
*12 acc[18]
*13 acc[19]
*14 acc[1]
*15 acc[20]
*16 acc[21]
*17 acc[22]
*18 acc[23]
*19 acc[24]
*20 acc[25]
*21 acc[26]
*22 acc[27]
*23 acc[28]
*24 acc[29]
*25 acc[2]
*26 acc[30]
*27 acc[31]
*28 acc[3]
*29 acc[4]
*30 acc[5]
*31 acc[6]
*32 acc[7]
*33 acc[8]
*34 acc[9]
*35 clk
*36 data_in[0]
*37 data_in[10]
*38 data_in[11]
*39 data_in[12]
*40 data_in[13]
*41 data_in[14]
*42 data_in[15]
*43 data_in[16]
*44 data_in[17]
*45 data_in[18]
*46 data_in[19]
*47 data_in[1]
*48 data_in[20]
*49 data_in[21]
*50 data_in[22]
*51 data_in[23]
*52 data_in[24]
*53 data_in[25]
*54 data_in[26]
*55 data_in[27]
*56 data_in[28]
*57 data_in[29]
*58 data_in[2]
*59 data_in[30]
*60 data_in[31]
*61 data_in[3]
*62 data_in[4]
*63 data_in[5]
*64 data_in[6]
*65 data_in[7]
*66 data_in[8]
*67 data_in[9]
*68 rst
*69 _000_
*70 _001_
*71 _002_
*72 _003_
*73 _004_
*74 _005_
*75 _006_
*76 _007_
*77 _008_
*78 _009_
*79 _010_
*80 _011_
*81 _012_
*82 _013_
*83 _014_
*84 _015_
*85 _016_
*86 _017_
*87 _018_
*88 _019_
*89 _020_
*90 _021_
*91 _022_
*92 _023_
*93 _024_
*94 _025_
*95 _026_
*96 _027_
*97 _028_
*98 _029_
*99 _030_
*100 _031_
*101 _032_
*102 _033_
*103 _034_
*104 _035_
*105 _036_
*106 _037_
*107 _038_
*108 _039_
*109 _040_
*110 _041_
*111 _042_
*112 _043_
*113 _044_
*114 _045_
*115 _046_
*116 _047_
*117 _048_
*118 _049_
*119 _050_
*120 _051_
*121 _052_
*122 _053_
*123 _054_
*124 _055_
*125 _056_
*126 _057_
*127 _058_
*128 _059_
*129 _060_
*130 _061_
*131 _062_
*132 _063_
*133 _064_
*134 _065_
*135 _066_
*136 _067_
*137 _068_
*138 _069_
*139 _070_
*140 _071_
*141 _072_
*142 _073_
*143 _074_
*144 _075_
*145 _076_
*146 _077_
*147 _078_
*148 _079_
*149 _080_
*150 _081_
*151 _082_
*152 _083_
*153 _084_
*154 _085_
*155 _086_
*156 _087_
*157 _088_
*158 _089_
*159 _090_
*160 _091_
*161 _092_
*162 _093_
*163 _094_
*164 _095_
*165 _096_
*166 _097_
*167 _098_
*168 _099_
*169 _100_
*170 _101_
*171 _102_
*172 _103_
*173 _104_
*174 _105_
*175 _106_
*176 _107_
*177 _108_
*178 _109_
*179 _110_
*180 _111_
*181 _112_
*182 _113_
*183 _114_
*184 _115_
*185 _116_
*186 _117_
*187 _118_
*188 _119_
*189 _120_
*190 _121_
*191 _122_
*192 _123_
*193 _124_
*194 _125_
*195 _126_
*196 _127_
*197 _128_
*198 _129_
*199 _130_
*200 _131_
*201 _132_
*202 _133_
*203 _134_
*204 _135_
*205 _136_
*206 _137_
*207 _138_
*208 _139_
*209 _140_
*210 _141_
*211 _142_
*212 _143_
*213 _144_
*214 _145_
*215 _146_
*216 _147_
*217 _148_
*218 _149_
*219 _150_
*220 _151_
*221 _152_
*222 _153_
*223 _154_
*224 _155_
*225 _156_
*226 _157_
*227 _158_
*228 _159_
*229 _160_
*230 _161_
*231 _162_
*232 _163_
*233 _164_
*234 _165_
*235 _166_
*236 _167_
*237 _168_
*238 _169_
*239 _170_
*240 _171_
*241 _172_
*242 _173_
*243 _174_
*244 _175_
*245 _176_
*246 _177_
*247 _178_
*248 _179_
*249 _180_
*250 _181_
*251 _182_
*252 _183_
*253 _184_
*254 _185_
*255 _186_
*256 _187_
*257 _188_
*258 _189_
*259 _190_
*260 _191_
*261 _192_
*262 _193_
*263 _194_
*264 _195_
*265 _196_
*266 _197_
*267 _198_
*268 _199_
*269 adder\.cla_blocks\[0\]\.block\.p\[0\]
*270 adder\.cla_blocks\[0\]\.block\.sum\[1\]
*271 adder\.cla_blocks\[0\]\.block\.sum\[2\]
*272 adder\.cla_blocks\[0\]\.block\.sum\[3\]
*273 adder\.cla_blocks\[1\]\.block\.sum\[0\]
*274 adder\.cla_blocks\[1\]\.block\.sum\[1\]
*275 adder\.cla_blocks\[1\]\.block\.sum\[2\]
*276 adder\.cla_blocks\[1\]\.block\.sum\[3\]
*277 adder\.cla_blocks\[2\]\.block\.sum\[0\]
*278 adder\.cla_blocks\[2\]\.block\.sum\[1\]
*279 adder\.cla_blocks\[2\]\.block\.sum\[2\]
*280 adder\.cla_blocks\[2\]\.block\.sum\[3\]
*281 adder\.cla_blocks\[3\]\.block\.sum\[0\]
*282 adder\.cla_blocks\[3\]\.block\.sum\[1\]
*283 adder\.cla_blocks\[3\]\.block\.sum\[2\]
*284 adder\.cla_blocks\[3\]\.block\.sum\[3\]
*285 adder\.cla_blocks\[4\]\.block\.sum\[0\]
*286 adder\.cla_blocks\[4\]\.block\.sum\[1\]
*287 adder\.cla_blocks\[4\]\.block\.sum\[2\]
*288 adder\.cla_blocks\[4\]\.block\.sum\[3\]
*289 adder\.cla_blocks\[5\]\.block\.sum\[0\]
*290 adder\.cla_blocks\[5\]\.block\.sum\[1\]
*291 adder\.cla_blocks\[5\]\.block\.sum\[2\]
*292 adder\.cla_blocks\[5\]\.block\.sum\[3\]
*293 adder\.cla_blocks\[6\]\.block\.sum\[0\]
*294 adder\.cla_blocks\[6\]\.block\.sum\[1\]
*295 adder\.cla_blocks\[6\]\.block\.sum\[2\]
*296 adder\.cla_blocks\[6\]\.block\.sum\[3\]
*297 adder\.cla_blocks\[7\]\.block\.sum\[0\]
*298 adder\.cla_blocks\[7\]\.block\.sum\[1\]
*299 adder\.cla_blocks\[7\]\.block\.sum\[2\]
*300 adder\.cla_blocks\[7\]\.block\.sum\[3\]
*301 clknet_0_clk
*302 clknet_2_0__leaf_clk
*303 clknet_2_1__leaf_clk
*304 clknet_2_2__leaf_clk
*305 clknet_2_3__leaf_clk
*306 net1
*307 net10
*308 net11
*309 net12
*310 net13
*311 net14
*312 net15
*313 net16
*314 net17
*315 net18
*316 net19
*317 net2
*318 net20
*319 net21
*320 net22
*321 net23
*322 net24
*323 net25
*324 net26
*325 net27
*326 net28
*327 net29
*328 net3
*329 net30
*330 net31
*331 net32
*332 net33
*333 net34
*334 net35
*335 net36
*336 net37
*337 net38
*338 net39
*339 net4
*340 net40
*341 net41
*342 net42
*343 net43
*344 net44
*345 net45
*346 net46
*347 net47
*348 net48
*349 net49
*350 net5
*351 net50
*352 net51
*353 net52
*354 net53
*355 net54
*356 net55
*357 net56
*358 net57
*359 net58
*360 net59
*361 net6
*362 net60
*363 net61
*364 net62
*365 net63
*366 net64
*367 net65
*368 net66
*369 net67
*370 net68
*371 net69
*372 net7
*373 net8
*374 net9
*375 FILLER_0_111
*376 FILLER_0_117
*377 FILLER_0_122
*378 FILLER_0_29
*379 FILLER_0_57
*380 FILLER_0_83
*381 FILLER_0_85
*382 FILLER_0_98
*383 FILLER_10_101
*384 FILLER_10_123
*385 FILLER_10_19
*386 FILLER_10_27
*387 FILLER_10_3
*388 FILLER_10_32
*389 FILLER_10_36
*390 FILLER_10_48
*391 FILLER_10_56
*392 FILLER_10_77
*393 FILLER_10_83
*394 FILLER_10_9
*395 FILLER_10_92
*396 FILLER_11_111
*397 FILLER_11_113
*398 FILLER_11_120
*399 FILLER_11_48
*400 FILLER_11_57
*401 FILLER_11_69
*402 FILLER_11_81
*403 FILLER_11_91
*404 FILLER_12_110
*405 FILLER_12_18
*406 FILLER_12_24
*407 FILLER_12_49
*408 FILLER_12_6
*409 FILLER_12_61
*410 FILLER_12_73
*411 FILLER_13_116
*412 FILLER_13_13
*413 FILLER_13_25
*414 FILLER_13_38
*415 FILLER_13_49
*416 FILLER_13_57
*417 FILLER_13_6
*418 FILLER_13_68
*419 FILLER_13_80
*420 FILLER_13_86
*421 FILLER_14_112
*422 FILLER_14_18
*423 FILLER_14_23
*424 FILLER_14_29
*425 FILLER_14_74
*426 FILLER_14_82
*427 FILLER_15_13
*428 FILLER_15_29
*429 FILLER_15_42
*430 FILLER_15_54
*431 FILLER_15_62
*432 FILLER_15_72
*433 FILLER_16_103
*434 FILLER_16_23
*435 FILLER_16_60
*436 FILLER_16_67
*437 FILLER_16_83
*438 FILLER_16_85
*439 FILLER_17_119
*440 FILLER_17_34
*441 FILLER_17_72
*442 FILLER_18_18
*443 FILLER_18_3
*444 FILLER_18_41
*445 FILLER_18_67
*446 FILLER_18_92
*447 FILLER_19_111
*448 FILLER_19_28
*449 FILLER_19_57
*450 FILLER_19_97
*451 FILLER_1_122
*452 FILLER_1_55
*453 FILLER_1_57
*454 FILLER_1_67
*455 FILLER_20_22
*456 FILLER_20_26
*457 FILLER_20_32
*458 FILLER_20_52
*459 FILLER_20_82
*460 FILLER_2_13
*461 FILLER_2_52
*462 FILLER_2_89
*463 FILLER_3_117
*464 FILLER_3_123
*465 FILLER_3_24
*466 FILLER_3_38
*467 FILLER_3_51
*468 FILLER_3_55
*469 FILLER_3_88
*470 FILLER_4_3
*471 FILLER_4_80
*472 FILLER_4_85
*473 FILLER_4_97
*474 FILLER_5_111
*475 FILLER_5_122
*476 FILLER_5_23
*477 FILLER_5_55
*478 FILLER_5_69
*479 FILLER_6_11
*480 FILLER_6_18
*481 FILLER_6_62
*482 FILLER_6_85
*483 FILLER_7_104
*484 FILLER_7_122
*485 FILLER_7_27
*486 FILLER_7_54
*487 FILLER_7_57
*488 FILLER_7_80
*489 FILLER_8_10
*490 FILLER_8_122
*491 FILLER_8_17
*492 FILLER_8_29
*493 FILLER_8_45
*494 FILLER_8_57
*495 FILLER_8_69
*496 FILLER_8_73
*497 FILLER_8_82
*498 FILLER_8_92
*499 FILLER_9_22
*500 FILLER_9_60
*501 FILLER_9_68
*502 PHY_EDGE_ROW_0_Left_21
*503 PHY_EDGE_ROW_0_Right_0
*504 PHY_EDGE_ROW_10_Left_31
*505 PHY_EDGE_ROW_10_Right_10
*506 PHY_EDGE_ROW_11_Left_32
*507 PHY_EDGE_ROW_11_Right_11
*508 PHY_EDGE_ROW_12_Left_33
*509 PHY_EDGE_ROW_12_Right_12
*510 PHY_EDGE_ROW_13_Left_34
*511 PHY_EDGE_ROW_13_Right_13
*512 PHY_EDGE_ROW_14_Left_35
*513 PHY_EDGE_ROW_14_Right_14
*514 PHY_EDGE_ROW_15_Left_36
*515 PHY_EDGE_ROW_15_Right_15
*516 PHY_EDGE_ROW_16_Left_37
*517 PHY_EDGE_ROW_16_Right_16
*518 PHY_EDGE_ROW_17_Left_38
*519 PHY_EDGE_ROW_17_Right_17
*520 PHY_EDGE_ROW_18_Left_39
*521 PHY_EDGE_ROW_18_Right_18
*522 PHY_EDGE_ROW_19_Left_40
*523 PHY_EDGE_ROW_19_Right_19
*524 PHY_EDGE_ROW_1_Left_22
*525 PHY_EDGE_ROW_1_Right_1
*526 PHY_EDGE_ROW_20_Left_41
*527 PHY_EDGE_ROW_20_Right_20
*528 PHY_EDGE_ROW_2_Left_23
*529 PHY_EDGE_ROW_2_Right_2
*530 PHY_EDGE_ROW_3_Left_24
*531 PHY_EDGE_ROW_3_Right_3
*532 PHY_EDGE_ROW_4_Left_25
*533 PHY_EDGE_ROW_4_Right_4
*534 PHY_EDGE_ROW_5_Left_26
*535 PHY_EDGE_ROW_5_Right_5
*536 PHY_EDGE_ROW_6_Left_27
*537 PHY_EDGE_ROW_6_Right_6
*538 PHY_EDGE_ROW_7_Left_28
*539 PHY_EDGE_ROW_7_Right_7
*540 PHY_EDGE_ROW_8_Left_29
*541 PHY_EDGE_ROW_8_Right_8
*542 PHY_EDGE_ROW_9_Left_30
*543 PHY_EDGE_ROW_9_Right_9
*544 TAP_TAPCELL_ROW_0_42
*545 TAP_TAPCELL_ROW_0_43
*546 TAP_TAPCELL_ROW_0_44
*547 TAP_TAPCELL_ROW_0_45
*548 TAP_TAPCELL_ROW_10_64
*549 TAP_TAPCELL_ROW_10_65
*550 TAP_TAPCELL_ROW_11_66
*551 TAP_TAPCELL_ROW_11_67
*552 TAP_TAPCELL_ROW_12_68
*553 TAP_TAPCELL_ROW_12_69
*554 TAP_TAPCELL_ROW_13_70
*555 TAP_TAPCELL_ROW_13_71
*556 TAP_TAPCELL_ROW_14_72
*557 TAP_TAPCELL_ROW_14_73
*558 TAP_TAPCELL_ROW_15_74
*559 TAP_TAPCELL_ROW_15_75
*560 TAP_TAPCELL_ROW_16_76
*561 TAP_TAPCELL_ROW_16_77
*562 TAP_TAPCELL_ROW_17_78
*563 TAP_TAPCELL_ROW_17_79
*564 TAP_TAPCELL_ROW_18_80
*565 TAP_TAPCELL_ROW_18_81
*566 TAP_TAPCELL_ROW_19_82
*567 TAP_TAPCELL_ROW_19_83
*568 TAP_TAPCELL_ROW_1_46
*569 TAP_TAPCELL_ROW_1_47
*570 TAP_TAPCELL_ROW_20_84
*571 TAP_TAPCELL_ROW_20_85
*572 TAP_TAPCELL_ROW_20_86
*573 TAP_TAPCELL_ROW_20_87
*574 TAP_TAPCELL_ROW_2_48
*575 TAP_TAPCELL_ROW_2_49
*576 TAP_TAPCELL_ROW_3_50
*577 TAP_TAPCELL_ROW_3_51
*578 TAP_TAPCELL_ROW_4_52
*579 TAP_TAPCELL_ROW_4_53
*580 TAP_TAPCELL_ROW_5_54
*581 TAP_TAPCELL_ROW_5_55
*582 TAP_TAPCELL_ROW_6_56
*583 TAP_TAPCELL_ROW_6_57
*584 TAP_TAPCELL_ROW_7_58
*585 TAP_TAPCELL_ROW_7_59
*586 TAP_TAPCELL_ROW_8_60
*587 TAP_TAPCELL_ROW_8_61
*588 TAP_TAPCELL_ROW_9_62
*589 TAP_TAPCELL_ROW_9_63
*590 _200_
*591 _201_
*592 _202_
*593 _203_
*594 _204_
*595 _205_
*596 _206_
*597 _207_
*598 _208_
*599 _209_
*600 _210_
*601 _211_
*602 _212_
*603 _213_
*604 _214_
*605 _215_
*606 _216_
*607 _217_
*608 _218_
*609 _219_
*610 _220_
*611 _221_
*612 _222_
*613 _223_
*614 _224_
*615 _225_
*616 _226_
*617 _227_
*618 _228_
*619 _229_
*620 _230_
*621 _231_
*622 _232_
*623 _233_
*624 _234_
*625 _235_
*626 _236_
*627 _237_
*628 _238_
*629 _239_
*630 _240_
*631 _241_
*632 _242_
*633 _243_
*634 _244_
*635 _245_
*636 _246_
*637 _247_
*638 _248_
*639 _249_
*640 _250_
*641 _251_
*642 _252_
*643 _253_
*644 _254_
*645 _255_
*646 _256_
*647 _257_
*648 _258_
*649 _259_
*650 _260_
*651 _261_
*652 _262_
*653 _263_
*654 _264_
*655 _265_
*656 _266_
*657 _267_
*658 _268_
*659 _269_
*660 _270_
*661 _271_
*662 _272_
*663 _273_
*664 _274_
*665 _275_
*666 _276_
*667 _277_
*668 _278_
*669 _279_
*670 _280_
*671 _281_
*672 _282_
*673 _283_
*674 _284_
*675 _285_
*676 _286_
*677 _287_
*678 _288_
*679 _289_
*680 _290_
*681 _291_
*682 _292_
*683 _293_
*684 _294_
*685 _295_
*686 _296_
*687 _297_
*688 _298_
*689 _299_
*690 _300_
*691 _301_
*692 _302_
*693 _303_
*694 _304_
*695 _305_
*696 _306_
*697 _307_
*698 _308_
*699 _309_
*700 _310_
*701 _311_
*702 _312_
*703 _313_
*704 _314_
*705 _315_
*706 _316_
*707 _317_
*708 _318_
*709 _319_
*710 _320_
*711 _321_
*712 _322_
*713 _323_
*714 _324_
*715 _325_
*716 _326_
*717 _327_
*718 _328_
*719 _329_
*720 _330_
*721 _331_
*722 _332_
*723 _333_
*724 _334_
*725 _335_
*726 _336_
*727 _337_
*728 _338_
*729 _339_
*730 _340_
*731 _341_
*732 _342_
*733 _343_
*734 _344_
*735 _345_
*736 _346_
*737 _347_
*738 _348_
*739 _349_
*740 _350_
*741 _351_
*742 _352_
*743 _353_
*744 _354_
*745 _355_
*746 _356_
*747 _357_
*748 _358_
*749 _359_
*750 _360_
*751 _361_
*752 _362_
*753 _363_
*754 _364_
*755 _365_
*756 _366_
*757 _367_
*758 _368_
*759 _369_
*760 _370_
*761 _371_
*762 _372_
*763 _373_
*764 _374_
*765 _375_
*766 _376_
*767 _377_
*768 _378_
*769 _379_
*770 _380_
*771 _381_
*772 _382_
*773 _383_
*774 _384_
*775 _385_
*776 _386_
*777 _387_
*778 _388_
*779 _389_
*780 _390_
*781 _391_
*782 _392_
*783 _393_
*784 _394_
*785 _395_
*786 _396_
*787 _397_
*788 _398_
*789 _399_
*790 _400_
*791 _401_
*792 _402_
*793 _403_
*794 _404_
*795 _405_
*796 _406_
*797 _407_
*798 _408_
*799 _409_
*800 _410_
*801 _411_
*802 _412_
*803 _413_
*804 _414_
*805 _415_
*806 _416_
*807 _417_
*808 _418_
*809 _419_
*810 _420_
*811 _421_
*812 _422_
*813 _423_
*814 _424_
*815 _425_
*816 _426_
*817 _427_
*818 _428_
*819 _429_
*820 _430_
*821 _431_
*822 _432_
*823 _433_
*824 _434_
*825 _435_
*826 _436_
*827 _437_
*828 _438_
*829 _439_
*830 _440_
*831 _441_
*832 _442_
*833 _443_
*834 _444_
*835 _445_
*836 _446_
*837 _447_
*838 _448_
*839 _449_
*840 _450_
*841 _451_
*842 _452_
*843 _453_
*844 _454_
*845 _455_
*846 _456_
*847 _457_
*848 _458_
*849 _459_
*850 _460_
*851 _461_
*852 _462_
*853 _463_
*854 clkbuf_0_clk
*855 clkbuf_2_0__f_clk
*856 clkbuf_2_1__f_clk
*857 clkbuf_2_2__f_clk
*858 clkbuf_2_3__f_clk
*859 clkload0
*860 clkload1
*861 clkload2
*862 fanout66
*863 fanout67
*864 fanout68
*865 fanout69
*866 input1
*867 input10
*868 input11
*869 input12
*870 input13
*871 input14
*872 input15
*873 input16
*874 input17
*875 input18
*876 input19
*877 input2
*878 input20
*879 input21
*880 input22
*881 input23
*882 input24
*883 input25
*884 input26
*885 input27
*886 input28
*887 input29
*888 input3
*889 input30
*890 input31
*891 input32
*892 input33
*893 input4
*894 input5
*895 input6
*896 input7
*897 input8
*898 input9
*899 output34
*900 output35
*901 output36
*902 output37
*903 output38
*904 output39
*905 output40
*906 output41
*907 output42
*908 output43
*909 output44
*910 output45
*911 output46
*912 output47
*913 output48
*914 output49
*915 output50
*916 output51
*917 output52
*918 output53
*919 output54
*920 output55
*921 output56
*922 output57
*923 output58
*924 output59
*925 output60
*926 output61
*927 output62
*928 output63
*929 output64
*930 output65

*PORTS
acc[0] O
acc[10] O
acc[11] O
acc[12] O
acc[13] O
acc[14] O
acc[15] O
acc[16] O
acc[17] O
acc[18] O
acc[19] O
acc[1] O
acc[20] O
acc[21] O
acc[22] O
acc[23] O
acc[24] O
acc[25] O
acc[26] O
acc[27] O
acc[28] O
acc[29] O
acc[2] O
acc[30] O
acc[31] O
acc[3] O
acc[4] O
acc[5] O
acc[6] O
acc[7] O
acc[8] O
acc[9] O
clk I
data_in[0] I
data_in[10] I
data_in[11] I
data_in[12] I
data_in[13] I
data_in[14] I
data_in[15] I
data_in[16] I
data_in[17] I
data_in[18] I
data_in[19] I
data_in[1] I
data_in[20] I
data_in[21] I
data_in[22] I
data_in[23] I
data_in[24] I
data_in[25] I
data_in[26] I
data_in[27] I
data_in[28] I
data_in[29] I
data_in[2] I
data_in[30] I
data_in[31] I
data_in[3] I
data_in[4] I
data_in[5] I
data_in[6] I
data_in[7] I
data_in[8] I
data_in[9] I
rst I

*D_NET *3 0.00142059
*CONN
*P acc[0] O
*I *899:X O *D sky130_fd_sc_hd__buf_2
*CAP
1 acc[0] 0.000576423
2 *899:X 0.000576423
3 acc[0] acc[28] 6.24871e-05
4 acc[0] *608:A 2.66935e-05
5 acc[0] *880:A 4.42044e-05
6 acc[0] *883:A 0.000134361
*RES
1 *899:X acc[0] 13.0068 
*END

*D_NET *4 0.00173197
*CONN
*P acc[10] O
*I *900:X O *D sky130_fd_sc_hd__buf_2
*CAP
1 acc[10] 0.000531638
2 *900:X 0.000531638
3 acc[10] *877:A 0
4 acc[10] *891:A 0.000348005
5 acc[10] *895:A 0.00032069
6 acc[10] *896:A 0
*RES
1 *900:X acc[10] 13.155 
*END

*D_NET *5 0.00287205
*CONN
*P acc[11] O
*I *901:X O *D sky130_fd_sc_hd__buf_2
*CAP
1 acc[11] 0.000752512
2 *901:X 0.000752512
3 acc[11] acc[8] 6.10013e-05
4 acc[11] *662:A 0.000122331
5 acc[11] *675:B1 2.49909e-05
6 acc[11] *676:B1 0.000284717
7 acc[11] *805:B1 2.8107e-05
8 acc[11] *806:A 0.000596228
9 acc[11] *806:B 6.98142e-05
10 acc[11] *829:D 9.50342e-06
11 acc[11] *887:A 0
12 acc[11] *929:A 8.65905e-05
13 acc[11] *364:35 8.37434e-05
*RES
1 *901:X acc[11] 24.73 
*END

*D_NET *6 0.000692184
*CONN
*P acc[12] O
*I *902:X O *D sky130_fd_sc_hd__buf_2
*CAP
1 acc[12] 0.000283354
2 *902:X 0.000283354
3 acc[12] acc[13] 6.35352e-05
4 acc[12] acc[17] 6.19406e-05
5 acc[12] *894:A 0
6 acc[12] *898:A 0
*RES
1 *902:X acc[12] 5.1381 
*END

*D_NET *7 0.00109362
*CONN
*P acc[13] O
*I *903:X O *D sky130_fd_sc_hd__buf_2
*CAP
1 acc[13] 0.000263723
2 *903:X 0.000263723
3 acc[13] acc[14] 0.000124007
4 acc[13] *854:A 0.000285056
5 acc[13] *894:A 6.35352e-05
6 acc[13] *903:A 3.00381e-05
7 acc[12] acc[13] 6.35352e-05
*RES
1 *903:X acc[13] 8.93023 
*END

*D_NET *8 0.00107708
*CONN
*P acc[14] O
*I *904:X O *D sky130_fd_sc_hd__buf_2
*CAP
1 acc[14] 0.000423362
2 *904:X 0.000423362
3 acc[14] *854:A 0
4 acc[14] *893:A 3.6993e-05
5 acc[14] *894:A 3.6993e-05
6 acc[14] *903:A 3.23663e-05
7 acc[13] acc[14] 0.000124007
*RES
1 *904:X acc[14] 9.64043 
*END

*D_NET *9 0.00111652
*CONN
*P acc[15] O
*I *905:X O *D sky130_fd_sc_hd__buf_2
*CAP
1 acc[15] 0.000296759
2 *905:X 0.000296759
3 acc[15] *895:A 0
4 acc[15] *896:A 0.000436927
5 acc[15] *178:14 8.60799e-05
*RES
1 *905:X acc[15] 10.185 
*END

*D_NET *10 0.000555805
*CONN
*P acc[16] O
*I *906:X O *D sky130_fd_sc_hd__buf_2
*CAP
1 acc[16] 0.000211016
2 *906:X 0.000211016
3 acc[16] *868:A 2.24901e-05
4 acc[16] *897:A 2.85068e-05
5 acc[16] *898:A 0
6 acc[16] *307:8 4.13879e-05
7 acc[16] *343:14 4.13879e-05
*RES
1 *906:X acc[16] 5.16003 
*END

*D_NET *11 0.000755259
*CONN
*P acc[17] O
*I *907:X O *D sky130_fd_sc_hd__buf_2
*CAP
1 acc[17] 0.000253364
2 *907:X 0.000253364
3 acc[17] *854:A 0.000104671
4 acc[17] *898:A 6.35352e-05
5 acc[17] *907:A 1.83847e-05
6 acc[12] acc[17] 6.19406e-05
*RES
1 *907:X acc[17] 6.89023 
*END

*D_NET *12 0.00160282
*CONN
*P acc[18] O
*I *908:X O *D sky130_fd_sc_hd__buf_2
*CAP
1 acc[18] 0.000573685
2 *908:X 0.000573685
3 acc[18] acc[19] 0.000213971
4 acc[18] acc[22] 0.000241483
*RES
1 *908:X acc[18] 11.4035 
*END

*D_NET *13 0.00150514
*CONN
*P acc[19] O
*I *909:X O *D sky130_fd_sc_hd__buf_2
*CAP
1 acc[19] 0.000404041
2 *909:X 0.000404041
3 acc[19] acc[21] 0
4 acc[19] acc[22] 0.000327377
5 acc[19] *721:A 0
6 acc[19] *721:B 0.000107415
7 acc[19] *909:A 4.82919e-05
8 acc[18] acc[19] 0.000213971
*RES
1 *909:X acc[19] 11.3902 
*END

*D_NET *14 0.000558674
*CONN
*P acc[1] O
*I *910:X O *D sky130_fd_sc_hd__buf_2
*CAP
1 acc[1] 0.000133392
2 *910:X 0.000133392
3 acc[1] acc[31] 7.98965e-05
4 acc[1] *866:A 7.98965e-05
5 acc[1] *879:A 6.48944e-05
6 acc[1] *227:10 6.72027e-05
*RES
1 *910:X acc[1] 5.35677 
*END

*D_NET *15 0.000626982
*CONN
*P acc[20] O
*I *911:X O *D sky130_fd_sc_hd__buf_2
*CAP
1 acc[20] 0.000257852
2 *911:X 0.000257852
3 acc[20] acc[21] 0
4 acc[20] *843:RESET_B 0
5 acc[20] *870:A 7.42846e-05
6 acc[20] *871:A 3.6993e-05
*RES
1 *911:X acc[20] 6.0935 
*END

*D_NET *16 0.000888572
*CONN
*P acc[21] O
*I *912:X O *D sky130_fd_sc_hd__buf_2
*CAP
1 acc[21] 0.000329839
2 *912:X 0.000329839
3 acc[21] acc[22] 3.6993e-05
4 acc[21] *871:A 3.45293e-05
5 acc[21] *912:A 0.000157372
6 acc[19] acc[21] 0
7 acc[20] acc[21] 0
*RES
1 *912:X acc[21] 7.96503 
*END

*D_NET *17 0.00113136
*CONN
*P acc[22] O
*I *913:X O *D sky130_fd_sc_hd__buf_2
*CAP
1 acc[22] 0.000262751
2 *913:X 0.000262751
3 acc[22] *912:A 0
4 acc[18] acc[22] 0.000241483
5 acc[19] acc[22] 0.000327377
6 acc[21] acc[22] 3.6993e-05
*RES
1 *913:X acc[22] 9.64043 
*END

*D_NET *18 0.000988956
*CONN
*P acc[23] O
*I *914:X O *D sky130_fd_sc_hd__buf_2
*CAP
1 acc[23] 0.000447224
2 *914:X 0.000447224
3 acc[23] *604:A 0
4 acc[23] *725:A 8.52845e-05
5 acc[23] *873:A 9.22294e-06
*RES
1 *914:X acc[23] 11.205 
*END

*D_NET *19 0.00147915
*CONN
*P acc[24] O
*I *915:X O *D sky130_fd_sc_hd__buf_2
*CAP
1 acc[24] 0.000593807
2 *915:X 0.000593807
3 acc[24] *621:A 7.00889e-06
4 acc[24] *746:A 0.000239813
5 acc[24] *874:A 0
6 acc[24] *876:A 0
7 acc[24] *316:33 4.47125e-05
*RES
1 *915:X acc[24] 13.275 
*END

*D_NET *20 0.00144136
*CONN
*P acc[25] O
*I *916:X O *D sky130_fd_sc_hd__buf_2
*CAP
1 acc[25] 0.000579711
2 *916:X 0.000579711
3 acc[25] *848:CLK 0.0001459
4 acc[25] *848:D 4.94404e-05
5 acc[25] *873:A 0
6 acc[25] *875:A 0
7 acc[25] *916:A 0
8 acc[25] *315:12 0
9 acc[25] *370:91 8.65961e-05
10 acc[25] *370:97 0
*RES
1 *916:X acc[25] 14.265 
*END

*D_NET *21 0.00235426
*CONN
*P acc[26] O
*I *917:X O *D sky130_fd_sc_hd__buf_2
*CAP
1 acc[26] 0.000917963
2 *917:X 0.000917963
3 acc[26] acc[27] 0
4 acc[26] *628:B1 4.43871e-06
5 acc[26] *748:A_N 0.000198046
6 acc[26] *849:RESET_B 0
7 acc[26] *878:A 0
8 acc[26] *917:A 0.000315847
9 acc[26] *228:14 0
*RES
1 *917:X acc[26] 17.73 
*END

*D_NET *22 0.00151247
*CONN
*P acc[27] O
*I *918:X O *D sky130_fd_sc_hd__buf_2
*CAP
1 acc[27] 0.000598472
2 *918:X 0.000598472
3 acc[27] *746:A 0.000315527
4 acc[27] *876:A 0
5 acc[26] acc[27] 0
*RES
1 *918:X acc[27] 13.275 
*END

*D_NET *23 0.00126368
*CONN
*P acc[28] O
*I *919:X O *D sky130_fd_sc_hd__buf_2
*CAP
1 acc[28] 0.00034299
2 *919:X 0.00034299
3 acc[28] acc[30] 5.08907e-05
4 acc[28] *608:A 5.05521e-05
5 acc[28] *746:B 9.37731e-05
6 acc[28] *849:RESET_B 1.34503e-05
7 acc[28] *883:A 0.000297235
8 acc[28] *899:A 9.3062e-06
9 acc[0] acc[28] 6.24871e-05
*RES
1 *919:X acc[28] 8.8235 
*END

*D_NET *24 0.000606534
*CONN
*P acc[29] O
*I *920:X O *D sky130_fd_sc_hd__buf_2
*CAP
1 acc[29] 0.000146859
2 *920:X 0.000146859
3 acc[29] *879:A 6.49954e-05
4 acc[29] *880:A 0.000176326
5 acc[29] *882:A 4.0356e-05
6 acc[29] *227:10 2.10433e-05
7 acc[29] *358:31 1.00941e-05
*RES
1 *920:X acc[29] 4.84677 
*END

*D_NET *25 0.000427224
*CONN
*P acc[2] O
*I *921:X O *D sky130_fd_sc_hd__buf_2
*CAP
1 acc[2] 0.000144008
2 *921:X 0.000144008
3 acc[2] acc[31] 0
4 acc[2] acc[3] 0
5 acc[2] *869:A 6.59989e-05
6 acc[2] *884:A 7.32103e-05
*RES
1 *921:X acc[2] 4.84677 
*END

*D_NET *26 0.00213539
*CONN
*P acc[30] O
*I *922:X O *D sky130_fd_sc_hd__buf_2
*CAP
1 acc[30] 0.000456782
2 *922:X 0.000456782
3 acc[30] *880:A 0.000406636
4 acc[30] *882:A 5.08907e-05
5 acc[30] *883:A 0.00032086
6 acc[30] *358:31 0.000392547
7 acc[28] acc[30] 5.08907e-05
*RES
1 *922:X acc[30] 13.972 
*END

*D_NET *27 0.000481227
*CONN
*P acc[31] O
*I *923:X O *D sky130_fd_sc_hd__buf_2
*CAP
1 acc[31] 0.000149778
2 *923:X 0.000149778
3 acc[31] *869:A 5.9961e-05
4 acc[31] *879:A 4.18147e-05
5 acc[31] *371:51 0
6 acc[1] acc[31] 7.98965e-05
7 acc[2] acc[31] 0
*RES
1 *923:X acc[31] 5.10177 
*END

*D_NET *28 0.00109725
*CONN
*P acc[3] O
*I *924:X O *D sky130_fd_sc_hd__buf_2
*CAP
1 acc[3] 0.000180684
2 *924:X 0.000180684
3 acc[3] *651:B 0.000179682
4 acc[3] *881:A 4.72623e-05
5 acc[3] *884:A 7.56675e-05
6 acc[3] *886:A 0.000403875
7 acc[3] *924:A 1.00941e-05
8 acc[3] *324:14 1.92979e-05
9 acc[2] acc[3] 0
*RES
1 *924:X acc[3] 5.25463 
*END

*D_NET *29 0.003211
*CONN
*P acc[4] O
*I *925:X O *D sky130_fd_sc_hd__buf_2
*CAP
1 acc[4] 0.000857501
2 *925:X 0.000857501
3 acc[4] acc[6] 8.57024e-05
4 acc[4] acc[7] 0.00067101
5 acc[4] *669:B 0.000118081
6 acc[4] *800:C 2.203e-05
7 acc[4] *802:A2 7.00889e-06
8 acc[4] *805:B1 4.82863e-05
9 acc[4] *885:A 0.000528644
10 acc[4] *925:A 1.52352e-05
*RES
1 *925:X acc[4] 20.767 
*END

*D_NET *30 0.000764977
*CONN
*P acc[5] O
*I *926:X O *D sky130_fd_sc_hd__buf_2
*CAP
1 acc[5] 0.000263153
2 *926:X 0.000263153
3 acc[5] *885:A 0
4 acc[5] *886:A 5.3873e-05
5 acc[5] *889:A 8.85332e-05
6 acc[5] *926:A 5.51815e-05
7 acc[5] *927:A 4.10827e-05
*RES
1 *926:X acc[5] 5.9833 
*END

*D_NET *31 0.00238974
*CONN
*P acc[6] O
*I *927:X O *D sky130_fd_sc_hd__buf_2
*CAP
1 acc[6] 0.000809946
2 *927:X 0.000809946
3 acc[6] acc[9] 0
4 acc[6] *664:B 5.06331e-06
5 acc[6] *675:A1 1.92979e-05
6 acc[6] *805:B1 0.000514815
7 acc[6] *901:A 0
8 acc[6] *927:A 0
9 acc[6] *928:A 0
10 acc[6] *150:35 8.28073e-05
11 acc[6] *364:27 6.21583e-05
12 acc[6] *365:10 0
13 acc[4] acc[6] 8.57024e-05
*RES
1 *927:X acc[6] 18.345 
*END

*D_NET *32 0.00320623
*CONN
*P acc[7] O
*I *928:X O *D sky130_fd_sc_hd__buf_2
*CAP
1 acc[7] 0.000605608
2 *928:X 0.000605608
3 acc[7] *667:B 0.000309132
4 acc[7] *668:A 0.000192125
5 acc[7] *670:B 1.47347e-05
6 acc[7] *885:A 0.000263437
7 acc[7] *886:A 0.000306639
8 acc[7] *889:A 6.05593e-05
9 acc[7] *926:A 0.000120818
10 acc[7] *927:A 0
11 acc[7] *363:21 5.65627e-05
12 acc[4] acc[7] 0.00067101
*RES
1 *928:X acc[7] 18.9052 
*END

*D_NET *33 0.00206024
*CONN
*P acc[8] O
*I *929:X O *D sky130_fd_sc_hd__buf_2
*CAP
1 acc[8] 0.000871331
2 *929:X 0.000871331
3 acc[8] *662:A 1.61831e-05
4 acc[8] *662:B 8.88799e-05
5 acc[8] *806:A 0
6 acc[8] *833:RESET_B 7.87426e-05
7 acc[8] *890:A 0
8 acc[8] *901:A 2.66935e-05
9 acc[8] *929:A 3.1835e-05
10 acc[8] *327:10 0
11 acc[8] *327:16 0
12 acc[8] *335:6 1.42449e-05
13 acc[11] acc[8] 6.10013e-05
*RES
1 *929:X acc[8] 16.635 
*END

*D_NET *34 0.00507399
*CONN
*P acc[9] O
*I *930:X O *D sky130_fd_sc_hd__buf_2
*CAP
1 acc[9] 0.00213129
2 *930:X 0.00213129
3 acc[9] *665:A 0
4 acc[9] *669:B 0.000334005
5 acc[9] *670:A 5.83121e-06
6 acc[9] *798:A 8.65961e-05
7 acc[9] *815:A 0.000152662
8 acc[9] *826:D 8.7152e-06
9 acc[9] *881:A 0.000182125
10 acc[9] *886:A 9.99319e-06
11 acc[9] *887:A 0
12 acc[9] *930:A 1.81592e-05
13 acc[9] *324:14 1.33293e-05
14 acc[9] *327:16 0
15 acc[6] acc[9] 0
*RES
1 *930:X acc[9] 13.9827 
*END

*D_NET *35 0.00744278
*CONN
*P clk I
*I *854:A I *D sky130_fd_sc_hd__clkbuf_16
*CAP
1 clk 0.00247877
2 *854:A 0.00247877
3 *854:A *599:A 7.05373e-05
4 *854:A *701:A 0
5 *854:A *702:A 4.82919e-05
6 *854:A *702:B 4.82919e-05
7 *854:A *703:B 0.000140912
8 *854:A *706:B 4.82919e-05
9 *854:A *708:A 6.01793e-05
10 *854:A *708:B 4.99619e-05
11 *854:A *713:A 4.66108e-05
12 *854:A *713:B 1.4389e-05
13 *854:A *713:C 0.000144666
14 *854:A *776:A 4.82863e-05
15 *854:A *839:D 2.39856e-05
16 *854:A *840:RESET_B 5.13737e-05
17 *854:A *892:A 0.000538994
18 *854:A *897:A 0
19 *854:A *903:A 0.000163086
20 *854:A *907:A 0.000256304
21 *854:A *253:8 0
22 *854:A *337:8 0.000133763
23 *854:A *342:23 0.000132412
24 *854:A *343:14 2.14129e-05
25 *854:A *374:12 5.37577e-05
26 acc[13] *854:A 0.000285056
27 acc[14] *854:A 0
28 acc[17] *854:A 0.000104671
*RES
1 clk *854:A 48.3035 
*END

*D_NET *36 0.00161144
*CONN
*P data_in[0] I
*I *866:A I *D sky130_fd_sc_hd__clkbuf_1
*CAP
1 data_in[0] 0.000351536
2 *866:A 0.000351536
3 *866:A *741:B 0.000237902
4 *866:A *754:B 0.000216657
5 *866:A *879:A 7.32103e-05
6 *866:A *923:A 0.000162311
7 *866:A *227:10 2.94504e-05
8 *866:A *371:66 0.000108939
9 acc[1] *866:A 7.98965e-05
*RES
1 data_in[0] *866:A 9.86657 
*END

*D_NET *37 0.00490888
*CONN
*P data_in[10] I
*I *877:A I *D sky130_fd_sc_hd__clkbuf_1
*CAP
1 data_in[10] 0.00195415
2 *877:A 0.00195415
3 *877:A *681:B 0.000210405
4 *877:A *891:A 0
5 *877:A *125:10 0.000169556
6 *877:A *339:22 0.000620619
7 acc[10] *877:A 0
*RES
1 data_in[10] *877:A 13.2651 
*END

*D_NET *38 0.0017827
*CONN
*P data_in[11] I
*I *888:A I *D sky130_fd_sc_hd__clkbuf_1
*CAP
1 data_in[11] 0.00053147
2 *888:A 0.00053147
3 *888:A *634:A 5.83121e-06
4 *888:A *634:B 8.9362e-05
5 *888:A *636:A 4.84393e-05
6 *888:A *833:CLK 1.26626e-05
7 *888:A *833:D 0.000127045
8 *888:A *890:A 0
9 *888:A *891:A 0
10 *888:A *124:21 3.03775e-05
11 *888:A *303:22 0.000159796
12 *888:A *328:19 4.41506e-05
13 *888:A *335:25 0.000202095
*RES
1 data_in[11] *888:A 15.33 
*END

*D_NET *39 0.0046285
*CONN
*P data_in[12] I
*I *893:A I *D sky130_fd_sc_hd__buf_1
*CAP
1 data_in[12] 0.00192289
2 *893:A 0.00192289
3 *893:A *637:B 0
4 *893:A *638:B 0.000113797
5 *893:A *680:B1 0
6 *893:A *687:B 7.66738e-05
7 *893:A *795:A 0
8 *893:A *795:B 8.40269e-05
9 *893:A *892:A 7.98901e-05
10 *893:A *894:A 0
11 *893:A *900:A 6.28008e-05
12 *893:A *332:20 0.000215152
13 *893:A *339:22 9.42336e-05
14 *893:A *368:37 0
15 *893:A *368:56 1.91597e-05
16 acc[14] *893:A 3.6993e-05
*RES
1 data_in[12] *893:A 11.2655 
*END

*D_NET *40 0.00436167
*CONN
*P data_in[13] I
*I *894:A I *D sky130_fd_sc_hd__clkbuf_1
*CAP
1 data_in[13] 0.00141919
2 *894:A 0.00141919
3 *894:A *639:A 2.68721e-05
4 *894:A *687:B 0.000216797
5 *894:A *688:B 0.000239581
6 *894:A *125:10 0.000152503
7 *894:A *169:21 0.000260585
8 *894:A *173:27 0.000280627
9 *894:A *257:8 0.000106344
10 *894:A *332:20 0.00013388
11 *894:A *339:22 5.56205e-06
12 acc[12] *894:A 0
13 acc[13] *894:A 6.35352e-05
14 acc[14] *894:A 3.6993e-05
15 *893:A *894:A 0
*RES
1 data_in[13] *894:A 8.99877 
*END

*D_NET *41 0.00439166
*CONN
*P data_in[14] I
*I *895:A I *D sky130_fd_sc_hd__clkbuf_1
*CAP
1 data_in[14] 0.00139953
2 *895:A 0.00139953
3 *895:A *680:C1 0.000114196
4 *895:A *684:A 0
5 *895:A *698:B2 0
6 *895:A *794:B1_N 0.000114792
7 *895:A *832:RESET_B 0
8 *895:A *836:RESET_B 0.000252884
9 *895:A *859:A 4.89295e-05
10 *895:A *896:A 3.76491e-05
11 *895:A *125:10 9.15412e-05
12 *895:A *125:18 0.000191771
13 *895:A *340:50 0
14 *895:A *350:12 0.000420149
15 *895:A *372:27 0
16 acc[10] *895:A 0.00032069
17 acc[15] *895:A 0
*RES
1 data_in[14] *895:A 34.66 
*END

*D_NET *42 0.00217302
*CONN
*P data_in[15] I
*I *896:A I *D sky130_fd_sc_hd__buf_1
*CAP
1 data_in[15] 0.000563568
2 *896:A 0.000563568
3 *896:A *685:A 0
4 *896:A *691:A 0.000331126
5 *896:A *786:A1 5.80941e-05
6 *896:A *836:RESET_B 0
7 *896:A *905:A 0
8 *896:A *178:14 0
9 *896:A *302:34 0.000182082
10 acc[10] *896:A 0
11 acc[15] *896:A 0.000436927
12 *895:A *896:A 3.76491e-05
*RES
1 data_in[15] *896:A 20.95 
*END

*D_NET *43 0.000881912
*CONN
*P data_in[16] I
*I *897:A I *D sky130_fd_sc_hd__buf_1
*CAP
1 data_in[16] 0.000388604
2 *897:A 0.000388604
3 *897:A *714:A1 0
4 *897:A *898:A 2.24901e-05
5 *897:A *190:10 4.82919e-05
6 *897:A *341:14 0
7 *897:A *373:8 5.4155e-06
8 acc[16] *897:A 2.85068e-05
9 *854:A *897:A 0
*RES
1 data_in[16] *897:A 8.9943 
*END

*D_NET *44 0.00299166
*CONN
*P data_in[17] I
*I *898:A I *D sky130_fd_sc_hd__buf_1
*CAP
1 data_in[17] 0.0013788
2 *898:A 0.0013788
3 *898:A *709:A 0
4 *898:A *710:B 0
5 *898:A *776:A 0
6 *898:A *197:12 0.000148043
7 *898:A *198:16 0
8 *898:A *339:26 0
9 acc[12] *898:A 0
10 acc[16] *898:A 0
11 acc[17] *898:A 6.35352e-05
12 *897:A *898:A 2.24901e-05
*RES
1 data_in[17] *898:A 10.0482 
*END

*D_NET *45 0.000575542
*CONN
*P data_in[18] I
*I *867:A I *D sky130_fd_sc_hd__buf_1
*CAP
1 data_in[18] 0.000260498
2 *867:A 0.000260498
3 *867:A *868:A 3.30292e-05
4 *867:A *870:A 2.15176e-05
*RES
1 data_in[18] *867:A 7.0893 
*END

*D_NET *46 0.00057269
*CONN
*P data_in[19] I
*I *868:A I *D sky130_fd_sc_hd__buf_1
*CAP
1 data_in[19] 0.000258586
2 *868:A 0.000258586
3 acc[16] *868:A 2.24901e-05
4 *867:A *868:A 3.30292e-05
*RES
1 data_in[19] *868:A 7.0893 
*END

*D_NET *47 0.000734802
*CONN
*P data_in[1] I
*I *869:A I *D sky130_fd_sc_hd__clkbuf_1
*CAP
1 data_in[1] 0.000258285
2 *869:A 0.000258285
3 *869:A *814:A 0
4 *869:A *319:16 9.22715e-05
5 acc[2] *869:A 6.59989e-05
6 acc[31] *869:A 5.9961e-05
*RES
1 data_in[1] *869:A 7.43023 
*END

*D_NET *48 0.000805919
*CONN
*P data_in[20] I
*I *870:A I *D sky130_fd_sc_hd__clkbuf_1
*CAP
1 data_in[20] 0.000330505
2 *870:A 0.000330505
3 *870:A *911:A 4.91067e-05
4 acc[20] *870:A 7.42846e-05
5 *867:A *870:A 2.15176e-05
*RES
1 data_in[20] *870:A 9.14543 
*END

*D_NET *49 0.00139395
*CONN
*P data_in[21] I
*I *871:A I *D sky130_fd_sc_hd__clkbuf_1
*CAP
1 data_in[21] 0.000528815
2 *871:A 0.000528815
3 *871:A *769:B 0.000239807
4 *871:A *912:A 0
5 *871:A *347:10 0
6 *871:A *370:62 2.49909e-05
7 acc[20] *871:A 3.6993e-05
8 acc[21] *871:A 3.45293e-05
*RES
1 data_in[21] *871:A 12.4304 
*END

*D_NET *50 0.00138045
*CONN
*P data_in[22] I
*I *872:A I *D sky130_fd_sc_hd__clkbuf_1
*CAP
1 data_in[22] 0.00057075
2 *872:A 0.00057075
3 *872:A *720:A 1.70935e-05
4 *872:A *721:A 6.91111e-05
5 *872:A *722:A 4.66108e-05
6 *872:A *722:B 7.00889e-06
7 *872:A *209:10 8.34281e-06
8 *872:A *312:6 9.07793e-05
*RES
1 data_in[22] *872:A 14.25 
*END

*D_NET *51 0.00148091
*CONN
*P data_in[23] I
*I *873:A I *D sky130_fd_sc_hd__clkbuf_1
*CAP
1 data_in[23] 0.000625808
2 *873:A 0.000625808
3 *873:A *604:A 0
4 *873:A *723:A 4.94474e-05
5 *873:A *723:B 4.65496e-06
6 *873:A *725:A 9.28507e-05
7 *873:A *735:A 5.23362e-05
8 *873:A *313:6 2.07836e-05
9 *873:A *349:21 0
10 acc[23] *873:A 9.22294e-06
11 acc[25] *873:A 0
*RES
1 data_in[23] *873:A 16.035 
*END

*D_NET *52 0.00150096
*CONN
*P data_in[24] I
*I *874:A I *D sky130_fd_sc_hd__clkbuf_1
*CAP
1 data_in[24] 0.000571858
2 *874:A 0.000571858
3 *874:A *621:A 0.000152563
4 *874:A *623:A 7.86219e-05
5 *874:A *623:B 7.23533e-05
6 *874:A *746:A 0
7 *874:A *762:A 1.62913e-05
8 *874:A *848:RESET_B 0
9 *874:A *875:A 0
10 *874:A *110:6 3.74161e-05
11 *874:A *370:91 0
12 acc[24] *874:A 0
*RES
1 data_in[24] *874:A 14.655 
*END

*D_NET *53 0.00176321
*CONN
*P data_in[25] I
*I *875:A I *D sky130_fd_sc_hd__clkbuf_1
*CAP
1 data_in[25] 0.000795194
2 *875:A 0.000795194
3 *875:A *723:A 0
4 *875:A *848:RESET_B 3.09233e-05
5 *875:A *370:97 0.000141897
6 acc[25] *875:A 0
7 *874:A *875:A 0
*RES
1 data_in[25] *875:A 16.065 
*END

*D_NET *54 0.00333207
*CONN
*P data_in[26] I
*I *876:A I *D sky130_fd_sc_hd__buf_1
*CAP
1 data_in[26] 0.00100033
2 *876:A 0.00100033
3 *876:A *608:A 0.000568632
4 *876:A *742:A 0.000250567
5 *876:A *742:B 0.000476404
6 *876:A *753:A2 2.8531e-05
7 *876:A *878:A 0
8 *876:A *919:A 7.27402e-06
9 acc[24] *876:A 0
10 acc[27] *876:A 0
*RES
1 data_in[26] *876:A 29.875 
*END

*D_NET *55 0.00390115
*CONN
*P data_in[27] I
*I *878:A I *D sky130_fd_sc_hd__buf_1
*CAP
1 data_in[27] 0.00111996
2 *878:A 0.00111996
3 *878:A *624:B 0
4 *878:A *628:B1 0
5 *878:A *629:A 0.000148477
6 *878:A *630:A2 7.22649e-05
7 *878:A *749:A2 5.75488e-05
8 *878:A *763:A 9.26907e-06
9 *878:A *763:C 6.36578e-05
10 *878:A *849:CLK 0.00038671
11 *878:A *882:A 0.000445259
12 *878:A *883:A 0.000472222
13 *878:A *318:12 5.83121e-06
14 acc[26] *878:A 0
15 *876:A *878:A 0
*RES
1 data_in[27] *878:A 20.5818 
*END

*D_NET *56 0.00182726
*CONN
*P data_in[28] I
*I *879:A I *D sky130_fd_sc_hd__clkbuf_1
*CAP
1 data_in[28] 0.00053269
2 *879:A 0.00053269
3 *879:A *654:A 0
4 *879:A *851:RESET_B 0.000234914
5 *879:A *923:A 5.42217e-05
6 *879:A *227:10 0.00012503
7 *879:A *358:31 0.000102798
8 *879:A *371:51 0
9 acc[1] *879:A 6.48944e-05
10 acc[29] *879:A 6.49954e-05
11 acc[31] *879:A 4.18147e-05
12 *866:A *879:A 7.32103e-05
*RES
1 data_in[28] *879:A 13.9685 
*END

*D_NET *57 0.00467528
*CONN
*P data_in[29] I
*I *880:A I *D sky130_fd_sc_hd__clkbuf_1
*CAP
1 data_in[29] 0.00137123
2 *880:A 0.00137123
3 *880:A *743:A_N 2.05571e-05
4 *880:A *753:A1 0.000103069
5 *880:A *754:A 0.000139371
6 *880:A *849:CLK 1.88602e-05
7 *880:A *882:A 2.00119e-05
8 *880:A *883:A 0.00100378
9 acc[0] *880:A 4.42044e-05
10 acc[29] *880:A 0.000176326
11 acc[30] *880:A 0.000406636
*RES
1 data_in[29] *880:A 20.036 
*END

*D_NET *58 0.00324078
*CONN
*P data_in[2] I
*I *881:A I *D sky130_fd_sc_hd__clkbuf_1
*CAP
1 data_in[2] 0.00105582
2 *881:A 0.00105582
3 *881:A *674:B1 1.80792e-05
4 *881:A *797:A 0.000250681
5 *881:A *804:A 0
6 *881:A *804:B 0
7 *881:A *815:A 0.000133715
8 *881:A *824:CLK 1.56428e-05
9 *881:A *824:RESET_B 0
10 *881:A *885:A 6.72455e-05
11 *881:A *886:A 0.000126355
12 *881:A *138:16 0.000237666
13 *881:A *148:14 2.69217e-05
14 *881:A *159:29 2.53191e-06
15 *881:A *324:35 2.09163e-05
16 acc[3] *881:A 4.72623e-05
17 acc[9] *881:A 0.000182125
*RES
1 data_in[2] *881:A 11.1571 
*END

*D_NET *59 0.0036432
*CONN
*P data_in[30] I
*I *882:A I *D sky130_fd_sc_hd__clkbuf_1
*CAP
1 data_in[30] 0.00118442
2 *882:A 0.00118442
3 *882:A *746:A 1.82373e-05
4 *882:A *883:A 0.000614035
5 *882:A *899:A 4.55426e-05
6 *882:A *915:A 4.00257e-05
7 acc[29] *882:A 4.0356e-05
8 acc[30] *882:A 5.08907e-05
9 *878:A *882:A 0.000445259
10 *880:A *882:A 2.00119e-05
*RES
1 data_in[30] *882:A 7.37417 
*END

*D_NET *60 0.00567744
*CONN
*P data_in[31] I
*I *883:A I *D sky130_fd_sc_hd__clkbuf_1
*CAP
1 data_in[31] 0.00110593
2 *883:A 0.00110593
3 *883:A *630:A2 3.09522e-05
4 *883:A *743:A_N 9.93012e-06
5 *883:A *743:B 0.000110778
6 *883:A *746:A 4.92861e-05
7 *883:A *746:B 0.00011704
8 *883:A *747:A 2.05641e-05
9 *883:A *754:A 8.40213e-05
10 *883:A *764:B 9.02174e-05
11 *883:A *915:A 2.41099e-05
12 *883:A *358:31 8.61961e-05
13 acc[0] *883:A 0.000134361
14 acc[28] *883:A 0.000297235
15 acc[30] *883:A 0.00032086
16 *878:A *883:A 0.000472222
17 *880:A *883:A 0.00100378
18 *882:A *883:A 0.000614035
*RES
1 data_in[31] *883:A 18.9854 
*END

*D_NET *61 0.000924534
*CONN
*P data_in[3] I
*I *884:A I *D sky130_fd_sc_hd__clkbuf_2
*CAP
1 data_in[3] 0.000363682
2 *884:A 0.000363682
3 *884:A *652:A 0
4 *884:A *921:A 4.82919e-05
5 acc[2] *884:A 7.32103e-05
6 acc[3] *884:A 7.56675e-05
*RES
1 data_in[3] *884:A 8.6585 
*END

*D_NET *62 0.00215938
*CONN
*P data_in[4] I
*I *885:A I *D sky130_fd_sc_hd__clkbuf_1
*CAP
1 data_in[4] 0.000371269
2 *885:A 0.000371269
3 *885:A *667:B 0.000221198
4 *885:A *886:A 5.3873e-05
5 *885:A *925:A 0.000145303
6 *885:A *927:A 4.66108e-05
7 *885:A *154:18 0
8 *885:A *325:10 3.65279e-05
9 *885:A *363:21 5.4003e-05
10 acc[4] *885:A 0.000528644
11 acc[5] *885:A 0
12 acc[7] *885:A 0.000263437
13 *881:A *885:A 6.72455e-05
*RES
1 data_in[4] *885:A 12.8885 
*END

*D_NET *63 0.00307549
*CONN
*P data_in[5] I
*I *886:A I *D sky130_fd_sc_hd__clkbuf_1
*CAP
1 data_in[5] 0.000761862
2 *886:A 0.000761862
3 *886:A *651:B 3.55278e-05
4 *886:A *667:B 7.21296e-06
5 *886:A *669:B 0.000224969
6 *886:A *670:A 0
7 *886:A *670:B 7.45446e-05
8 *886:A *797:B 9.82856e-06
9 *886:A *798:B 0.000108527
10 *886:A *815:A 0.000114731
11 *886:A *324:14 0
12 *886:A *324:35 2.18128e-05
13 *886:A *325:10 0
14 acc[3] *886:A 0.000403875
15 acc[5] *886:A 5.3873e-05
16 acc[7] *886:A 0.000306639
17 acc[9] *886:A 9.99319e-06
18 *881:A *886:A 0.000126355
19 *885:A *886:A 5.3873e-05
*RES
1 data_in[5] *886:A 15.2188 
*END

*D_NET *64 0.00349988
*CONN
*P data_in[6] I
*I *887:A I *D sky130_fd_sc_hd__buf_1
*CAP
1 data_in[6] 0.00111364
2 *887:A 0.00111364
3 *887:A *636:A 4.00949e-05
4 *887:A *666:B 0
5 *887:A *676:B1 3.11975e-05
6 *887:A *806:A 0
7 *887:A *828:RESET_B 0
8 *887:A *829:D 0
9 *887:A *889:A 0.000661559
10 *887:A *890:A 1.16465e-05
11 *887:A *929:A 2.35651e-05
12 *887:A *149:8 0.000121885
13 *887:A *151:14 0.000130241
14 *887:A *303:22 2.42236e-05
15 *887:A *328:19 0.000116853
16 *887:A *330:12 0
17 *887:A *332:20 0.000111325
18 acc[11] *887:A 0
19 acc[9] *887:A 0
*RES
1 data_in[6] *887:A 17.1347 
*END

*D_NET *65 0.00563901
*CONN
*P data_in[7] I
*I *889:A I *D sky130_fd_sc_hd__clkbuf_1
*CAP
1 data_in[7] 0.00158496
2 *889:A 0.00158496
3 *889:A *643:A 3.18367e-05
4 *889:A *645:A 0.000122325
5 *889:A *666:B 0
6 *889:A *805:A1 3.15377e-05
7 *889:A *806:B 0.000359012
8 *889:A *831:CLK 4.66108e-05
9 *889:A *831:D 8.94334e-05
10 *889:A *833:RESET_B 0.000189024
11 *889:A *890:A 0
12 *889:A *150:35 0
13 *889:A *327:16 0.000280873
14 *889:A *329:10 0.000199541
15 *889:A *330:12 0.000133168
16 *889:A *368:77 0.000175086
17 acc[5] *889:A 8.85332e-05
18 acc[7] *889:A 6.05593e-05
19 *887:A *889:A 0.000661559
*RES
1 data_in[7] *889:A 16.6638 
*END

*D_NET *66 0.00127458
*CONN
*P data_in[8] I
*I *890:A I *D sky130_fd_sc_hd__clkbuf_1
*CAP
1 data_in[8] 0.000558597
2 *890:A 0.000558597
3 *890:A *636:A 0
4 *890:A *833:CLK 0
5 *890:A *833:RESET_B 0
6 *890:A *303:37 0.000123225
7 *890:A *330:12 2.25179e-05
8 *890:A *335:25 0
9 acc[8] *890:A 0
10 *887:A *890:A 1.16465e-05
11 *888:A *890:A 0
12 *889:A *890:A 0
*RES
1 data_in[8] *890:A 13.335 
*END

*D_NET *67 0.00186128
*CONN
*P data_in[9] I
*I *891:A I *D sky130_fd_sc_hd__clkbuf_1
*CAP
1 data_in[9] 0.000651764
2 *891:A 0.000651764
3 *891:A *637:B 2.65814e-06
4 *891:A *687:A 4.00541e-06
5 *891:A *794:A1 8.77498e-05
6 *891:A *795:B 1.22608e-05
7 *891:A *900:A 4.99619e-05
8 *891:A *331:22 5.31093e-05
9 acc[10] *891:A 0.000348005
10 *877:A *891:A 0
11 *888:A *891:A 0
*RES
1 data_in[9] *891:A 15.975 
*END

*D_NET *68 0.00130996
*CONN
*P rst I
*I *892:A I *D sky130_fd_sc_hd__dlymetal6s2s_1
*CAP
1 rst 0.000314387
2 *892:A 0.000314387
3 *892:A *785:A 0
4 *892:A *785:B 0
5 *892:A *836:CLK 0
6 *892:A *836:D 6.23011e-05
7 *854:A *892:A 0.000538994
8 *893:A *892:A 7.98901e-05
*RES
1 rst *892:A 9.94677 
*END

*D_NET *69 0.000341444
*CONN
*I *822:RESET_B I *D sky130_fd_sc_hd__dfrtp_1
*I *613:Y O *D sky130_fd_sc_hd__inv_2
*CAP
1 *822:RESET_B 0.000134426
2 *613:Y 0.000134426
3 *822:RESET_B *333:6 5.30673e-05
4 *822:RESET_B *333:31 1.95248e-05
*RES
1 *613:Y *822:RESET_B 3.7225 
*END

*D_NET *70 0.000501235
*CONN
*I *823:RESET_B I *D sky130_fd_sc_hd__dfrtp_1
*I *814:Y O *D sky130_fd_sc_hd__inv_2
*CAP
1 *823:RESET_B 0.000105709
2 *814:Y 0.000105709
3 *823:RESET_B *652:A 0.000162311
4 *823:RESET_B *654:A 3.09233e-05
5 *823:RESET_B *309:8 4.82919e-05
6 *823:RESET_B *319:16 4.82919e-05
*RES
1 *814:Y *823:RESET_B 8.195 
*END

*D_NET *71 0.00015498
*CONN
*I *824:RESET_B I *D sky130_fd_sc_hd__dfrtp_1
*I *815:Y O *D sky130_fd_sc_hd__inv_2
*CAP
1 *824:RESET_B 7.52707e-05
2 *815:Y 7.52707e-05
3 *824:RESET_B *798:B 4.43871e-06
4 *824:RESET_B *138:16 0
5 *824:RESET_B *324:14 0
6 *881:A *824:RESET_B 0
*RES
1 *815:Y *824:RESET_B 6.725 
*END

*D_NET *72 0.00031753
*CONN
*I *825:RESET_B I *D sky130_fd_sc_hd__dfrtp_4
*I *816:Y O *D sky130_fd_sc_hd__inv_2
*CAP
1 *825:RESET_B 9.81891e-05
2 *816:Y 9.81891e-05
3 *825:RESET_B *825:D 0
4 *825:RESET_B *301:12 0.000121152
*RES
1 *816:Y *825:RESET_B 8 
*END

*D_NET *73 0.00326523
*CONN
*I *826:RESET_B I *D sky130_fd_sc_hd__dfrtp_1
*I *817:Y O *D sky130_fd_sc_hd__inv_2
*CAP
1 *826:RESET_B 0.000707326
2 *817:Y 0.000707326
3 *826:RESET_B *651:A 2.75145e-05
4 *826:RESET_B *660:A 1.33293e-05
5 *826:RESET_B *665:B 0.000526663
6 *826:RESET_B *673:C 0.000169729
7 *826:RESET_B *674:C1 0.000293719
8 *826:RESET_B *677:A3 3.83194e-05
9 *826:RESET_B *804:B 0.000102836
10 *826:RESET_B *826:CLK 0.000309312
11 *826:RESET_B *826:D 0.000109389
12 *826:RESET_B *827:D 4.66108e-05
13 *826:RESET_B *360:20 0.000119756
14 *826:RESET_B *360:30 9.33998e-05
*RES
1 *817:Y *826:RESET_B 21.5075 
*END

*D_NET *74 0.00498065
*CONN
*I *827:RESET_B I *D sky130_fd_sc_hd__dfrtp_1
*I *818:Y O *D sky130_fd_sc_hd__inv_2
*CAP
1 *827:RESET_B 0.00115593
2 *818:Y 0.00115593
3 *827:RESET_B *667:B 9.96764e-05
4 *827:RESET_B *668:A 1.09302e-05
5 *827:RESET_B *669:B 3.79555e-05
6 *827:RESET_B *672:A 0.000199209
7 *827:RESET_B *799:B1 0.000272978
8 *827:RESET_B *802:A2 2.54431e-05
9 *827:RESET_B *818:A 0.000380194
10 *827:RESET_B *826:D 0
11 *827:RESET_B *855:A 1.17409e-05
12 *827:RESET_B *925:A 9.14049e-05
13 *827:RESET_B *927:A 0.000201012
14 *827:RESET_B *928:A 4.00472e-05
15 *827:RESET_B *154:12 1.9415e-05
16 *827:RESET_B *157:14 0.000369515
17 *827:RESET_B *157:20 0.000275553
18 *827:RESET_B *303:8 0.000256392
19 *827:RESET_B *326:14 4.77719e-05
20 *827:RESET_B *362:27 0.000294858
21 *827:RESET_B *365:10 3.46842e-05
*RES
1 *818:Y *827:RESET_B 29.195 
*END

*D_NET *75 0.000332099
*CONN
*I *828:RESET_B I *D sky130_fd_sc_hd__dfrtp_1
*I *819:Y O *D sky130_fd_sc_hd__inv_2
*CAP
1 *828:RESET_B 9.54754e-05
2 *819:Y 9.54754e-05
3 *828:RESET_B *303:37 4.57018e-05
4 *828:RESET_B *330:12 9.54469e-05
5 *887:A *828:RESET_B 0
*RES
1 *819:Y *828:RESET_B 7.4675 
*END

*D_NET *76 0.00246425
*CONN
*I *829:RESET_B I *D sky130_fd_sc_hd__dfrtp_1
*I *820:Y O *D sky130_fd_sc_hd__inv_2
*CAP
1 *829:RESET_B 0.000472466
2 *820:Y 0.000472466
3 *829:RESET_B *663:A 0.000417808
4 *829:RESET_B *677:A1 4.66108e-05
5 *829:RESET_B *828:D 0.000433433
6 *829:RESET_B *829:CLK 2.75229e-05
7 *829:RESET_B *829:D 0.000112855
8 *829:RESET_B *863:A 3.72952e-05
9 *829:RESET_B *929:A 7.97491e-05
10 *829:RESET_B *153:10 0.000137563
11 *829:RESET_B *153:21 0.000106648
12 *829:RESET_B *156:14 4.25379e-05
13 *829:RESET_B *303:37 5.05437e-05
14 *829:RESET_B *364:27 2.67503e-05
*RES
1 *820:Y *829:RESET_B 17.1725 
*END

*D_NET *77 0.000154572
*CONN
*I *830:RESET_B I *D sky130_fd_sc_hd__dfrtp_1
*I *821:Y O *D sky130_fd_sc_hd__inv_2
*CAP
1 *830:RESET_B 7.7286e-05
2 *821:Y 7.7286e-05
3 *830:RESET_B *825:CLK 0
4 *830:RESET_B *303:73 0
5 *830:RESET_B *369:66 0
*RES
1 *821:Y *830:RESET_B 6.725 
*END

*D_NET *78 0.000353335
*CONN
*I *831:RESET_B I *D sky130_fd_sc_hd__dfrtp_1
*I *590:Y O *D sky130_fd_sc_hd__inv_2
*CAP
1 *831:RESET_B 5.31365e-05
2 *590:Y 5.31365e-05
3 *831:RESET_B *368:77 0.000160162
4 *831:RESET_B *369:23 8.69005e-05
*RES
1 *590:Y *831:RESET_B 7.49 
*END

*D_NET *79 0.000310681
*CONN
*I *832:RESET_B I *D sky130_fd_sc_hd__dfrtp_1
*I *591:Y O *D sky130_fd_sc_hd__inv_2
*CAP
1 *832:RESET_B 8.54138e-05
2 *591:Y 8.54138e-05
3 *832:RESET_B *591:A 1.31227e-05
4 *832:RESET_B *691:B 4.46271e-05
5 *832:RESET_B *837:RESET_B 7.06865e-05
6 *832:RESET_B *340:50 1.14169e-05
7 *895:A *832:RESET_B 0
*RES
1 *591:Y *832:RESET_B 7.175 
*END

*D_NET *80 0.000836355
*CONN
*I *833:RESET_B I *D sky130_fd_sc_hd__dfrtp_1
*I *592:Y O *D sky130_fd_sc_hd__inv_2
*CAP
1 *833:RESET_B 0.000240799
2 *592:Y 0.000240799
3 *833:RESET_B *662:B 0
4 *833:RESET_B *663:A 0
5 *833:RESET_B *819:A 8.40213e-05
6 *833:RESET_B *327:10 0
7 *833:RESET_B *369:23 2.97004e-06
8 acc[8] *833:RESET_B 7.87426e-05
9 *889:A *833:RESET_B 0.000189024
10 *890:A *833:RESET_B 0
*RES
1 *592:Y *833:RESET_B 10.07 
*END

*D_NET *81 0.000596255
*CONN
*I *834:RESET_B I *D sky130_fd_sc_hd__dfrtp_1
*I *593:Y O *D sky130_fd_sc_hd__inv_2
*CAP
1 *834:RESET_B 0.000209794
2 *593:Y 0.000209794
3 *834:RESET_B *597:A 6.57032e-05
4 *834:RESET_B *638:B 0
5 *834:RESET_B *680:B1 6.10014e-05
6 *834:RESET_B *684:B 4.99619e-05
*RES
1 *593:Y *834:RESET_B 9.47 
*END

*D_NET *82 0.000268587
*CONN
*I *835:RESET_B I *D sky130_fd_sc_hd__dfrtp_1
*I *594:Y O *D sky130_fd_sc_hd__inv_2
*CAP
1 *835:RESET_B 0.00011995
2 *594:Y 0.00011995
3 *835:RESET_B *682:B 2.86869e-05
4 *835:RESET_B *368:132 0
*RES
1 *594:Y *835:RESET_B 7.4675 
*END

*D_NET *83 0.0029619
*CONN
*I *836:RESET_B I *D sky130_fd_sc_hd__dfrtp_1
*I *595:Y O *D sky130_fd_sc_hd__inv_2
*CAP
1 *836:RESET_B 0.00114485
2 *595:Y 0.00114485
3 *836:RESET_B *794:A1 1.01661e-05
4 *836:RESET_B *794:A2 0.000189047
5 *836:RESET_B *125:18 0.000140639
6 *836:RESET_B *178:14 4.43871e-06
7 *836:RESET_B *331:22 7.23602e-05
8 *836:RESET_B *338:6 2.65814e-06
9 *895:A *836:RESET_B 0.000252884
10 *896:A *836:RESET_B 0
*RES
1 *595:Y *836:RESET_B 25.4925 
*END

*D_NET *84 0.00125977
*CONN
*I *837:RESET_B I *D sky130_fd_sc_hd__dfrtp_1
*I *596:Y O *D sky130_fd_sc_hd__inv_2
*CAP
1 *837:RESET_B 0.000453134
2 *596:Y 0.000453134
3 *837:RESET_B *591:A 3.64998e-06
4 *837:RESET_B *832:CLK 4.41506e-05
5 *837:RESET_B *174:20 9.59709e-05
6 *837:RESET_B *302:36 4.31698e-05
7 *837:RESET_B *340:8 8.23457e-05
8 *837:RESET_B *368:31 1.35324e-05
9 *832:RESET_B *837:RESET_B 7.06865e-05
*RES
1 *596:Y *837:RESET_B 12.2675 
*END

*D_NET *85 0.000310738
*CONN
*I *838:RESET_B I *D sky130_fd_sc_hd__dfrtp_1
*I *597:Y O *D sky130_fd_sc_hd__inv_2
*CAP
1 *838:RESET_B 0.000134361
2 *597:Y 0.000134361
3 *838:RESET_B *341:6 4.20162e-05
*RES
1 *597:Y *838:RESET_B 3.7225 
*END

*D_NET *86 0.0002297
*CONN
*I *839:RESET_B I *D sky130_fd_sc_hd__dfrtp_1
*I *598:Y O *D sky130_fd_sc_hd__inv_2
*CAP
1 *839:RESET_B 0.00011485
2 *598:Y 0.00011485
3 *839:RESET_B *774:B1 0
4 *839:RESET_B *839:CLK 0
5 *839:RESET_B *839:D 0
6 *839:RESET_B *907:A 0
*RES
1 *598:Y *839:RESET_B 7.49 
*END

*D_NET *87 0.000929197
*CONN
*I *840:RESET_B I *D sky130_fd_sc_hd__dfrtp_1
*I *599:Y O *D sky130_fd_sc_hd__inv_2
*CAP
1 *840:RESET_B 0.000304011
2 *599:Y 0.000304011
3 *840:RESET_B *599:A 0
4 *840:RESET_B *840:D 0.000111504
5 *840:RESET_B *198:16 0.000158297
6 *840:RESET_B *370:27 0
7 *854:A *840:RESET_B 5.13737e-05
*RES
1 *599:Y *840:RESET_B 10.7525 
*END

*D_NET *88 0.000414126
*CONN
*I *841:RESET_B I *D sky130_fd_sc_hd__dfrtp_1
*I *600:Y O *D sky130_fd_sc_hd__inv_2
*CAP
1 *841:RESET_B 0.000114354
2 *600:Y 0.000114354
3 *841:RESET_B *841:D 2.22198e-05
4 *841:RESET_B *370:31 0.000163199
*RES
1 *600:Y *841:RESET_B 3.7225 
*END

*D_NET *89 0.00027935
*CONN
*I *842:RESET_B I *D sky130_fd_sc_hd__dfrtp_1
*I *601:Y O *D sky130_fd_sc_hd__inv_2
*CAP
1 *842:RESET_B 0.000112576
2 *601:Y 0.000112576
3 *842:RESET_B *605:A 7.00889e-06
4 *842:RESET_B *757:A 0
5 *842:RESET_B *304:32 3.10059e-05
6 *842:RESET_B *370:148 1.61831e-05
*RES
1 *601:Y *842:RESET_B 7.535 
*END

*D_NET *90 0.000164099
*CONN
*I *843:RESET_B I *D sky130_fd_sc_hd__dfrtp_1
*I *602:Y O *D sky130_fd_sc_hd__inv_2
*CAP
1 *843:RESET_B 5.50634e-05
2 *602:Y 5.50634e-05
3 *843:RESET_B *370:62 5.39718e-05
4 acc[20] *843:RESET_B 0
*RES
1 *602:Y *843:RESET_B 6.725 
*END

*D_NET *91 0.000637154
*CONN
*I *844:RESET_B I *D sky130_fd_sc_hd__dfrtp_1
*I *603:Y O *D sky130_fd_sc_hd__inv_2
*CAP
1 *844:RESET_B 0.000137534
2 *603:Y 0.000137534
3 *844:RESET_B *720:B 7.69078e-05
4 *844:RESET_B *844:D 4.1235e-05
5 *844:RESET_B *909:A 0.000226848
6 *844:RESET_B *208:10 0
7 *844:RESET_B *245:10 1.70935e-05
*RES
1 *603:Y *844:RESET_B 8.9975 
*END

*D_NET *92 0.000214489
*CONN
*I *845:RESET_B I *D sky130_fd_sc_hd__dfrtp_1
*I *604:Y O *D sky130_fd_sc_hd__inv_2
*CAP
1 *845:RESET_B 4.49294e-05
2 *604:Y 4.49294e-05
3 *845:RESET_B *735:A 3.05423e-05
4 *845:RESET_B *212:18 9.40874e-05
*RES
1 *604:Y *845:RESET_B 6.725 
*END

*D_NET *93 0.000307291
*CONN
*I *846:RESET_B I *D sky130_fd_sc_hd__dfrtp_1
*I *605:Y O *D sky130_fd_sc_hd__inv_2
*CAP
1 *846:RESET_B 0.000138626
2 *605:Y 0.000138626
3 *846:RESET_B *605:A 3.00381e-05
4 *846:RESET_B *757:B 0
5 *846:RESET_B *846:D 0
*RES
1 *605:Y *846:RESET_B 7.775 
*END

*D_NET *94 0.000268449
*CONN
*I *847:RESET_B I *D sky130_fd_sc_hd__dfrtp_1
*I *606:Y O *D sky130_fd_sc_hd__inv_2
*CAP
1 *847:RESET_B 0.000110082
2 *606:Y 0.000110082
3 *847:RESET_B *352:10 0
4 *847:RESET_B *370:77 4.82863e-05
*RES
1 *606:Y *847:RESET_B 7.175 
*END

*D_NET *95 0.000296473
*CONN
*I *848:RESET_B I *D sky130_fd_sc_hd__dfrtp_1
*I *607:Y O *D sky130_fd_sc_hd__inv_2
*CAP
1 *848:RESET_B 8.92016e-05
2 *607:Y 8.92016e-05
3 *848:RESET_B *623:B 0
4 *848:RESET_B *762:A 4.99619e-05
5 *848:RESET_B *110:23 2.97004e-06
6 *848:RESET_B *370:97 3.42142e-05
7 *874:A *848:RESET_B 0
8 *875:A *848:RESET_B 3.09233e-05
*RES
1 *607:Y *848:RESET_B 7.175 
*END

*D_NET *96 0.00181313
*CONN
*I *849:RESET_B I *D sky130_fd_sc_hd__dfrtp_1
*I *608:Y O *D sky130_fd_sc_hd__inv_2
*CAP
1 *849:RESET_B 0.000269454
2 *608:Y 0.000269454
3 *849:RESET_B *608:A 8.8266e-05
4 *849:RESET_B *742:A 0.000176647
5 *849:RESET_B *746:A 9.30977e-05
6 *849:RESET_B *748:A_N 1.46744e-05
7 *849:RESET_B *752:A2 0.00034189
8 *849:RESET_B *917:A 0.000193806
9 *849:RESET_B *919:A 0.00012182
10 *849:RESET_B *228:14 0.000166692
11 *849:RESET_B *231:12 2.26739e-05
12 *849:RESET_B *354:12 4.12081e-05
13 acc[26] *849:RESET_B 0
14 acc[28] *849:RESET_B 1.34503e-05
*RES
1 *608:Y *849:RESET_B 14.1125 
*END

*D_NET *97 0.00137171
*CONN
*I *850:RESET_B I *D sky130_fd_sc_hd__dfrtp_1
*I *609:Y O *D sky130_fd_sc_hd__inv_2
*CAP
1 *850:RESET_B 0.000172388
2 *609:Y 0.000172388
3 *850:RESET_B *609:A 0
4 *850:RESET_B *747:B 0.00042195
5 *850:RESET_B *232:10 0.00042195
6 *850:RESET_B *305:51 5.39961e-05
7 *850:RESET_B *305:66 0.00012904
*RES
1 *609:Y *850:RESET_B 11.645 
*END

*D_NET *98 0.000804463
*CONN
*I *851:RESET_B I *D sky130_fd_sc_hd__dfrtp_1
*I *610:Y O *D sky130_fd_sc_hd__inv_2
*CAP
1 *851:RESET_B 0.000129973
2 *610:Y 0.000129973
3 *851:RESET_B *227:10 0.000270229
4 *851:RESET_B *356:8 2.10945e-05
5 *851:RESET_B *358:31 1.8279e-05
6 *879:A *851:RESET_B 0.000234914
*RES
1 *610:Y *851:RESET_B 9.5075 
*END

*D_NET *99 0.000910807
*CONN
*I *852:RESET_B I *D sky130_fd_sc_hd__dfrtp_1
*I *611:Y O *D sky130_fd_sc_hd__inv_2
*CAP
1 *852:RESET_B 0.000193389
2 *611:Y 0.000193389
3 *852:RESET_B *741:A 4.80532e-05
4 *852:RESET_B *741:B 0.000171618
5 *852:RESET_B *752:A2 0.000131197
6 *852:RESET_B *754:A 6.06593e-05
7 *852:RESET_B *919:A 0
8 *852:RESET_B *227:10 1.16597e-05
9 *852:RESET_B *227:27 2.88506e-05
10 *852:RESET_B *356:31 7.19906e-05
*RES
1 *611:Y *852:RESET_B 10.805 
*END

*D_NET *100 0.000984352
*CONN
*I *853:RESET_B I *D sky130_fd_sc_hd__dfrtp_1
*I *612:Y O *D sky130_fd_sc_hd__inv_2
*CAP
1 *853:RESET_B 0.000240004
2 *612:Y 0.000240004
3 *853:RESET_B *656:A 0.00013521
4 *853:RESET_B *812:A 4.82863e-05
5 *853:RESET_B *813:B 1.82499e-06
6 *853:RESET_B *910:A 0.000181821
7 *853:RESET_B *143:10 2.8185e-05
8 *853:RESET_B *306:6 8.40269e-05
9 *853:RESET_B *359:8 2.49909e-05
*RES
1 *612:Y *853:RESET_B 10.1525 
*END

*D_NET *101 0.00353689
*CONN
*I *616:A I *D sky130_fd_sc_hd__nand2_1
*I *751:C1 I *D sky130_fd_sc_hd__o211a_1
*I *749:A1 I *D sky130_fd_sc_hd__a31o_1
*I *744:A I *D sky130_fd_sc_hd__nand2_1
*I *614:Y O *D sky130_fd_sc_hd__nand2_1
*CAP
1 *616:A 0
2 *751:C1 0
3 *749:A1 0.000180986
4 *744:A 0.000300226
5 *614:Y 0.000177591
6 *101:31 0.000316084
7 *101:25 0.00020497
8 *101:6 0.00054769
9 *744:A *615:B 0.000162311
10 *744:A *616:B 7.96104e-06
11 *744:A *858:A 5.83121e-06
12 *744:A *861:A 0.000163199
13 *744:A *103:16 0.00039046
14 *744:A *232:10 0.000111567
15 *744:A *305:66 0
16 *749:A1 *743:B 2.75229e-05
17 *749:A1 *749:A2 5.5746e-05
18 *749:A1 *749:A3 0.000111061
19 *749:A1 *751:B1 8.23457e-05
20 *749:A1 *228:20 6.26945e-05
21 *749:A1 *232:35 1.29636e-05
22 *749:A1 *316:20 4.47125e-05
23 *101:6 *615:B 0.000265565
24 *101:25 *616:B 4.90937e-05
25 *101:25 *232:10 2.53191e-06
26 *101:25 *305:96 5.91331e-05
27 *101:31 *616:B 8.7152e-06
28 *101:31 *753:A1 1.88904e-05
29 *101:31 *852:CLK 4.96188e-05
30 *101:31 *232:10 8.18916e-05
31 *101:31 *232:35 2.82846e-05
32 *101:31 *305:96 7.23943e-06
*RES
1 *614:Y *101:6 4.12 
2 *101:6 *744:A 12.02 
3 *101:6 *101:25 3.38 
4 *101:25 *101:31 4.85 
5 *101:31 *749:A1 9.425 
6 *101:31 *751:C1 1.6 
7 *101:25 *616:A 3.6 
*END

*D_NET *102 0.00199327
*CONN
*I *616:B I *D sky130_fd_sc_hd__nand2_1
*I *615:X O *D sky130_fd_sc_hd__or2_1
*CAP
1 *616:B 0.000654575
2 *615:X 0.000654575
3 *616:B *609:A 6.18292e-05
4 *616:B *615:A 4.82863e-05
5 *616:B *615:B 0.000198945
6 *616:B *747:B 1.46828e-05
7 *616:B *754:A 9.50947e-05
8 *616:B *858:A 5.105e-05
9 *616:B *915:A 7.21296e-06
10 *616:B *232:10 0.000103246
11 *616:B *305:66 3.80043e-05
12 *744:A *616:B 7.96104e-06
13 *101:25 *616:B 4.90937e-05
14 *101:31 *616:B 8.7152e-06
*RES
1 *615:X *616:B 19.8961 
*END

*D_NET *103 0.00313577
*CONN
*I *740:A I *D sky130_fd_sc_hd__xnor2_1
*I *739:C1 I *D sky130_fd_sc_hd__a311o_1
*I *616:Y O *D sky130_fd_sc_hd__nand2_1
*CAP
1 *740:A 0.000192861
2 *739:C1 3.38763e-05
3 *616:Y 0.000265574
4 *103:16 0.000492312
5 *739:C1 *739:B1 9.53428e-06
6 *739:C1 *744:B 0
7 *739:C1 *857:A 1.08758e-05
8 *739:C1 *858:A 4.66108e-05
9 *739:C1 *117:12 2.75145e-05
10 *740:A *609:A 3.76596e-05
11 *740:A *747:A 1.26626e-05
12 *740:A *850:D 8.57024e-05
13 *740:A *915:A 0.000356983
14 *740:A *301:28 0.000308048
15 *103:16 *744:B 3.18367e-05
16 *103:16 *753:A1 0.000301306
17 *103:16 *858:A 0.00015956
18 *103:16 *117:12 4.66826e-05
19 *103:16 *226:8 9.27255e-06
20 *103:16 *226:17 0.000293406
21 *103:16 *320:14 2.30292e-05
22 *744:A *103:16 0.00039046
*RES
1 *616:Y *103:16 10.75 
2 *103:16 *739:C1 2.41 
3 *103:16 *740:A 11.705 
*END

*D_NET *104 0.00214548
*CONN
*I *625:A I *D sky130_fd_sc_hd__or2_1
*I *619:A I *D sky130_fd_sc_hd__nand2_1
*I *760:B1_N I *D sky130_fd_sc_hd__a21bo_1
*I *617:Y O *D sky130_fd_sc_hd__nand2_1
*CAP
1 *625:A 0.000255358
2 *619:A 0.0001232
3 *760:B1_N 0
4 *617:Y 0.000208327
5 *104:15 0.000437802
6 *104:6 0.000267572
7 *619:A *619:B 0.000116158
8 *619:A *759:A 6.97202e-05
9 *619:A *760:A2 0.000132485
10 *619:A *240:8 9.50342e-06
11 *619:A *314:16 1.15688e-05
12 *625:A *618:A 4.82919e-05
13 *625:A *618:B 6.24871e-05
14 *625:A *619:B 8.53113e-06
15 *625:A *760:A2 4.24292e-06
16 *625:A *916:A 2.05641e-05
17 *625:A *105:6 2.8185e-05
18 *625:A *314:16 4.31189e-05
19 *104:6 *618:A 5.53137e-05
20 *104:6 *760:A1 2.16917e-05
21 *104:6 *760:A2 0.00016063
22 *104:6 *315:12 9.01143e-06
23 *104:15 *760:A1 5.17188e-05
*RES
1 *617:Y *104:6 4.465 
2 *104:6 *760:B1_N 1.6 
3 *104:6 *104:15 2.795 
4 *104:15 *619:A 6.735 
5 *104:15 *625:A 7.965 
*END

*D_NET *105 0.00112976
*CONN
*I *619:B I *D sky130_fd_sc_hd__nand2_1
*I *760:A1 I *D sky130_fd_sc_hd__a21bo_1
*I *618:X O *D sky130_fd_sc_hd__or2_1
*CAP
1 *619:B 5.70426e-05
2 *760:A1 9.21377e-05
3 *618:X 4.60217e-05
4 *105:6 0.000195202
5 *619:B *314:16 0.000117832
6 *760:A1 *618:A 0.0002659
7 *760:A1 *760:A2 0.000122325
8 *105:6 *618:A 7.00889e-06
9 *619:A *619:B 0.000116158
10 *625:A *619:B 8.53113e-06
11 *625:A *105:6 2.8185e-05
12 *104:6 *760:A1 2.16917e-05
13 *104:15 *760:A1 5.17188e-05
*RES
1 *618:X *105:6 2.395 
2 *105:6 *760:A1 4.585 
3 *105:6 *619:B 7.34 
*END

*D_NET *106 0.000641713
*CONN
*I *624:A I *D sky130_fd_sc_hd__or2_1
*I *759:A I *D sky130_fd_sc_hd__xnor2_1
*I *619:Y O *D sky130_fd_sc_hd__nand2_1
*CAP
1 *624:A 0.000104542
2 *759:A 0.000157311
3 *619:Y 0
4 *106:4 0.000261853
5 *624:A *624:B 4.82863e-05
6 *619:A *759:A 6.97202e-05
*RES
1 *619:Y *106:4 1.6 
2 *106:4 *759:A 4.15 
3 *106:4 *624:A 3.1 
*END

*D_NET *107 0.00291035
*CONN
*I *626:A I *D sky130_fd_sc_hd__nor2_1
*I *630:A1 I *D sky130_fd_sc_hd__o21a_1
*I *764:A I *D sky130_fd_sc_hd__xor2_1
*I *620:Y O *D sky130_fd_sc_hd__xnor2_1
*CAP
1 *626:A 1.99148e-05
2 *630:A1 8.96645e-05
3 *764:A 0.000212419
4 *620:Y 0.000219329
5 *107:16 0.000572241
6 *107:12 0.000509401
7 *626:A *852:D 7.00889e-06
8 *626:A *227:27 1.34594e-05
9 *630:A1 *745:A 6.71882e-05
10 *630:A1 *749:A2 0.000129526
11 *630:A1 *849:CLK 0.000129526
12 *630:A1 *316:20 0.000122337
13 *764:A *626:B 0.000161587
14 *764:A *754:A 0
15 *764:A *764:B 1.50636e-05
16 *107:12 *750:A 2.0514e-05
17 *107:12 *852:CLK 4.43871e-06
18 *107:12 *852:D 9.33998e-05
19 *107:12 *917:A 5.48944e-05
20 *107:12 *228:14 0
21 *107:12 *232:35 0.00012864
22 *107:16 *626:B 0.000336275
23 *107:16 *227:27 3.52139e-06
*RES
1 *620:Y *107:12 9.665 
2 *107:12 *107:16 3.825 
3 *107:16 *764:A 4.41625 
4 *107:16 *630:A1 8.375 
5 *107:12 *626:A 2.05 
*END

*D_NET *108 0.00060883
*CONN
*I *623:A I *D sky130_fd_sc_hd__nand2_1
*I *763:A I *D sky130_fd_sc_hd__and3_1
*I *621:Y O *D sky130_fd_sc_hd__nand2_1
*CAP
1 *623:A 0.000116544
2 *763:A 0.000118945
3 *621:Y 0
4 *108:4 0.000235488
5 *623:A *621:A 4.99619e-05
6 *623:A *628:A2 0
7 *623:A *370:91 0
8 *763:A *624:B 0
9 *763:A *629:A 0
10 *763:A *110:23 0
11 *874:A *623:A 7.86219e-05
12 *878:A *763:A 9.26907e-06
*RES
1 *621:Y *108:4 1.6 
2 *108:4 *763:A 7.49 
3 *108:4 *623:A 4.06 
*END

*D_NET *109 0.000713537
*CONN
*I *623:B I *D sky130_fd_sc_hd__nand2_1
*I *622:X O *D sky130_fd_sc_hd__or2_1
*CAP
1 *623:B 0.000229816
2 *622:X 0.000229816
3 *623:B *621:A 0.00011378
4 *623:B *110:23 1.94805e-05
5 *623:B *353:21 4.82919e-05
6 *848:RESET_B *623:B 0
7 *874:A *623:B 7.23533e-05
*RES
1 *622:X *623:B 11.22 
*END

*D_NET *110 0.00209553
*CONN
*I *625:B I *D sky130_fd_sc_hd__or2_1
*I *624:B I *D sky130_fd_sc_hd__or2_1
*I *762:A I *D sky130_fd_sc_hd__xnor2_1
*I *623:Y O *D sky130_fd_sc_hd__nand2_1
*CAP
1 *625:B 0
2 *624:B 0.000109831
3 *762:A 0.000339968
4 *623:Y 3.22719e-05
5 *110:23 0.000306888
6 *110:6 0.000569298
7 *624:B *763:C 0
8 *624:B *314:16 5.42646e-05
9 *762:A *848:D 0.000198046
10 *762:A *314:16 2.77283e-05
11 *762:A *370:91 0.000253782
12 *110:23 *916:A 0
13 *110:23 *314:16 2.90488e-05
14 *110:23 *318:12 0
15 *110:23 *370:97 0
16 *623:B *110:23 1.94805e-05
17 *624:A *624:B 4.82863e-05
18 *763:A *624:B 0
19 *763:A *110:23 0
20 *848:RESET_B *762:A 4.99619e-05
21 *848:RESET_B *110:23 2.97004e-06
22 *874:A *762:A 1.62913e-05
23 *874:A *110:6 3.74161e-05
24 *878:A *624:B 0
*RES
1 *623:Y *110:6 2.05 
2 *110:6 *762:A 8.395 
3 *110:6 *110:23 4.91 
4 *110:23 *624:B 5.685 
5 *110:23 *625:B 3.6 
*END

*D_NET *111 0.00177523
*CONN
*I *630:A2 I *D sky130_fd_sc_hd__o21a_1
*I *761:B1 I *D sky130_fd_sc_hd__a21o_1
*I *624:X O *D sky130_fd_sc_hd__or2_1
*CAP
1 *630:A2 0.000394817
2 *761:B1 0.000113946
3 *624:X 0
4 *111:6 0.000508763
5 *630:A2 *743:A_N 0.000266753
6 *630:A2 *743:B 0.000208472
7 *630:A2 *763:C 6.63219e-06
8 *630:A2 *314:16 0
9 *630:A2 *316:20 9.58678e-06
10 *761:B1 *633:B 0
11 *761:B1 *739:A2 2.7881e-05
12 *761:B1 *763:C 3.69113e-05
13 *761:B1 *857:A 4.99619e-05
14 *761:B1 *116:10 0
15 *761:B1 *224:32 4.82919e-05
16 *761:B1 *314:16 0
17 *878:A *630:A2 7.22649e-05
18 *883:A *630:A2 3.09522e-05
*RES
1 *624:X *111:6 3.6 
2 *111:6 *761:B1 5.94 
3 *111:6 *630:A2 6.1518 
*END

*D_NET *112 0.0026294
*CONN
*I *626:B I *D sky130_fd_sc_hd__nor2_1
*I *763:B I *D sky130_fd_sc_hd__and3_1
*I *625:X O *D sky130_fd_sc_hd__or2_1
*CAP
1 *626:B 0.000578501
2 *763:B 0
3 *625:X 0.000106415
4 *112:6 0.000684915
5 *626:B *628:B1 2.81942e-05
6 *626:B *743:A_N 0.000135442
7 *626:B *749:A2 4.21973e-05
8 *626:B *749:B1 4.82863e-05
9 *626:B *750:B 2.75145e-05
10 *626:B *763:C 8.80347e-07
11 *626:B *764:B 0.000418504
12 *626:B *849:CLK 0
13 *626:B *849:D 2.97004e-06
14 *626:B *227:27 6.07575e-06
15 *626:B *316:20 4.62787e-05
16 *112:6 *763:C 5.36384e-06
17 *764:A *626:B 0.000161587
18 *107:16 *626:B 0.000336275
*RES
1 *625:X *112:6 2.74 
2 *112:6 *763:B 1.6 
3 *112:6 *626:B 16.265 
*END

*D_NET *113 0.00225704
*CONN
*I *628:B1 I *D sky130_fd_sc_hd__a211o_1
*I *626:Y O *D sky130_fd_sc_hd__nor2_1
*CAP
1 *628:B1 0.000667702
2 *626:Y 0.000667702
3 *628:B1 *620:A 0.000135264
4 *628:B1 *628:C1 4.60903e-05
5 *628:B1 *749:A2 2.99518e-06
6 *628:B1 *750:B 0.000182534
7 *628:B1 *917:A 0.000342778
8 *628:B1 *227:27 0.000119762
9 *628:B1 *228:14 0
10 *628:B1 *318:18 5.9584e-05
11 acc[26] *628:B1 4.43871e-06
12 *626:B *628:B1 2.81942e-05
13 *878:A *628:B1 0
*RES
1 *626:Y *628:B1 17.67 
*END

*D_NET *114 0.000148244
*CONN
*I *628:C1 I *D sky130_fd_sc_hd__a211o_1
*I *627:X O *D sky130_fd_sc_hd__o211a_1
*CAP
1 *628:C1 2.00644e-05
2 *627:X 2.00644e-05
3 *628:C1 *620:A 9.72742e-06
4 *628:C1 *318:18 5.22973e-05
5 *628:B1 *628:C1 4.60903e-05
*RES
1 *627:X *628:C1 4.01 
*END

*D_NET *115 0.00080979
*CONN
*I *629:A I *D sky130_fd_sc_hd__inv_2
*I *628:X O *D sky130_fd_sc_hd__a211o_1
*CAP
1 *629:A 0.00019154
2 *628:X 0.00019154
3 *629:A *621:B 2.11084e-05
4 *629:A *628:A2 1.08758e-05
5 *629:A *747:A 0
6 *629:A *116:10 4.18603e-06
7 *629:A *318:12 0.000242063
8 *763:A *629:A 0
9 *878:A *629:A 0.000148477
*RES
1 *628:X *629:A 11.415 
*END

*D_NET *116 0.00211366
*CONN
*I *630:B1 I *D sky130_fd_sc_hd__o21a_1
*I *739:A1 I *D sky130_fd_sc_hd__a311o_1
*I *738:A1 I *D sky130_fd_sc_hd__a31oi_1
*I *629:Y O *D sky130_fd_sc_hd__inv_2
*CAP
1 *630:B1 0.000277556
2 *739:A1 1.65033e-05
3 *738:A1 0.000212468
4 *629:Y 5.06049e-05
5 *116:10 0.000340404
6 *116:6 0.000439593
7 *630:B1 *743:A_N 3.86159e-05
8 *630:B1 *743:B 6.03947e-06
9 *630:B1 *745:A 4.14339e-05
10 *738:A1 *738:B1 0.000210684
11 *738:A1 *740:B 8.69386e-06
12 *738:A1 *747:A 9.14049e-05
13 *738:A1 *747:B 2.93351e-05
14 *739:A1 *738:B1 2.49909e-05
15 *739:A1 *857:A 4.66108e-05
16 *116:6 *318:12 7.00889e-06
17 *116:10 *738:B1 4.38051e-05
18 *116:10 *747:A 0.00022372
19 *116:10 *763:C 0
20 *629:A *116:10 4.18603e-06
21 *761:B1 *116:10 0
*RES
1 *629:Y *116:6 2.395 
2 *116:6 *116:10 4.655 
3 *116:10 *738:A1 7.53 
4 *116:10 *739:A1 4.05 
5 *116:6 *630:B1 5.56 
*END

*D_NET *117 0.00167709
*CONN
*I *739:B1 I *D sky130_fd_sc_hd__a311o_1
*I *738:B1 I *D sky130_fd_sc_hd__a31oi_1
*I *630:X O *D sky130_fd_sc_hd__o21a_1
*CAP
1 *739:B1 1.27008e-05
2 *738:B1 0.000186953
3 *630:X 0.000153412
4 *117:12 0.000353065
5 *738:B1 *738:A3 0
6 *738:B1 *740:B 4.05674e-06
7 *738:B1 *747:A 1.07797e-05
8 *738:B1 *747:B 3.95724e-05
9 *738:B1 *857:A 1.19928e-05
10 *738:B1 *226:8 4.41506e-05
11 *739:B1 *739:A2 1.37328e-05
12 *739:B1 *744:B 0
13 *117:12 *754:A 0.000192452
14 *117:12 *857:A 8.34281e-06
15 *117:12 *915:A 0.000192452
16 *117:12 *226:8 9.02174e-05
17 *738:A1 *738:B1 0.000210684
18 *739:A1 *738:B1 2.49909e-05
19 *739:C1 *739:B1 9.53428e-06
20 *739:C1 *117:12 2.75145e-05
21 *103:16 *117:12 4.66826e-05
22 *116:10 *738:B1 4.38051e-05
*RES
1 *630:X *117:12 9.485 
2 *117:12 *738:B1 9.44 
3 *117:12 *739:B1 1.96 
*END

*D_NET *118 0.00270165
*CONN
*I *739:A2 I *D sky130_fd_sc_hd__a311o_1
*I *761:A1 I *D sky130_fd_sc_hd__a21o_1
*I *633:A I *D sky130_fd_sc_hd__nand2_1
*I *758:A I *D sky130_fd_sc_hd__nand2_1
*I *738:A2 I *D sky130_fd_sc_hd__a31oi_1
*I *631:Y O *D sky130_fd_sc_hd__nand2_1
*CAP
1 *739:A2 0.00012536
2 *761:A1 0
3 *633:A 0
4 *758:A 9.73191e-06
5 *738:A2 3.98087e-05
6 *631:Y 0.00022288
7 *118:33 0.00018794
8 *118:25 0.00025279
9 *118:21 0.000241249
10 *118:10 0.000303996
11 *738:A2 *738:A3 2.49909e-05
12 *739:A2 *633:B 0
13 *739:A2 *738:A3 7.30547e-05
14 *739:A2 *739:A3 0.000157589
15 *739:A2 *857:A 1.61831e-05
16 *739:A2 *224:32 4.66108e-05
17 *739:A2 *226:8 0.00012657
18 *758:A *857:A 4.82863e-05
19 *758:A *120:14 4.82863e-05
20 *118:10 *631:A 7.00889e-06
21 *118:10 *631:B 0.000119631
22 *118:10 *632:A 1.12578e-05
23 *118:10 *738:A3 5.81675e-05
24 *118:10 *301:28 0
25 *118:10 *314:16 0
26 *118:10 *351:12 2.86623e-05
27 *118:21 *738:A3 7.06865e-05
28 *118:25 *857:A 0.000124895
29 *118:33 *857:A 0.000234674
30 *118:33 *120:14 2.97561e-05
31 *118:33 *314:16 4.9968e-05
32 *739:B1 *739:A2 1.37328e-05
33 *761:B1 *739:A2 2.7881e-05
*RES
1 *631:Y *118:10 7.59 
2 *118:10 *738:A2 4.05 
3 *118:10 *118:21 0.87 
4 *118:21 *118:25 3.14 
5 *118:25 *118:33 6.79 
6 *118:33 *758:A 2.05 
7 *118:33 *633:A 1.6 
8 *118:25 *761:A1 1.6 
9 *118:21 *739:A2 7.17 
*END

*D_NET *119 0.000362909
*CONN
*I *633:B I *D sky130_fd_sc_hd__nand2_1
*I *632:X O *D sky130_fd_sc_hd__or2_1
*CAP
1 *633:B 9.87417e-05
2 *632:X 9.87417e-05
3 *633:B *632:A 4.99619e-05
4 *633:B *314:16 0.000115464
5 *739:A2 *633:B 0
6 *761:B1 *633:B 0
*RES
1 *632:X *633:B 9.03 
*END

*D_NET *120 0.00158313
*CONN
*I *756:A I *D sky130_fd_sc_hd__and3_1
*I *736:B1 I *D sky130_fd_sc_hd__a21oi_1
*I *737:B1 I *D sky130_fd_sc_hd__a21o_1
*I *633:Y O *D sky130_fd_sc_hd__nand2_1
*CAP
1 *756:A 0
2 *736:B1 4.40161e-05
3 *737:B1 0
4 *633:Y 0.000168827
5 *120:18 0.000162035
6 *120:14 0.000286847
7 *736:B1 *737:A1 5.4155e-06
8 *736:B1 *737:A2 4.99619e-05
9 *736:B1 *756:B 2.7441e-05
10 *736:B1 *756:C 0.000164874
11 *736:B1 *218:23 2.30292e-05
12 *120:14 *857:A 3.96737e-05
13 *120:14 *224:12 0
14 *120:14 *224:23 0.000123225
15 *120:14 *314:16 4.07724e-05
16 *120:18 *632:A 0
17 *120:18 *756:B 0.000191243
18 *120:18 *756:C 0.000177725
19 *758:A *120:14 4.82863e-05
20 *118:33 *120:14 2.97561e-05
*RES
1 *633:Y *120:14 9.08 
2 *120:14 *120:18 3.915 
3 *120:18 *737:B1 1.6 
4 *120:18 *736:B1 3.445 
5 *120:14 *756:A 1.6 
*END

*D_NET *121 0.000689463
*CONN
*I *637:A I *D sky130_fd_sc_hd__nand2_1
*I *646:B1 I *D sky130_fd_sc_hd__o21a_1
*I *634:Y O *D sky130_fd_sc_hd__nand2_1
*CAP
1 *637:A 0
2 *646:B1 8.70668e-05
3 *634:Y 5.22578e-05
4 *121:8 0.000139325
5 *646:B1 *637:B 9.24127e-05
6 *646:B1 *646:A2 5.05521e-05
7 *646:B1 *833:D 0.000164686
8 *121:8 *634:A 2.15271e-05
9 *121:8 *634:B 1.16578e-05
10 *121:8 *795:A 0
11 *121:8 *833:D 4.82863e-05
12 *121:8 *124:21 2.16917e-05
*RES
1 *634:Y *121:8 2.755 
2 *121:8 *646:B1 8.285 
3 *121:8 *637:A 1.6 
*END

*D_NET *122 0.000191771
*CONN
*I *646:A1 I *D sky130_fd_sc_hd__o21a_1
*I *635:Y O *D sky130_fd_sc_hd__nor2_1
*CAP
1 *646:A1 7.89302e-05
2 *635:Y 7.89302e-05
3 *646:A1 *636:A 8.73389e-06
4 *646:A1 *335:25 2.5177e-05
*RES
1 *635:Y *646:A1 4.355 
*END

*D_NET *123 0.000689017
*CONN
*I *637:B I *D sky130_fd_sc_hd__nand2_1
*I *636:X O *D sky130_fd_sc_hd__or2_1
*CAP
1 *637:B 0.000215009
2 *636:X 0.000215009
3 *637:B *636:A 3.16275e-05
4 *637:B *680:B1 0.00011852
5 *637:B *833:D 1.37812e-05
6 *637:B *900:A 0
7 *646:B1 *637:B 9.24127e-05
8 *891:A *637:B 2.65814e-06
9 *893:A *637:B 0
*RES
1 *636:X *637:B 11.415 
*END

*D_NET *124 0.00331001
*CONN
*I *644:A I *D sky130_fd_sc_hd__or3_1
*I *645:A I *D sky130_fd_sc_hd__or3_1
*I *795:A I *D sky130_fd_sc_hd__xnor2_1
*I *637:Y O *D sky130_fd_sc_hd__nand2_1
*CAP
1 *644:A 0.000130555
2 *645:A 0.000332973
3 *795:A 0.000196541
4 *637:Y 0
5 *124:21 0.000721734
6 *124:4 0.000454747
7 *644:A *644:B 2.85364e-05
8 *644:A *130:10 0
9 *644:A *303:20 0.000114492
10 *644:A *303:22 3.96661e-05
11 *644:A *330:12 0
12 *645:A *643:A 0.000301306
13 *645:A *645:C 0.000129177
14 *645:A *793:A 4.66108e-05
15 *645:A *127:14 0.00015639
16 *645:A *128:15 0.000108886
17 *645:A *329:10 4.66108e-05
18 *795:A *833:D 8.65961e-05
19 *795:A *339:22 5.83121e-06
20 *795:A *368:56 5.05521e-05
21 *124:21 *634:A 2.8585e-06
22 *124:21 *634:B 1.61831e-05
23 *124:21 *833:D 7.49327e-05
24 *124:21 *303:22 9.044e-05
25 *124:21 *330:12 0
26 *888:A *124:21 3.03775e-05
27 *889:A *645:A 0.000122325
28 *893:A *795:A 0
29 *121:8 *795:A 0
30 *121:8 *124:21 2.16917e-05
*RES
1 *637:Y *124:4 1.6 
2 *124:4 *795:A 4.75 
3 *124:4 *124:21 5.645 
4 *124:21 *645:A 10.62 
5 *124:21 *644:A 6 
*END

*D_NET *125 0.00466086
*CONN
*I *640:A I *D sky130_fd_sc_hd__nand2_1
*I *646:A2 I *D sky130_fd_sc_hd__o21a_1
*I *794:B1_N I *D sky130_fd_sc_hd__a21bo_1
*I *638:Y O *D sky130_fd_sc_hd__nand2_1
*CAP
1 *640:A 6.84586e-05
2 *646:A2 0.000378325
3 *794:B1_N 0.00015135
4 *638:Y 0.000466287
5 *125:18 0.000650514
6 *125:10 0.000655585
7 *640:A *640:B 0.000102073
8 *640:A *127:10 0.000121817
9 *640:A *368:18 7.79767e-06
10 *640:A *368:31 3.11592e-05
11 *640:A *368:37 3.84842e-05
12 *646:A2 *639:A 2.39856e-05
13 *646:A2 *639:B 1.83847e-05
14 *646:A2 *640:B 2.49909e-05
15 *646:A2 *680:B1 1.7386e-05
16 *646:A2 *331:22 0.000118081
17 *646:A2 *334:8 6.07575e-06
18 *794:B1_N *687:B 0
19 *125:10 *639:A 8.69864e-05
20 *125:10 *680:C1 0.000291365
21 *125:10 *681:B 1.25121e-05
22 *125:10 *697:A1 0
23 *125:10 *794:A2 8.98208e-05
24 *125:10 *834:D 6.89005e-05
25 *125:10 *166:18 0.000193801
26 *125:10 *167:10 4.05358e-05
27 *125:10 *257:8 1.197e-05
28 *125:18 *794:A2 7.28589e-05
29 *646:B1 *646:A2 5.05521e-05
30 *836:RESET_B *125:18 0.000140639
31 *877:A *125:10 0.000169556
32 *894:A *125:10 0.000152503
33 *895:A *794:B1_N 0.000114792
34 *895:A *125:10 9.15412e-05
35 *895:A *125:18 0.000191771
*RES
1 *638:Y *125:10 14.97 
2 *125:10 *125:18 5.21 
3 *125:18 *794:B1_N 8.285 
4 *125:18 *646:A2 7.585 
5 *125:10 *640:A 5.7 
*END

*D_NET *126 0.00153159
*CONN
*I *640:B I *D sky130_fd_sc_hd__nand2_1
*I *794:A1 I *D sky130_fd_sc_hd__a21bo_1
*I *639:X O *D sky130_fd_sc_hd__or2_1
*CAP
1 *640:B 0.000157403
2 *794:A1 9.49819e-05
3 *639:X 0
4 *126:4 0.000252385
5 *640:B *639:A 0.000168047
6 *640:B *794:A2 0.000182071
7 *640:B *127:10 3.83194e-05
8 *640:B *331:22 1.15688e-05
9 *640:B *334:8 2.01565e-05
10 *640:B *368:37 6.48585e-05
11 *640:B *368:56 4.66108e-05
12 *794:A1 *794:A2 0.000153791
13 *794:A1 *795:B 3.42142e-05
14 *794:A1 *900:A 2.84224e-05
15 *794:A1 *331:22 5.37821e-05
16 *640:A *640:B 0.000102073
17 *646:A2 *640:B 2.49909e-05
18 *836:RESET_B *794:A1 1.01661e-05
19 *891:A *794:A1 8.77498e-05
*RES
1 *639:X *126:4 1.6 
2 *126:4 *794:A1 8.54 
3 *126:4 *640:B 10.4 
*END

*D_NET *127 0.00388909
*CONN
*I *644:B I *D sky130_fd_sc_hd__or3_1
*I *645:B I *D sky130_fd_sc_hd__or3_1
*I *793:A I *D sky130_fd_sc_hd__xnor2_1
*I *640:Y O *D sky130_fd_sc_hd__nand2_1
*CAP
1 *644:B 0.000434782
2 *645:B 0
3 *793:A 0.00025974
4 *640:Y 0.000309632
5 *127:14 0.000369935
6 *127:10 0.000854609
7 *644:B *597:A 0
8 *644:B *638:B 0.000190127
9 *644:B *644:C 0.000152328
10 *644:B *684:B 1.52184e-05
11 *644:B *791:A 4.82863e-05
12 *644:B *792:A2 8.82557e-05
13 *644:B *792:B1_N 6.95679e-05
14 *644:B *131:10 9.50342e-06
15 *644:B *134:18 2.33169e-05
16 *644:B *256:12 1.60203e-05
17 *644:B *303:20 8.40269e-05
18 *644:B *339:22 3.79555e-05
19 *644:B *368:56 9.34488e-05
20 *644:B *368:65 3.74161e-05
21 *793:A *645:C 0
22 *793:A *793:B 9.54563e-05
23 *793:A *832:D 0
24 *127:10 *638:B 7.06865e-05
25 *127:10 *339:22 7.06865e-05
26 *127:10 *368:56 0.000166414
27 *640:A *127:10 0.000121817
28 *640:B *127:10 3.83194e-05
29 *644:A *644:B 2.85364e-05
30 *645:A *793:A 4.66108e-05
31 *645:A *127:14 0.00015639
*RES
1 *640:Y *127:10 8.025 
2 *127:10 *127:14 3.485 
3 *127:14 *793:A 5.2 
4 *127:14 *645:B 1.6 
5 *127:10 *644:B 16.405 
*END

*D_NET *128 0.00163375
*CONN
*I *643:A I *D sky130_fd_sc_hd__nand2_1
*I *792:B1_N I *D sky130_fd_sc_hd__a21bo_1
*I *645:C I *D sky130_fd_sc_hd__or3_1
*I *641:Y O *D sky130_fd_sc_hd__nand2_1
*CAP
1 *643:A 8.47812e-05
2 *792:B1_N 5.7972e-05
3 *645:C 5.75278e-05
4 *641:Y 0
5 *128:15 0.000172954
6 *128:4 8.77282e-05
7 *643:A *641:B 4.66108e-05
8 *643:A *643:B 5.39673e-05
9 *643:A *792:A1 9.80943e-06
10 *643:A *367:22 0.00010978
11 *645:C *642:A 2.59211e-05
12 *645:C *331:22 4.82919e-05
13 *792:B1_N *368:56 0.000133555
14 *128:15 *641:B 8.49205e-05
15 *128:15 *642:A 1.91597e-05
16 *644:B *792:B1_N 6.95679e-05
17 *645:A *643:A 0.000301306
18 *645:A *645:C 0.000129177
19 *645:A *128:15 0.000108886
20 *793:A *645:C 0
21 *889:A *643:A 3.18367e-05
*RES
1 *641:Y *128:4 1.6 
2 *128:4 *645:C 3.1 
3 *128:4 *128:15 1.14 
4 *128:15 *792:B1_N 7.235 
5 *128:15 *643:A 4.825 
*END

*D_NET *129 0.00120444
*CONN
*I *643:B I *D sky130_fd_sc_hd__nand2_1
*I *792:A1 I *D sky130_fd_sc_hd__a21bo_1
*I *642:X O *D sky130_fd_sc_hd__or2_1
*CAP
1 *643:B 4.96053e-05
2 *792:A1 0.000284259
3 *642:X 0
4 *129:4 0.000333864
5 *792:A1 *638:B 0.00011852
6 *792:A1 *639:A 6.74079e-05
7 *792:A1 *642:A 0.000267846
8 *792:A1 *367:22 1.91597e-05
9 *643:A *643:B 5.39673e-05
10 *643:A *792:A1 9.80943e-06
*RES
1 *642:X *129:4 1.6 
2 *129:4 *792:A1 10.19 
3 *129:4 *643:B 2.665 
*END

*D_NET *130 0.000647288
*CONN
*I *644:C I *D sky130_fd_sc_hd__or3_1
*I *791:A I *D sky130_fd_sc_hd__xnor2_1
*I *643:Y O *D sky130_fd_sc_hd__nand2_1
*CAP
1 *644:C 2.42334e-05
2 *791:A 9.73191e-06
3 *643:Y 8.87939e-05
4 *130:10 0.000122759
5 *644:C *684:B 6.90876e-05
6 *644:C *256:12 4.82919e-05
7 *791:A *256:12 4.82863e-05
8 *130:10 *597:A 2.0851e-06
9 *130:10 *680:B1 0
10 *130:10 *831:D 2.87867e-05
11 *130:10 *368:73 4.61701e-06
12 *644:A *130:10 0
13 *644:B *644:C 0.000152328
14 *644:B *791:A 4.82863e-05
*RES
1 *643:Y *130:10 6.98 
2 *130:10 *791:A 2.05 
3 *130:10 *644:C 3.085 
*END

*D_NET *131 0.00122013
*CONN
*I *679:B1 I *D sky130_fd_sc_hd__a211oi_1
*I *680:A1 I *D sky130_fd_sc_hd__o211ai_1
*I *644:X O *D sky130_fd_sc_hd__or3_1
*CAP
1 *679:B1 0.000118303
2 *680:A1 0.000240589
3 *644:X 9.73423e-05
4 *131:10 0.000456234
5 *679:B1 *679:A1 1.22505e-05
6 *679:B1 *790:B 0
7 *679:B1 *136:10 0
8 *679:B1 *165:10 4.18603e-06
9 *679:B1 *303:10 0
10 *679:B1 *303:73 0
11 *680:A1 *790:A 8.7152e-06
12 *680:A1 *790:B 3.16057e-06
13 *680:A1 *171:22 1.88904e-05
14 *680:A1 *368:73 7.47205e-05
15 *131:10 *649:B 7.5648e-05
16 *131:10 *684:B 5.06288e-05
17 *131:10 *134:18 4.99619e-05
18 *644:B *131:10 9.50342e-06
*RES
1 *644:X *131:10 5.8125 
2 *131:10 *680:A1 5.33663 
3 *131:10 *679:B1 5.3625 
*END

*D_NET *132 0.00161532
*CONN
*I *680:C1 I *D sky130_fd_sc_hd__o211ai_1
*I *645:X O *D sky130_fd_sc_hd__or3_1
*CAP
1 *680:C1 0.000245221
2 *645:X 0.000245221
3 *680:C1 *684:A 0.000262313
4 *680:C1 *171:22 0.000457006
5 *895:A *680:C1 0.000114196
6 *125:10 *680:C1 0.000291365
*RES
1 *645:X *680:C1 14.865 
*END

*D_NET *133 0.00143653
*CONN
*I *680:B1 I *D sky130_fd_sc_hd__o211ai_1
*I *646:X O *D sky130_fd_sc_hd__o21a_1
*CAP
1 *680:B1 0.00042353
2 *646:X 0.00042353
3 *680:B1 *597:A 0.000172151
4 *680:B1 *638:B 0
5 *680:B1 *833:D 0
6 *680:B1 *303:22 0
7 *680:B1 *339:22 0
8 *680:B1 *367:22 3.96088e-05
9 *680:B1 *368:56 0.000161907
10 *680:B1 *368:73 1.88904e-05
11 *637:B *680:B1 0.00011852
12 *646:A2 *680:B1 1.7386e-05
13 *834:RESET_B *680:B1 6.10014e-05
14 *893:A *680:B1 0
15 *130:10 *680:B1 0
*RES
1 *646:X *680:B1 15.15 
*END

*D_NET *134 0.00183211
*CONN
*I *649:A I *D sky130_fd_sc_hd__nand2_1
*I *790:A I *D sky130_fd_sc_hd__nand2_1
*I *680:A2 I *D sky130_fd_sc_hd__o211ai_1
*I *647:Y O *D sky130_fd_sc_hd__nand2_1
*CAP
1 *649:A 6.44922e-05
2 *790:A 1.55611e-05
3 *680:A2 7.16998e-05
4 *647:Y 9.52008e-05
5 *134:18 0.000417125
6 *134:6 0.000489558
7 *649:A *649:B 5.12942e-05
8 *649:A *303:20 7.36562e-05
9 *790:A *597:A 1.52776e-05
10 *790:A *684:B 0
11 *790:A *790:B 4.55864e-06
12 *790:A *256:12 3.25831e-05
13 *134:6 *647:A 2.96334e-05
14 *134:6 *648:B 8.73389e-06
15 *134:18 *597:A 3.59997e-05
16 *134:18 *647:A 3.00381e-05
17 *134:18 *684:B 0.000160635
18 *134:18 *256:12 9.30787e-05
19 *134:18 *303:20 6.09913e-05
20 *644:B *134:18 2.33169e-05
21 *680:A1 *790:A 8.7152e-06
22 *131:10 *134:18 4.99619e-05
*RES
1 *647:Y *134:6 2.74 
2 *134:6 *134:18 8.195 
3 *134:18 *680:A2 4.395 
4 *134:18 *790:A 4.215 
5 *134:6 *649:A 7.235 
*END

*D_NET *135 0.000367676
*CONN
*I *649:B I *D sky130_fd_sc_hd__nand2_1
*I *648:X O *D sky130_fd_sc_hd__or2_1
*CAP
1 *649:B 8.24594e-05
2 *648:X 8.24594e-05
3 *649:B *818:A 2.75229e-05
4 *649:B *855:A 4.82919e-05
5 *649:A *649:B 5.12942e-05
6 *131:10 *649:B 7.5648e-05
*RES
1 *648:X *649:B 9.285 
*END

*D_NET *136 0.00110418
*CONN
*I *788:A I *D sky130_fd_sc_hd__nand3_1
*I *678:B1 I *D sky130_fd_sc_hd__a21o_1
*I *679:C1 I *D sky130_fd_sc_hd__a211oi_1
*I *649:Y O *D sky130_fd_sc_hd__nand2_1
*CAP
1 *788:A 7.97933e-05
2 *678:B1 8.1642e-06
3 *679:C1 0.000205504
4 *649:Y 4.61086e-05
5 *136:23 0.000116356
6 *136:10 0.000280011
7 *678:B1 *678:A2 3.21081e-06
8 *678:B1 *679:A2 3.21081e-06
9 *679:C1 *679:A2 3.09088e-05
10 *679:C1 *789:B 3.31103e-05
11 *679:C1 *165:10 2.26018e-05
12 *788:A *678:A1 4.66108e-05
13 *788:A *678:A2 9.03508e-06
14 *788:A *679:A2 6.58339e-05
15 *788:A *788:B 9.53428e-06
16 *788:A *161:10 4.66108e-05
17 *788:A *164:21 2.88871e-05
18 *136:10 *303:10 5.53249e-06
19 *136:10 *303:73 3.31204e-05
20 *136:23 *679:A2 3.00381e-05
21 *136:23 *788:B 0
22 *679:B1 *136:10 0
*RES
1 *649:Y *136:10 6.47 
2 *136:10 *679:C1 4.39 
3 *136:10 *136:23 0.81 
4 *136:23 *678:B1 1.96 
5 *136:23 *788:A 3.445 
*END

*D_NET *137 0.00328747
*CONN
*I *808:A1 I *D sky130_fd_sc_hd__o21a_1
*I *658:A I *D sky130_fd_sc_hd__nor3_2
*I *659:B1 I *D sky130_fd_sc_hd__a21o_1
*I *810:A I *D sky130_fd_sc_hd__nor2_1
*I *650:X O *D sky130_fd_sc_hd__and2_1
*CAP
1 *808:A1 0
2 *658:A 4.64375e-05
3 *659:B1 0.000165481
4 *810:A 9.29893e-05
5 *650:X 0.000202329
6 *137:18 0.000420559
7 *137:16 0.000287639
8 *137:12 0.000281442
9 *658:A *658:B 0
10 *658:A *144:10 5.53249e-06
11 *659:B1 *661:A1 3.21081e-06
12 *659:B1 *665:A 1.92979e-05
13 *659:B1 *665:B 0.000152884
14 *659:B1 *804:B 0.000111547
15 *659:B1 *824:CLK 2.47174e-05
16 *659:B1 *824:D 2.67022e-05
17 *659:B1 *828:D 2.54606e-05
18 *659:B1 *145:26 0
19 *659:B1 *324:48 3.27707e-05
20 *659:B1 *360:10 0
21 *659:B1 *360:20 6.76021e-05
22 *810:A *810:B 5.83121e-06
23 *810:A *145:8 4.00541e-06
24 *137:12 *652:B 9.91257e-05
25 *137:12 *921:A 0.000124532
26 *137:12 *324:14 0.000274675
27 *137:12 *357:10 4.05358e-05
28 *137:16 *658:C 8.65961e-05
29 *137:16 *808:A2 0.000191521
30 *137:16 *808:B1 2.30292e-05
31 *137:16 *139:12 1.33293e-05
32 *137:18 *658:C 0.000197264
33 *137:18 *808:A2 0.000163204
34 *137:18 *809:B 4.70919e-05
35 *137:18 *810:B 2.75229e-05
36 *137:18 *145:8 2.26018e-05
*RES
1 *650:X *137:12 11.195 
2 *137:12 *137:16 2.535 
3 *137:16 *137:18 3.9 
4 *137:18 *810:A 3.01 
5 *137:18 *659:B1 10.085 
6 *137:16 *658:A 6.215 
7 *137:12 *808:A1 1.6 
*END

*D_NET *138 0.00320317
*CONN
*I *658:B I *D sky130_fd_sc_hd__nor3_2
*I *808:A2 I *D sky130_fd_sc_hd__o21a_1
*I *651:Y O *D sky130_fd_sc_hd__nor2_1
*CAP
1 *658:B 3.96716e-05
2 *808:A2 0.000222719
3 *651:Y 0.000594924
4 *138:16 0.000857314
5 *658:B *145:26 6.45236e-05
6 *138:16 *674:B1 9.40887e-05
7 *138:16 *674:C1 6.68871e-05
8 *138:16 *806:A 4.05358e-05
9 *138:16 *828:D 3.86607e-05
10 *138:16 *145:26 0.000328748
11 *138:16 *360:30 0.000262702
12 *658:A *658:B 0
13 *824:RESET_B *138:16 0
14 *881:A *138:16 0.000237666
15 *137:16 *808:A2 0.000191521
16 *137:18 *808:A2 0.000163204
*RES
1 *651:Y *138:16 17.665 
2 *138:16 *808:A2 6.81 
3 *138:16 *658:B 4.47 
*END

*D_NET *139 0.00141027
*CONN
*I *653:A I *D sky130_fd_sc_hd__inv_2
*I *657:B1 I *D sky130_fd_sc_hd__o21a_1
*I *652:Y O *D sky130_fd_sc_hd__nand2_1
*CAP
1 *653:A 0
2 *657:B1 5.72449e-05
3 *652:Y 0.00018549
4 *139:12 0.000242735
5 *657:B1 *823:D 2.75145e-05
6 *657:B1 *143:18 0.000162311
7 *657:B1 *319:16 8.49205e-05
8 *657:B1 *371:38 2.05056e-05
9 *139:12 *652:B 0.000272679
10 *139:12 *655:A 0.000164686
11 *139:12 *823:D 0
12 *139:12 *144:10 3.38982e-05
13 *139:12 *319:16 1.52184e-05
14 *139:12 *345:23 0.000129735
15 *137:16 *139:12 1.33293e-05
*RES
1 *652:Y *139:12 10.415 
2 *139:12 *657:B1 3.43 
3 *139:12 *653:A 1.6 
*END

*D_NET *140 0.000886673
*CONN
*I *655:A I *D sky130_fd_sc_hd__nor2_1
*I *653:Y O *D sky130_fd_sc_hd__inv_2
*CAP
1 *655:A 0.000285546
2 *653:Y 0.000285546
3 *655:A *655:B 5.84828e-05
4 *655:A *144:10 9.24127e-05
5 *139:12 *655:A 0.000164686
*RES
1 *653:Y *655:A 12.66 
*END

*D_NET *141 0.00164669
*CONN
*I *657:A1 I *D sky130_fd_sc_hd__o21a_1
*I *655:B I *D sky130_fd_sc_hd__nor2_1
*I *654:Y O *D sky130_fd_sc_hd__nor2_1
*CAP
1 *657:A1 0
2 *655:B 0.000190123
3 *654:Y 0.000346448
4 *141:10 0.000536571
5 *655:B *807:A 7.00889e-06
6 *655:B *823:CLK 0.00018305
7 *141:10 *822:D 0.000122331
8 *141:10 *823:CLK 0.000116151
9 *141:10 *333:31 8.65192e-05
10 *655:A *655:B 5.84828e-05
*RES
1 *654:Y *141:10 8.535 
2 *141:10 *655:B 7.59 
3 *141:10 *657:A1 3.6 
*END

*D_NET *142 0.000291712
*CONN
*I *807:A I *D sky130_fd_sc_hd__xnor2_1
*I *655:Y O *D sky130_fd_sc_hd__nor2_1
*CAP
1 *807:A 0.000142352
2 *655:Y 0.000142352
3 *655:B *807:A 7.00889e-06
*RES
1 *655:Y *807:A 9.285 
*END

*D_NET *143 0.0019547
*CONN
*I *813:A I *D sky130_fd_sc_hd__and2_1
*I *657:A2 I *D sky130_fd_sc_hd__o21a_1
*I *807:B I *D sky130_fd_sc_hd__xnor2_1
*I *656:Y O *D sky130_fd_sc_hd__nand2_1
*CAP
1 *813:A 0
2 *657:A2 0
3 *807:B 9.35394e-05
4 *656:Y 0.000194648
5 *143:18 0.000211377
6 *143:10 0.000312486
7 *807:B *823:D 8.40213e-05
8 *807:B *371:38 7.52678e-05
9 *143:10 *910:A 6.02123e-05
10 *143:10 *319:16 0.00010596
11 *143:10 *359:8 0.000118081
12 *143:18 *823:D 2.59926e-05
13 *143:18 *910:A 1.34361e-05
14 *143:18 *319:16 0.000159957
15 *143:18 *345:23 7.36562e-05
16 *143:18 *371:38 0.000235568
17 *657:B1 *143:18 0.000162311
18 *853:RESET_B *143:10 2.8185e-05
*RES
1 *656:Y *143:10 6.81 
2 *143:10 *143:18 6.425 
3 *143:18 *807:B 3.79 
4 *143:18 *657:A2 1.6 
5 *143:10 *813:A 3.6 
*END

*D_NET *144 0.00119188
*CONN
*I *808:B1 I *D sky130_fd_sc_hd__o21a_1
*I *658:C I *D sky130_fd_sc_hd__nor3_2
*I *657:X O *D sky130_fd_sc_hd__o21a_1
*CAP
1 *808:B1 2.05484e-05
2 *658:C 8.60824e-05
3 *657:X 0.000142382
4 *144:10 0.000249013
5 *658:C *809:B 0.000134938
6 *144:10 *652:A 0
7 *144:10 *652:B 0
8 *144:10 *823:D 0.000120186
9 *144:10 *145:26 0
10 *655:A *144:10 9.24127e-05
11 *658:A *144:10 5.53249e-06
12 *137:16 *658:C 8.65961e-05
13 *137:16 *808:B1 2.30292e-05
14 *137:18 *658:C 0.000197264
15 *139:12 *144:10 3.38982e-05
*RES
1 *657:X *144:10 9.02 
2 *144:10 *658:C 4.48 
3 *144:10 *808:B1 2.05 
*END

*D_NET *145 0.00231218
*CONN
*I *661:B1 I *D sky130_fd_sc_hd__o22ai_1
*I *674:B1 I *D sky130_fd_sc_hd__o221ai_4
*I *809:A I *D sky130_fd_sc_hd__nor2_1
*I *810:B I *D sky130_fd_sc_hd__nor2_1
*I *658:Y O *D sky130_fd_sc_hd__nor3_2
*CAP
1 *661:B1 0
2 *674:B1 0.00015753
3 *809:A 0
4 *810:B 2.19971e-05
5 *658:Y 0
6 *145:26 0.000396448
7 *145:8 0.0001537
8 *145:4 0.00037062
9 *674:B1 *674:A2 0
10 *674:B1 *674:B2 4.66108e-05
11 *674:B1 *804:A 1.09931e-05
12 *674:B1 *148:14 0.00012817
13 *674:B1 *360:30 0.00018955
14 *145:8 *809:B 0.000106833
15 *145:26 *804:A 0.000100999
16 *145:26 *809:B 3.66286e-05
17 *145:26 *811:B 0
18 *145:26 *824:CLK 0
19 *145:26 *824:D 2.67022e-05
20 *145:26 *360:10 0
21 *658:B *145:26 6.45236e-05
22 *659:B1 *145:26 0
23 *810:A *810:B 5.83121e-06
24 *810:A *145:8 4.00541e-06
25 *881:A *674:B1 1.80792e-05
26 *137:18 *810:B 2.75229e-05
27 *137:18 *145:8 2.26018e-05
28 *138:16 *674:B1 9.40887e-05
29 *138:16 *145:26 0.000328748
30 *144:10 *145:26 0
*RES
1 *658:Y *145:4 1.6 
2 *145:4 *145:8 2.1 
3 *145:8 *810:B 2.05 
4 *145:8 *809:A 1.6 
5 *145:4 *145:26 7.655 
6 *145:26 *674:B1 7.425 
7 *145:26 *661:B1 3.6 
*END

*D_NET *146 0.000823969
*CONN
*I *661:B2 I *D sky130_fd_sc_hd__o22ai_1
*I *674:B2 I *D sky130_fd_sc_hd__o221ai_4
*I *659:X O *D sky130_fd_sc_hd__a21o_1
*CAP
1 *661:B2 2.82237e-05
2 *674:B2 9.70417e-05
3 *659:X 3.27205e-05
4 *146:6 0.000157986
5 *661:B2 *661:A1 1.08758e-05
6 *661:B2 *148:14 5.83121e-06
7 *674:B2 *804:A 0.000170963
8 *674:B2 *824:CLK 0.000170963
9 *146:6 *661:A1 4.66108e-05
10 *146:6 *661:A2 4.41506e-05
11 *146:6 *324:48 1.19928e-05
12 *674:B1 *674:B2 4.66108e-05
*RES
1 *659:X *146:6 2.395 
2 *146:6 *674:B2 8.195 
3 *146:6 *661:B2 2.05 
*END

*D_NET *147 0.000861559
*CONN
*I *811:A I *D sky130_fd_sc_hd__xnor2_1
*I *660:X O *D sky130_fd_sc_hd__xor2_1
*CAP
1 *811:A 0.00030907
2 *660:X 0.00030907
3 *811:A *651:A 0.0001249
4 *811:A *811:B 0
5 *811:A *332:30 0
6 *811:A *360:10 0.00011852
*RES
1 *660:X *811:A 12.105 
*END

*D_NET *148 0.00209263
*CONN
*I *796:A I *D sky130_fd_sc_hd__or2_1
*I *797:A I *D sky130_fd_sc_hd__nand2_1
*I *661:Y O *D sky130_fd_sc_hd__o22ai_1
*CAP
1 *796:A 0.000177295
2 *797:A 0.000121051
3 *661:Y 0.000232137
4 *148:14 0.000530483
5 *796:A *796:B 8.65961e-05
6 *796:A *798:A 1.67131e-05
7 *796:A *798:B 2.68464e-05
8 *796:A *924:A 3.91132e-05
9 *797:A *674:A1 5.05167e-05
10 *797:A *797:B 1.27782e-05
11 *797:A *159:29 1.56615e-05
12 *797:A *324:35 0.000154271
13 *148:14 *804:A 0.000177925
14 *148:14 *924:A 3.03684e-05
15 *148:14 *360:30 9.27255e-06
16 *661:B2 *148:14 5.83121e-06
17 *674:B1 *148:14 0.00012817
18 *881:A *797:A 0.000250681
19 *881:A *148:14 2.69217e-05
*RES
1 *661:Y *148:14 9.68 
2 *148:14 *797:A 8.795 
3 *148:14 *796:A 4.135 
*END

*D_NET *149 0.00195388
*CONN
*I *666:A I *D sky130_fd_sc_hd__or3_1
*I *802:B1 I *D sky130_fd_sc_hd__a21oi_1
*I *803:A I *D sky130_fd_sc_hd__and3_1
*I *662:Y O *D sky130_fd_sc_hd__xnor2_1
*CAP
1 *666:A 1.78458e-05
2 *802:B1 0.000166339
3 *803:A 2.08101e-05
4 *662:Y 0.00011454
5 *149:12 0.000375254
6 *149:8 0.00032049
7 *666:A *666:C 1.79536e-05
8 *666:A *676:B1 5.16418e-05
9 *666:A *929:A 7.20795e-06
10 *666:A *151:35 1.88656e-05
11 *802:B1 *803:C 0.000193851
12 *802:B1 *827:CLK 1.83756e-05
13 *802:B1 *827:D 5.5165e-05
14 *802:B1 *154:12 5.53249e-06
15 *802:B1 *159:10 0
16 *803:A *666:C 0
17 *149:8 *676:B1 0.00010225
18 *149:8 *929:A 0.000169429
19 *149:12 *664:B 2.34711e-05
20 *149:12 *666:C 6.68006e-05
21 *149:12 *803:C 5.66235e-05
22 *149:12 *827:CLK 2.95518e-05
23 *887:A *149:8 0.000121885
*RES
1 *662:Y *149:8 6.765 
2 *149:8 *149:12 4.52 
3 *149:12 *803:A 1.96 
4 *149:12 *802:B1 8.96 
5 *149:8 *666:A 4.215 
*END

*D_NET *150 0.00651985
*CONN
*I *665:A I *D sky130_fd_sc_hd__nor2_1
*I *666:B I *D sky130_fd_sc_hd__or3_1
*I *675:B1 I *D sky130_fd_sc_hd__a21oi_1
*I *663:X O *D sky130_fd_sc_hd__and2_1
*CAP
1 *665:A 0.00170895
2 *666:B 0.000125527
3 *675:B1 0.000247755
4 *663:X 2.03783e-05
5 *150:35 0.00237223
6 *150:6 0.000805881
7 *665:A *651:B 1.09082e-05
8 *665:A *669:B 0
9 *665:A *824:CLK 1.92979e-05
10 *666:B *664:B 2.75229e-05
11 *666:B *929:A 1.88904e-05
12 *666:B *930:A 5.66528e-05
13 *666:B *151:14 1.2782e-05
14 *666:B *151:35 1.7635e-05
15 *675:B1 *663:A 8.95325e-05
16 *675:B1 *663:B 0
17 *675:B1 *805:B1 0.000177726
18 *675:B1 *829:D 0
19 *675:B1 *364:27 7.13898e-05
20 *675:B1 *365:6 1.16578e-05
21 *150:6 *663:A 8.49205e-05
22 *150:6 *663:B 5.83121e-06
23 *150:6 *365:6 4.35348e-05
24 *150:35 *928:A 4.36573e-06
25 *150:35 *930:A 0.000348743
26 *150:35 *365:10 0.000110643
27 acc[11] *675:B1 2.49909e-05
28 acc[6] *150:35 8.28073e-05
29 acc[9] *665:A 0
30 *659:B1 *665:A 1.92979e-05
31 *887:A *666:B 0
32 *889:A *666:B 0
33 *889:A *150:35 0
*RES
1 *663:X *150:6 2.395 
2 *150:6 *675:B1 10.85 
3 *150:6 *150:35 6.0269 
4 *150:35 *666:B 4.96617 
5 *150:35 *665:A 7.33257 
*END

*D_NET *151 0.0039201
*CONN
*I *665:B I *D sky130_fd_sc_hd__nor2_1
*I *676:B2 I *D sky130_fd_sc_hd__o22a_1
*I *666:C I *D sky130_fd_sc_hd__or3_1
*I *664:Y O *D sky130_fd_sc_hd__nor2_1
*CAP
1 *665:B 0.000366595
2 *676:B2 0
3 *666:C 7.74742e-05
4 *664:Y 0.000160362
5 *151:35 0.0004754
6 *151:14 0.000346641
7 *665:B *676:B1 9.50342e-06
8 *665:B *677:B1 6.24087e-05
9 *665:B *804:B 7.58003e-05
10 *665:B *828:D 0.000566394
11 *665:B *929:A 4.44927e-05
12 *666:C *664:B 6.9385e-05
13 *666:C *929:A 1.92979e-05
14 *151:14 *863:A 0.000149685
15 *151:14 *930:A 1.36856e-05
16 *151:14 *329:10 9.58678e-06
17 *151:14 *332:20 0.000179097
18 *151:14 *369:23 2.05641e-05
19 *151:35 *676:B1 0.000176061
20 *151:35 *929:A 0.000153844
21 *659:B1 *665:B 0.000152884
22 *666:A *666:C 1.79536e-05
23 *666:A *151:35 1.88656e-05
24 *666:B *151:14 1.2782e-05
25 *666:B *151:35 1.7635e-05
26 *803:A *666:C 0
27 *826:RESET_B *665:B 0.000526663
28 *887:A *151:14 0.000130241
29 *149:12 *666:C 6.68006e-05
*RES
1 *664:Y *151:14 5.45317 
2 *151:14 *666:C 5.415 
3 *151:14 *151:35 3.0825 
4 *151:35 *676:B2 3.6 
5 *151:35 *665:B 14.76 
*END

*D_NET *152 0.00497175
*CONN
*I *806:A I *D sky130_fd_sc_hd__xnor2_1
*I *665:Y O *D sky130_fd_sc_hd__nor2_1
*CAP
1 *806:A 0.00134224
2 *665:Y 0.00134224
3 *806:A *651:A 0.000191533
4 *806:A *651:B 1.03833e-05
5 *806:A *660:A 3.86529e-05
6 *806:A *806:B 3.90732e-05
7 *806:A *828:D 0.000545852
8 *806:A *929:A 0
9 *806:A *164:12 0.000268271
10 *806:A *327:10 0.000188231
11 *806:A *327:16 8.41015e-06
12 *806:A *332:30 0.000331407
13 *806:A *360:14 1.10631e-05
14 *806:A *367:12 1.7635e-05
15 acc[11] *806:A 0.000596228
16 acc[8] *806:A 0
17 *887:A *806:A 0
18 *138:16 *806:A 4.05358e-05
*RES
1 *665:Y *806:A 32.73 
*END

*D_NET *153 0.0012144
*CONN
*I *673:A I *D sky130_fd_sc_hd__nor3_1
*I *677:A1 I *D sky130_fd_sc_hd__o31a_1
*I *676:A1 I *D sky130_fd_sc_hd__o22a_1
*I *666:X O *D sky130_fd_sc_hd__or3_1
*CAP
1 *673:A 0.00010721
2 *677:A1 6.2059e-05
3 *676:A1 0
4 *666:X 8.52334e-05
5 *153:21 0.000207815
6 *153:10 0.00012378
7 *673:A *677:A3 4.01778e-05
8 *677:A1 *677:A3 7.00889e-06
9 *677:A1 *156:14 1.83847e-05
10 *677:A1 *156:21 1.12578e-05
11 *153:10 *664:B 2.49909e-05
12 *153:10 *677:B1 3.12375e-05
13 *153:10 *929:A 8.82739e-05
14 *153:21 *677:B1 0.000116151
15 *829:RESET_B *677:A1 4.66108e-05
16 *829:RESET_B *153:10 0.000137563
17 *829:RESET_B *153:21 0.000106648
*RES
1 *666:X *153:10 5.685 
2 *153:10 *676:A1 3.6 
3 *153:10 *153:21 3.38 
4 *153:21 *677:A1 3.115 
5 *153:21 *673:A 3.1 
*END

*D_NET *154 0.0046952
*CONN
*I *802:A1 I *D sky130_fd_sc_hd__a21oi_1
*I *803:B I *D sky130_fd_sc_hd__and3_1
*I *669:A I *D sky130_fd_sc_hd__nand2_1
*I *676:A2 I *D sky130_fd_sc_hd__o22a_1
*I *667:Y O *D sky130_fd_sc_hd__nand2_1
*CAP
1 *802:A1 0
2 *803:B 7.38389e-05
3 *669:A 0.000461396
4 *676:A2 0
5 *667:Y 0.000299493
6 *154:20 0.00065548
7 *154:18 0.000398284
8 *154:12 0.000429854
9 *669:A *677:B1 1.16578e-05
10 *669:A *929:A 6.63012e-05
11 *669:A *156:14 0.000440129
12 *669:A *301:12 0.00032611
13 *669:A *329:10 4.82863e-05
14 *669:A *332:30 0.000163921
15 *669:A *367:12 4.82863e-05
16 *669:A *369:23 0.000114468
17 *669:A *369:32 8.97408e-05
18 *669:A *369:47 3.76596e-05
19 *803:B *664:B 4.82919e-05
20 *803:B *803:C 1.79877e-05
21 *803:B *804:A 8.53113e-06
22 *803:B *827:CLK 6.83488e-05
23 *154:12 *668:A 4.77757e-05
24 *154:12 *801:B 3.23391e-05
25 *154:12 *802:A2 0.000120655
26 *154:12 *803:C 1.23244e-05
27 *154:12 *826:CLK 4.9968e-05
28 *154:12 *827:D 0.000116158
29 *154:12 *159:10 4.50017e-05
30 *154:12 *159:29 4.65565e-05
31 *154:12 *261:10 5.00612e-05
32 *154:18 *800:B 4.82919e-05
33 *154:18 *800:C 6.97118e-05
34 *154:18 *801:B 9.80032e-06
35 *154:18 *804:A 6.71882e-05
36 *154:18 *805:B1 5.05521e-05
37 *154:18 *925:A 0
38 *154:20 *677:B1 9.57985e-05
39 *802:B1 *154:12 5.53249e-06
40 *827:RESET_B *154:12 1.9415e-05
41 *885:A *154:18 0
*RES
1 *667:Y *154:12 11.195 
2 *154:12 *154:18 3.15 
3 *154:18 *154:20 2.175 
4 *154:20 *676:A2 1.6 
5 *154:20 *669:A 17.6 
6 *154:18 *803:B 6.92 
7 *154:12 *802:A1 1.6 
*END

*D_NET *155 0.00538607
*CONN
*I *669:B I *D sky130_fd_sc_hd__nand2_1
*I *668:X O *D sky130_fd_sc_hd__or2_1
*CAP
1 *669:B 0.00164653
2 *668:X 0.00164653
3 *669:B *651:B 0.00090313
4 *669:B *815:A 0.000382615
5 *669:B *817:A 1.08758e-05
6 *669:B *928:A 1.81461e-05
7 *669:B *303:73 1.94351e-05
8 *669:B *366:10 3.64998e-06
9 *669:B *369:66 4.01535e-05
10 acc[4] *669:B 0.000118081
11 acc[9] *669:B 0.000334005
12 *665:A *669:B 0
13 *827:RESET_B *669:B 3.79555e-05
14 *886:A *669:B 0.000224969
*RES
1 *668:X *669:B 15.2965 
*END

*D_NET *156 0.00374918
*CONN
*I *799:B1 I *D sky130_fd_sc_hd__a21o_1
*I *800:A I *D sky130_fd_sc_hd__nand3_1
*I *673:B I *D sky130_fd_sc_hd__nor3_1
*I *677:A2 I *D sky130_fd_sc_hd__o31a_1
*I *669:Y O *D sky130_fd_sc_hd__nand2_1
*CAP
1 *799:B1 0.000118312
2 *800:A 6.67555e-05
3 *673:B 0
4 *677:A2 0
5 *669:Y 0.00032171
6 *156:32 0.000273033
7 *156:21 0.000206976
8 *156:14 0.000440721
9 *799:B1 *802:A2 5.30673e-05
10 *799:B1 *804:A 0.000139933
11 *799:B1 *261:10 2.96426e-05
12 *799:B1 *303:99 0.000133068
13 *800:A *804:A 0.000224473
14 *800:A *827:CLK 0.000118513
15 *800:A *303:99 0.000114492
16 *156:14 *817:A 4.41506e-05
17 *156:14 *332:30 0.00044035
18 *156:21 *677:A3 0.00019637
19 *156:32 *677:A3 4.23248e-05
20 *669:A *156:14 0.000440129
21 *677:A1 *156:14 1.83847e-05
22 *677:A1 *156:21 1.12578e-05
23 *827:RESET_B *799:B1 0.000272978
24 *829:RESET_B *156:14 4.25379e-05
*RES
1 *669:Y *156:14 13.43 
2 *156:14 *677:A2 1.6 
3 *156:14 *156:21 2.175 
4 *156:21 *673:B 1.6 
5 *156:21 *156:32 3.155 
6 *156:32 *800:A 6.255 
7 *156:32 *799:B1 7.755 
*END

*D_NET *157 0.00556963
*CONN
*I *672:A I *D sky130_fd_sc_hd__nand2_1
*I *799:A1 I *D sky130_fd_sc_hd__a21o_1
*I *677:A3 I *D sky130_fd_sc_hd__o31a_1
*I *800:B I *D sky130_fd_sc_hd__nand3_1
*I *670:Y O *D sky130_fd_sc_hd__nand2_1
*CAP
1 *672:A 0.000327702
2 *799:A1 0
3 *677:A3 0.000150266
4 *800:B 0.000101913
5 *670:Y 0.000126808
6 *157:20 0.000511986
7 *157:14 0.00057659
8 *157:12 0.000771293
9 *672:A *668:A 1.26548e-05
10 *672:A *670:A 4.21314e-05
11 *672:A *672:B 7.46619e-05
12 *672:A *927:A 0.000180668
13 *672:A *159:10 6.27438e-05
14 *672:A *325:10 0.000312077
15 *672:A *363:8 4.66742e-05
16 *677:A3 *673:C 0.000116084
17 *800:B *801:B 5.83121e-06
18 *800:B *803:C 0.000155928
19 *800:B *804:A 0.000199727
20 *800:B *261:10 4.14369e-05
21 *157:12 *670:A 3.32916e-05
22 *157:12 *670:B 0.000146372
23 *157:14 *670:B 4.82863e-05
24 *157:14 *362:27 1.46828e-05
25 *157:20 *804:A 0.000197599
26 *157:20 *159:29 0
27 *157:20 *261:10 9.54469e-05
28 *673:A *677:A3 4.01778e-05
29 *677:A1 *677:A3 7.00889e-06
30 *826:RESET_B *677:A3 3.83194e-05
31 *827:RESET_B *672:A 0.000199209
32 *827:RESET_B *157:14 0.000369515
33 *827:RESET_B *157:20 0.000275553
34 *154:18 *800:B 4.82919e-05
35 *156:21 *677:A3 0.00019637
36 *156:32 *677:A3 4.23248e-05
*RES
1 *670:Y *157:12 7.61 
2 *157:12 *157:14 4.245 
3 *157:14 *157:20 6.92 
4 *157:20 *800:B 6.45 
5 *157:20 *677:A3 7.275 
6 *157:14 *799:A1 1.6 
7 *157:12 *672:A 14.5175 
*END

*D_NET *158 0.001134
*CONN
*I *672:B I *D sky130_fd_sc_hd__nand2_1
*I *671:X O *D sky130_fd_sc_hd__or2_1
*CAP
1 *672:B 0.000148186
2 *671:X 0.000148186
3 *672:B *667:B 0.000265164
4 *672:B *668:A 0.000272994
5 *672:B *926:A 7.33759e-05
6 *672:B *927:A 0
7 *672:B *363:21 0.000151432
8 *672:A *672:B 7.46619e-05
*RES
1 *671:X *672:B 12.915 
*END

*D_NET *159 0.00442547
*CONN
*I *797:B I *D sky130_fd_sc_hd__nand2_1
*I *796:B I *D sky130_fd_sc_hd__or2_1
*I *673:C I *D sky130_fd_sc_hd__nor3_1
*I *672:Y O *D sky130_fd_sc_hd__nand2_1
*CAP
1 *797:B 0.000261365
2 *796:B 1.71066e-05
3 *673:C 0.000207507
4 *672:Y 0.000719197
5 *159:29 0.000454251
6 *159:10 0.00110248
7 *673:C *826:CLK 8.40269e-05
8 *796:B *924:A 5.05521e-05
9 *797:B *674:A1 4.92861e-05
10 *797:B *798:B 6.23808e-05
11 *797:B *324:35 9.28053e-05
12 *797:B *326:14 0
13 *159:10 *664:B 2.92786e-05
14 *159:10 *802:A2 0.00020613
15 *159:10 *805:B1 9.72269e-05
16 *159:10 *827:D 0.000282431
17 *159:10 *928:A 0
18 *159:10 *930:A 0
19 *159:29 *799:A2 2.51475e-05
20 *159:29 *800:C 6.36438e-07
21 *159:29 *802:A2 0.000116151
22 *159:29 *804:A 0
23 *159:29 *326:14 0
24 *672:A *159:10 6.27438e-05
25 *677:A3 *673:C 0.000116084
26 *796:A *796:B 8.65961e-05
27 *797:A *797:B 1.27782e-05
28 *797:A *159:29 1.56615e-05
29 *802:B1 *159:10 0
30 *826:RESET_B *673:C 0.000169729
31 *881:A *159:29 2.53191e-06
32 *886:A *797:B 9.82856e-06
33 *154:12 *159:10 4.50017e-05
34 *154:12 *159:29 4.65565e-05
35 *157:20 *159:29 0
*RES
1 *672:Y *159:10 14.775 
2 *159:10 *673:C 7.74 
3 *159:10 *159:29 3.42 
4 *159:29 *796:B 4.395 
5 *159:29 *797:B 8.055 
*END

*D_NET *160 0.00104157
*CONN
*I *674:C1 I *D sky130_fd_sc_hd__o221ai_4
*I *673:Y O *D sky130_fd_sc_hd__nor3_1
*CAP
1 *674:C1 0.000190707
2 *673:Y 0.000190707
3 *674:C1 *804:B 0.000293719
4 *674:C1 *360:30 5.83121e-06
5 *826:RESET_B *674:C1 0.000293719
6 *138:16 *674:C1 6.68871e-05
*RES
1 *673:Y *674:C1 12.45 
*END

*D_NET *161 0.00170237
*CONN
*I *788:B I *D sky130_fd_sc_hd__nand3_1
*I *679:A1 I *D sky130_fd_sc_hd__a211oi_1
*I *678:A1 I *D sky130_fd_sc_hd__a21o_1
*I *674:Y O *D sky130_fd_sc_hd__o221ai_4
*CAP
1 *788:B 1.67746e-05
2 *679:A1 0.000301001
3 *678:A1 3.58321e-05
4 *674:Y 0.000230615
5 *161:10 0.000398062
6 *161:8 0.000308618
7 *679:A1 *815:A 9.87085e-05
8 *679:A1 *366:10 3.82741e-05
9 *679:A1 *368:73 0
10 *788:B *164:21 5.4155e-06
11 *161:8 *164:12 0.000118081
12 *161:8 *164:21 2.39856e-05
13 *161:10 *164:21 1.19928e-05
14 *679:B1 *679:A1 1.22505e-05
15 *788:A *678:A1 4.66108e-05
16 *788:A *788:B 9.53428e-06
17 *788:A *161:10 4.66108e-05
18 *136:23 *788:B 0
*RES
1 *674:Y *161:8 4.645 
2 *161:8 *161:10 0.795 
3 *161:10 *678:A1 2.05 
4 *161:10 *679:A1 7.76587 
5 *161:8 *788:B 1.96 
*END

*D_NET *162 0.00219201
*CONN
*I *676:B1 I *D sky130_fd_sc_hd__o22a_1
*I *675:Y O *D sky130_fd_sc_hd__a21oi_1
*CAP
1 *676:B1 0.000673318
2 *675:Y 0.000673318
3 *676:B1 *804:B 0.000132422
4 *676:B1 *805:B1 0
5 *676:B1 *827:CLK 1.98695e-05
6 *676:B1 *829:D 3.77134e-05
7 acc[11] *676:B1 0.000284717
8 *665:B *676:B1 9.50342e-06
9 *666:A *676:B1 5.16418e-05
10 *887:A *676:B1 3.11975e-05
11 *149:8 *676:B1 0.00010225
12 *151:35 *676:B1 0.000176061
*RES
1 *675:Y *676:B1 17.715 
*END

*D_NET *163 0.000772998
*CONN
*I *677:B1 I *D sky130_fd_sc_hd__o31a_1
*I *676:X O *D sky130_fd_sc_hd__o22a_1
*CAP
1 *677:B1 0.000174567
2 *676:X 0.000174567
3 *677:B1 *828:D 1.65192e-05
4 *677:B1 *929:A 9.00909e-05
5 *665:B *677:B1 6.24087e-05
6 *669:A *677:B1 1.16578e-05
7 *153:10 *677:B1 3.12375e-05
8 *153:21 *677:B1 0.000116151
9 *154:20 *677:B1 9.57985e-05
*RES
1 *676:X *677:B1 11.175 
*END

*D_NET *164 0.00173948
*CONN
*I *678:A2 I *D sky130_fd_sc_hd__a21o_1
*I *679:A2 I *D sky130_fd_sc_hd__a211oi_1
*I *788:C I *D sky130_fd_sc_hd__nand3_1
*I *677:X O *D sky130_fd_sc_hd__o31a_1
*CAP
1 *678:A2 7.97811e-06
2 *679:A2 8.11031e-05
3 *788:C 0
4 *677:X 0.000142095
5 *164:21 0.000201626
6 *164:12 0.00025464
7 *679:A2 *789:B 0.000107415
8 *679:A2 *165:10 4.99619e-05
9 *164:12 *332:30 0.000268271
10 *164:21 *789:B 2.75145e-05
11 *678:B1 *678:A2 3.21081e-06
12 *678:B1 *679:A2 3.21081e-06
13 *679:C1 *679:A2 3.09088e-05
14 *788:A *678:A2 9.03508e-06
15 *788:A *679:A2 6.58339e-05
16 *788:A *164:21 2.88871e-05
17 *788:B *164:21 5.4155e-06
18 *806:A *164:12 0.000268271
19 *136:23 *679:A2 3.00381e-05
20 *161:8 *164:12 0.000118081
21 *161:8 *164:21 2.39856e-05
22 *161:10 *164:21 1.19928e-05
*RES
1 *677:X *164:12 9.905 
2 *164:12 *788:C 1.6 
3 *164:12 *164:21 2.1 
4 *164:21 *679:A2 4.135 
5 *164:21 *678:A2 1.96 
*END

*D_NET *165 0.000988111
*CONN
*I *789:A I *D sky130_fd_sc_hd__and2_1
*I *790:B I *D sky130_fd_sc_hd__nand2_1
*I *678:X O *D sky130_fd_sc_hd__a21o_1
*CAP
1 *789:A 0
2 *790:B 0.000174473
3 *678:X 0.000131854
4 *165:10 0.000306327
5 *790:B *597:A 0
6 *790:B *684:B 4.55864e-06
7 *165:10 *597:A 0
8 *165:10 *789:B 0.000286429
9 *165:10 *303:73 0
10 *679:A2 *165:10 4.99619e-05
11 *679:B1 *790:B 0
12 *679:B1 *165:10 4.18603e-06
13 *679:C1 *165:10 2.26018e-05
14 *680:A1 *790:B 3.16057e-06
15 *790:A *790:B 4.55864e-06
*RES
1 *678:X *165:10 6.735 
2 *165:10 *790:B 6.285 
3 *165:10 *789:A 3.6 
*END

*D_NET *166 0.00288817
*CONN
*I *681:A I *D sky130_fd_sc_hd__or2_1
*I *697:A1 I *D sky130_fd_sc_hd__o211a_1
*I *679:Y O *D sky130_fd_sc_hd__a211oi_1
*CAP
1 *681:A 0
2 *697:A1 0.000201909
3 *679:Y 0.000707288
4 *166:18 0.000909197
5 *697:A1 *697:A2 0.000120921
6 *697:A1 *781:B 4.9253e-06
7 *697:A1 *782:A1 0.000171633
8 *697:A1 *834:D 3.63206e-05
9 *697:A1 *838:CLK 0.00017187
10 *697:A1 *168:6 8.35106e-05
11 *697:A1 *184:12 1.1561e-05
12 *697:A1 *302:82 8.23457e-05
13 *166:18 *638:A 4.82919e-05
14 *166:18 *681:B 4.66742e-05
15 *166:18 *789:B 4.18603e-06
16 *166:18 *830:CLK 3.70009e-05
17 *166:18 *830:D 2.75145e-05
18 *166:18 *834:D 1.08758e-05
19 *166:18 *303:73 1.83463e-05
20 *125:10 *697:A1 0
21 *125:10 *166:18 0.000193801
*RES
1 *679:Y *166:18 15.59 
2 *166:18 *697:A1 10.625 
3 *166:18 *681:A 1.6 
*END

*D_NET *167 0.00252057
*CONN
*I *681:B I *D sky130_fd_sc_hd__or2_1
*I *697:A2 I *D sky130_fd_sc_hd__o211a_1
*I *680:Y O *D sky130_fd_sc_hd__o211ai_1
*CAP
1 *681:B 0.000154268
2 *697:A2 0.000302171
3 *680:Y 0.000247774
4 *167:10 0.000704213
5 *681:B *638:A 6.45236e-05
6 *681:B *639:A 0.000177532
7 *697:A2 *697:B1 3.13354e-05
8 *697:A2 *781:B 1.22608e-05
9 *697:A2 *302:82 2.20014e-05
10 *697:A2 *336:14 7.04534e-05
11 *167:10 *639:A 7.23602e-05
12 *167:10 *855:A 0.000124895
13 *167:10 *171:22 0.00010573
14 *697:A1 *697:A2 0.000120921
15 *877:A *681:B 0.000210405
16 *125:10 *681:B 1.25121e-05
17 *125:10 *167:10 4.05358e-05
18 *166:18 *681:B 4.66742e-05
*RES
1 *680:Y *167:10 7.335 
2 *167:10 *697:A2 8.565 
3 *167:10 *681:B 7.56 
*END

*D_NET *168 0.00187355
*CONN
*I *781:A I *D sky130_fd_sc_hd__xor2_1
*I *782:A1 I *D sky130_fd_sc_hd__a21bo_1
*I *681:X O *D sky130_fd_sc_hd__or2_1
*CAP
1 *781:A 6.58909e-05
2 *782:A1 0.000344499
3 *681:X 4.0945e-05
4 *168:6 0.000451335
5 *781:A *781:B 1.70733e-05
6 *781:A *336:14 2.03356e-05
7 *782:A1 *782:A2 8.52845e-05
8 *782:A1 *171:22 0.000233463
9 *782:A1 *184:12 0.000116158
10 *782:A1 *302:82 0.000157332
11 *168:6 *834:D 4.77757e-05
12 *168:6 *336:14 3.83194e-05
13 *697:A1 *782:A1 0.000171633
14 *697:A1 *168:6 8.35106e-05
*RES
1 *681:X *168:6 2.74 
2 *168:6 *782:A1 12.845 
3 *168:6 *781:A 2.755 
*END

*D_NET *169 0.00514224
*CONN
*I *684:A I *D sky130_fd_sc_hd__nand2_1
*I *698:B2 I *D sky130_fd_sc_hd__o221ai_1
*I *784:B1_N I *D sky130_fd_sc_hd__a21bo_1
*I *682:Y O *D sky130_fd_sc_hd__nand2_1
*CAP
1 *684:A 0.000945419
2 *698:B2 0.000260229
3 *784:B1_N 7.99656e-05
4 *682:Y 0
5 *169:21 0.00179637
6 *169:4 0.00067069
7 *684:A *688:A 1.89041e-05
8 *684:A *818:A 0
9 *684:A *855:A 5.74656e-05
10 *684:A *171:22 0.000139943
11 *684:A *180:10 0
12 *684:A *302:82 5.83121e-06
13 *698:B2 *688:A 7.28764e-05
14 *698:B2 *698:A1 4.77757e-05
15 *698:B2 *698:B1 4.14666e-06
16 *698:B2 *832:D 7.97014e-05
17 *698:B2 *180:10 5.83121e-06
18 *698:B2 *372:27 4.77719e-05
19 *784:B1_N *683:A 0.000124895
20 *169:21 *688:B 0.000243892
21 *169:21 *253:8 0
22 *169:21 *339:22 0
23 *169:21 *339:26 0
24 *169:21 *368:132 1.7635e-05
25 *680:C1 *684:A 0.000262313
26 *894:A *169:21 0.000260585
27 *895:A *684:A 0
28 *895:A *698:B2 0
*RES
1 *682:Y *169:4 1.6 
2 *169:4 *784:B1_N 2.74 
3 *169:4 *169:21 4.37757 
4 *169:21 *698:B2 7.9275 
5 *169:21 *684:A 16.1625 
*END

*D_NET *170 0.00513084
*CONN
*I *684:B I *D sky130_fd_sc_hd__nand2_1
*I *784:A1 I *D sky130_fd_sc_hd__a21bo_1
*I *683:X O *D sky130_fd_sc_hd__or2_1
*CAP
1 *684:B 0.00140822
2 *784:A1 6.21422e-05
3 *683:X 5.7901e-05
4 *170:6 0.00152827
5 *684:B *784:A2 0.000397093
6 *684:B *792:A2 0.000386488
7 *684:B *835:D 0.000122325
8 *684:B *855:A 4.82919e-05
9 *684:B *256:12 0.000176189
10 *684:B *350:12 0.000428943
11 *784:A1 *683:A 8.8266e-05
12 *784:A1 *784:A2 4.99619e-05
13 *170:6 *683:A 2.66586e-05
14 *644:B *684:B 1.52184e-05
15 *644:C *684:B 6.90876e-05
16 *790:A *684:B 0
17 *790:B *684:B 4.55864e-06
18 *834:RESET_B *684:B 4.99619e-05
19 *131:10 *684:B 5.06288e-05
20 *134:18 *684:B 0.000160635
*RES
1 *683:X *170:6 2.395 
2 *170:6 *784:A1 3.265 
3 *170:6 *684:B 28.76 
*END

*D_NET *171 0.00470146
*CONN
*I *783:A I *D sky130_fd_sc_hd__xnor2_1
*I *693:A I *D sky130_fd_sc_hd__nor2_1
*I *684:Y O *D sky130_fd_sc_hd__nand2_1
*CAP
1 *783:A 2.4121e-05
2 *693:A 0.000109465
3 *684:Y 0.000689227
4 *171:22 0.000822813
5 *693:A *686:B 0.000125304
6 *693:A *787:A 5.83121e-06
7 *693:A *904:A 4.66108e-05
8 *693:A *173:10 0.000155509
9 *693:A *338:19 2.73058e-05
10 *783:A *784:A2 8.23457e-05
11 *783:A *350:12 8.23457e-05
12 *171:22 *597:A 5.16418e-05
13 *171:22 *686:A 4.82919e-05
14 *171:22 *686:B 0.000174279
15 *171:22 *782:A2 8.64421e-05
16 *171:22 *782:B1_N 1.34503e-05
17 *171:22 *839:CLK 9.50342e-06
18 *171:22 *855:A 0.000469354
19 *171:22 *173:10 0.000125005
20 *171:22 *302:6 0.00033233
21 *171:22 *302:10 0.000192125
22 *171:22 *302:82 5.17879e-05
23 *171:22 *368:132 2.13396e-05
24 *680:A1 *171:22 1.88904e-05
25 *680:C1 *171:22 0.000457006
26 *684:A *171:22 0.000139943
27 *782:A1 *171:22 0.000233463
28 *167:10 *171:22 0.00010573
*RES
1 *684:Y *171:22 25.87 
2 *171:22 *693:A 6.285 
3 *171:22 *783:A 4.395 
*END

*D_NET *172 0.00209389
*CONN
*I *786:A1 I *D sky130_fd_sc_hd__a21bo_1
*I *687:A I *D sky130_fd_sc_hd__nand2_1
*I *685:X O *D sky130_fd_sc_hd__or2_1
*CAP
1 *786:A1 0.000215315
2 *687:A 0.000292261
3 *685:X 0
4 *172:4 0.000507576
5 *687:A *685:B 0
6 *687:A *691:A 0.000208853
7 *687:A *178:14 5.96034e-05
8 *786:A1 *685:A 0.000157972
9 *786:A1 *785:A 0.000223699
10 *786:A1 *174:20 4.80285e-05
11 *786:A1 *302:34 0.000180416
12 *786:A1 *332:12 7.00889e-06
13 *786:A1 *368:18 0.00013106
14 *891:A *687:A 4.00541e-06
15 *896:A *786:A1 5.80941e-05
*RES
1 *685:X *172:4 1.6 
2 *172:4 *687:A 6.475 
3 *172:4 *786:A1 12.23 
*END

*D_NET *173 0.00483616
*CONN
*I *687:B I *D sky130_fd_sc_hd__nand2_1
*I *698:A1 I *D sky130_fd_sc_hd__o221ai_1
*I *786:B1_N I *D sky130_fd_sc_hd__a21bo_1
*I *686:Y O *D sky130_fd_sc_hd__nand2_1
*CAP
1 *687:B 0.000805319
2 *698:A1 3.68768e-05
3 *786:B1_N 4.31895e-05
4 *686:Y 0.000213144
5 *173:27 0.00109142
6 *173:10 0.00050556
7 *687:B *691:B 4.65134e-05
8 *687:B *174:20 0.000115571
9 *687:B *332:20 3.83542e-05
10 *698:A1 *832:D 6.5724e-05
11 *698:A1 *180:10 9.387e-06
12 *698:A1 *340:50 1.71416e-05
13 *786:B1_N *787:A 0.000101678
14 *786:B1_N *368:18 8.29392e-05
15 *173:10 *787:A 3.97211e-05
16 *173:10 *302:10 0.000118081
17 *173:10 *338:19 1.98705e-05
18 *173:10 *368:18 5.5345e-05
19 *173:10 *368:132 0.000304704
20 *173:27 *332:20 0.000223227
21 *693:A *173:10 0.000155509
22 *698:B2 *698:A1 4.77757e-05
23 *794:B1_N *687:B 0
24 *893:A *687:B 7.66738e-05
25 *894:A *687:B 0.000216797
26 *894:A *173:27 0.000280627
27 *171:22 *173:10 0.000125005
*RES
1 *686:Y *173:10 9.0525 
2 *173:10 *786:B1_N 4.8525 
3 *173:10 *173:27 1.34107 
4 *173:27 *698:A1 5.0375 
5 *173:27 *687:B 8.7523 
*END

*D_NET *174 0.00322025
*CONN
*I *692:A I *D sky130_fd_sc_hd__or2_1
*I *785:A I *D sky130_fd_sc_hd__xnor2_1
*I *687:Y O *D sky130_fd_sc_hd__nand2_1
*CAP
1 *692:A 1.04051e-05
2 *785:A 0.000544253
3 *687:Y 0.000491397
4 *174:20 0.00104606
5 *785:A *785:B 5.00071e-05
6 *785:A *786:A2 0.000161837
7 *785:A *332:12 5.77096e-05
8 *174:20 *691:B 0.000149153
9 *174:20 *832:D 8.90552e-05
10 *174:20 *340:33 4.66108e-05
11 *174:20 *340:50 7.32549e-05
12 *174:20 *368:18 1.72419e-05
13 *687:B *174:20 0.000115571
14 *786:A1 *785:A 0.000223699
15 *786:A1 *174:20 4.80285e-05
16 *837:RESET_B *174:20 9.59709e-05
17 *892:A *785:A 0
*RES
1 *687:Y *174:20 17.655 
2 *174:20 *785:A 14.225 
3 *174:20 *692:A 1.96 
*END

*D_NET *175 0.00238873
*CONN
*I *691:A I *D sky130_fd_sc_hd__nand2_1
*I *698:C1 I *D sky130_fd_sc_hd__o221ai_1
*I *688:Y O *D sky130_fd_sc_hd__nand2_1
*CAP
1 *691:A 0.000257557
2 *698:C1 6.38895e-05
3 *688:Y 7.65537e-05
4 *175:8 0.000398
5 *691:A *832:D 8.40582e-05
6 *691:A *905:A 0.000227489
7 *691:A *178:14 8.97037e-05
8 *691:A *180:10 5.02905e-05
9 *691:A *302:34 9.28171e-05
10 *691:A *340:33 8.45475e-05
11 *698:C1 *698:B1 7.65635e-05
12 *698:C1 *699:B1 5.46222e-06
13 *175:8 *688:B 9.93482e-05
14 *175:8 *180:10 0.000196067
15 *175:8 *302:30 2.42236e-05
16 *175:8 *302:34 2.21807e-05
17 *687:A *691:A 0.000208853
18 *896:A *691:A 0.000331126
*RES
1 *688:Y *175:8 6 
2 *175:8 *698:C1 4.785 
3 *175:8 *691:A 12.015 
*END

*D_NET *176 0.000178038
*CONN
*I *698:A2 I *D sky130_fd_sc_hd__o221ai_1
*I *689:Y O *D sky130_fd_sc_hd__nor2_1
*CAP
1 *698:A2 6.49982e-05
2 *689:Y 6.49982e-05
3 *698:A2 *832:D 4.80415e-05
*RES
1 *689:Y *698:A2 3.995 
*END

*D_NET *177 0.000883786
*CONN
*I *691:B I *D sky130_fd_sc_hd__nand2_1
*I *690:X O *D sky130_fd_sc_hd__or2_1
*CAP
1 *691:B 0.00029786
2 *690:X 0.00029786
3 *691:B *905:A 0
4 *691:B *340:50 4.77719e-05
5 *687:B *691:B 4.65134e-05
6 *832:RESET_B *691:B 4.46271e-05
7 *174:20 *691:B 0.000149153
*RES
1 *690:X *691:B 12.435 
*END

*D_NET *178 0.00260066
*CONN
*I *787:A I *D sky130_fd_sc_hd__xnor2_1
*I *692:B I *D sky130_fd_sc_hd__or2_1
*I *691:Y O *D sky130_fd_sc_hd__nand2_1
*CAP
1 *787:A 0.000285383
2 *692:B 0
3 *691:Y 0.000491792
4 *178:14 0.000777175
5 *787:A *837:D 0
6 *787:A *904:A 0.000124481
7 *787:A *338:19 0.000176359
8 *178:14 *685:A 3.95269e-05
9 *178:14 *837:D 0
10 *178:14 *905:A 4.89295e-05
11 *178:14 *338:19 0.000269955
12 acc[15] *178:14 8.60799e-05
13 *687:A *178:14 5.96034e-05
14 *691:A *178:14 8.97037e-05
15 *693:A *787:A 5.83121e-06
16 *786:B1_N *787:A 0.000101678
17 *836:RESET_B *178:14 4.43871e-06
18 *896:A *178:14 0
19 *173:10 *787:A 3.97211e-05
*RES
1 *691:Y *178:14 12.585 
2 *178:14 *692:B 3.6 
3 *178:14 *787:A 9.225 
*END

*D_NET *179 0.000693344
*CONN
*I *693:B I *D sky130_fd_sc_hd__nor2_1
*I *698:B1 I *D sky130_fd_sc_hd__o221ai_1
*I *692:X O *D sky130_fd_sc_hd__or2_1
*CAP
1 *693:B 0
2 *698:B1 6.86611e-05
3 *692:X 6.78576e-05
4 *179:10 0.000136519
5 *698:B1 *699:B1 1.19928e-05
6 *698:B1 *180:10 0.000120655
7 *179:10 *685:A 7.3091e-05
8 *179:10 *302:34 0.000133857
9 *698:B2 *698:B1 4.14666e-06
10 *698:C1 *698:B1 7.65635e-05
*RES
1 *692:X *179:10 7.235 
2 *179:10 *698:B1 3.46 
3 *179:10 *693:B 1.6 
*END

*D_NET *180 0.00243179
*CONN
*I *699:A3 I *D sky130_fd_sc_hd__a31o_1
*I *697:B1 I *D sky130_fd_sc_hd__o211a_1
*I *693:Y O *D sky130_fd_sc_hd__nor2_1
*CAP
1 *699:A3 0.000201212
2 *697:B1 0.000198928
3 *693:Y 0.000436963
4 *180:10 0.000837103
5 *697:B1 *696:B 1.08758e-05
6 *697:B1 *781:B 8.2265e-06
7 *697:B1 *183:6 4.87234e-06
8 *699:A3 *699:A1 0.000150142
9 *699:A3 *699:B1 0
10 *699:A3 *782:A2 2.85837e-05
11 *699:A3 *183:10 3.47391e-05
12 *180:10 *688:A 0
13 *180:10 *699:B1 0
14 *180:10 *782:A2 4.11112e-05
15 *180:10 *832:D 2.85364e-05
16 *180:10 *302:30 3.69334e-05
17 *180:10 *302:82 0
18 *684:A *180:10 0
19 *691:A *180:10 5.02905e-05
20 *697:A2 *697:B1 3.13354e-05
21 *698:A1 *180:10 9.387e-06
22 *698:B1 *180:10 0.000120655
23 *698:B2 *180:10 5.83121e-06
24 *175:8 *180:10 0.000196067
*RES
1 *693:Y *180:10 11.055 
2 *180:10 *697:B1 6.045 
3 *180:10 *699:A3 7.155 
*END

*D_NET *181 0.000850815
*CONN
*I *696:A I *D sky130_fd_sc_hd__and2_1
*I *782:B1_N I *D sky130_fd_sc_hd__a21bo_1
*I *694:Y O *D sky130_fd_sc_hd__nand2_1
*CAP
1 *696:A 8.7571e-05
2 *782:B1_N 8.3878e-05
3 *694:Y 0.000115896
4 *181:6 0.000287345
5 *696:A *696:B 8.65961e-05
6 *696:A *336:30 1.37328e-05
7 *782:B1_N *686:A 7.00889e-06
8 *782:B1_N *699:B1 7.06865e-05
9 *782:B1_N *839:CLK 0
10 *181:6 *694:A 1.33293e-05
11 *181:6 *336:24 2.30292e-05
12 *181:6 *336:30 4.82919e-05
13 *171:22 *782:B1_N 1.34503e-05
*RES
1 *694:Y *181:6 3.085 
2 *181:6 *782:B1_N 6.92 
3 *181:6 *696:A 3.355 
*END

*D_NET *182 0.000319153
*CONN
*I *696:B I *D sky130_fd_sc_hd__and2_1
*I *695:X O *D sky130_fd_sc_hd__or2_1
*CAP
1 *696:B 0.00011084
2 *695:X 0.00011084
3 *696:A *696:B 8.65961e-05
4 *697:B1 *696:B 1.08758e-05
*RES
1 *695:X *696:B 5.045 
*END

*D_NET *183 0.00130662
*CONN
*I *781:B I *D sky130_fd_sc_hd__xor2_1
*I *697:C1 I *D sky130_fd_sc_hd__o211a_1
*I *782:A2 I *D sky130_fd_sc_hd__a21bo_1
*I *696:X O *D sky130_fd_sc_hd__and2_1
*CAP
1 *781:B 0.000217314
2 *697:C1 0
3 *782:A2 0.000129708
4 *696:X 4.22581e-05
5 *183:10 0.000169763
6 *183:6 0.000299626
7 *781:B *699:A2 0
8 *781:B *184:12 9.30787e-05
9 *781:B *186:10 4.6368e-06
10 *781:B *336:14 2.67193e-05
11 *183:10 *302:82 0
12 *697:A1 *781:B 4.9253e-06
13 *697:A2 *781:B 1.22608e-05
14 *697:B1 *781:B 8.2265e-06
15 *697:B1 *183:6 4.87234e-06
16 *699:A3 *782:A2 2.85837e-05
17 *699:A3 *183:10 3.47391e-05
18 *781:A *781:B 1.70733e-05
19 *782:A1 *782:A2 8.52845e-05
20 *171:22 *782:A2 8.64421e-05
21 *180:10 *782:A2 4.11112e-05
*RES
1 *696:X *183:6 2.05 
2 *183:6 *183:10 2.87 
3 *183:10 *782:A2 6.285 
4 *183:10 *697:C1 3.6 
5 *183:6 *781:B 9.02 
*END

*D_NET *184 0.00109519
*CONN
*I *711:A1 I *D sky130_fd_sc_hd__o211ai_1
*I *700:A I *D sky130_fd_sc_hd__or2_1
*I *697:X O *D sky130_fd_sc_hd__o211a_1
*CAP
1 *711:A1 4.92805e-05
2 *700:A 0
3 *697:X 0.000188791
4 *184:12 0.000238072
5 *711:A1 *772:B 0.000123492
6 *711:A1 *247:6 6.90438e-05
7 *184:12 *711:A2 5.18317e-06
8 *184:12 *838:CLK 0.000110032
9 *184:12 *186:10 4.63425e-05
10 *184:12 *302:82 4.41506e-05
11 *697:A1 *184:12 1.1561e-05
12 *781:B *184:12 9.30787e-05
13 *782:A1 *184:12 0.000116158
*RES
1 *697:X *184:12 9.56 
2 *184:12 *700:A 1.6 
3 *184:12 *711:A1 3.1 
*END

*D_NET *185 0.00166688
*CONN
*I *699:B1 I *D sky130_fd_sc_hd__a31o_1
*I *698:Y O *D sky130_fd_sc_hd__o221ai_1
*CAP
1 *699:B1 0.000491943
2 *698:Y 0.000491943
3 *699:B1 *685:A 3.51667e-05
4 *699:B1 *686:A 6.32463e-05
5 *699:B1 *694:A 8.41015e-06
6 *699:B1 *695:A 2.23203e-05
7 *699:B1 *699:A1 0
8 *699:B1 *774:A2 9.50342e-06
9 *699:B1 *839:CLK 0
10 *699:B1 *248:10 0
11 *699:B1 *252:12 0.000114492
12 *699:B1 *302:30 0.000170484
13 *699:B1 *302:34 8.86692e-05
14 *699:B1 *336:24 8.25647e-05
15 *698:B1 *699:B1 1.19928e-05
16 *698:C1 *699:B1 5.46222e-06
17 *699:A3 *699:B1 0
18 *782:B1_N *699:B1 7.06865e-05
19 *180:10 *699:B1 0
*RES
1 *698:Y *699:B1 16.545 
*END

*D_NET *186 0.000653906
*CONN
*I *711:A2 I *D sky130_fd_sc_hd__o211ai_1
*I *700:B I *D sky130_fd_sc_hd__or2_1
*I *699:X O *D sky130_fd_sc_hd__a31o_1
*CAP
1 *711:A2 6.58784e-05
2 *700:B 0
3 *699:X 0.000134091
4 *186:10 0.00019997
5 *711:A2 *772:B 8.52845e-05
6 *711:A2 *838:CLK 1.94182e-05
7 *711:A2 *198:16 8.52845e-05
8 *186:10 *336:14 7.81746e-06
9 *781:B *186:10 4.6368e-06
10 *184:12 *711:A2 5.18317e-06
11 *184:12 *186:10 4.63425e-05
*RES
1 *699:X *186:10 5.52 
2 *186:10 *700:B 3.6 
3 *186:10 *711:A2 5.265 
*END

*D_NET *187 0.00144534
*CONN
*I *772:A I *D sky130_fd_sc_hd__nand2_1
*I *773:A I *D sky130_fd_sc_hd__xor2_1
*I *700:X O *D sky130_fd_sc_hd__or2_1
*CAP
1 *772:A 1.07563e-05
2 *773:A 0.000467089
3 *700:X 0
4 *187:4 0.000477845
5 *772:A *772:B 4.77757e-05
6 *772:A *247:6 2.79137e-05
7 *773:A *838:CLK 0.000188515
8 *773:A *838:D 0.000161101
9 *773:A *197:6 1.56428e-05
10 *773:A *198:16 3.50033e-05
11 *773:A *341:6 1.36999e-05
*RES
1 *700:X *187:4 1.6 
2 *187:4 *773:A 12.68 
3 *187:4 *772:A 2.05 
*END

*D_NET *188 0.00116817
*CONN
*I *775:A I *D sky130_fd_sc_hd__and3_1
*I *774:B1 I *D sky130_fd_sc_hd__a21oi_1
*I *707:A_N I *D sky130_fd_sc_hd__and2b_1
*I *701:Y O *D sky130_fd_sc_hd__xnor2_1
*CAP
1 *775:A 0
2 *774:B1 0.00017406
3 *707:A_N 0
4 *701:Y 7.75044e-05
5 *188:15 0.000304739
6 *188:8 0.000208183
7 *774:B1 *774:A1 8.65905e-05
8 *774:B1 *839:D 0.00011686
9 *188:8 *701:A 3.00381e-05
10 *188:8 *342:36 1.12578e-05
11 *188:15 *711:B1 9.66021e-05
12 *188:15 *714:A3 9.27255e-06
13 *188:15 *342:36 5.30673e-05
14 *839:RESET_B *774:B1 0
*RES
1 *701:Y *188:8 2.755 
2 *188:8 *707:A_N 1.6 
3 *188:8 *188:15 2.52 
4 *188:15 *774:B1 8.81 
5 *188:15 *775:A 1.6 
*END

*D_NET *189 0.000935161
*CONN
*I *779:A1 I *D sky130_fd_sc_hd__a21bo_1
*I *704:A I *D sky130_fd_sc_hd__nand2_1
*I *702:X O *D sky130_fd_sc_hd__or2_1
*CAP
1 *779:A1 2.34662e-05
2 *704:A 6.28395e-05
3 *702:X 7.59524e-05
4 *189:12 0.000162258
5 *704:A *704:B 5.93674e-05
6 *704:A *715:C1 0.000183057
7 *704:A *906:A 2.92496e-05
8 *779:A1 *343:14 2.49909e-05
9 *189:12 *704:B 9.50342e-06
10 *189:12 *906:A 0.00016513
11 *189:12 *190:10 0.000120186
12 *189:12 *343:14 1.91597e-05
*RES
1 *702:X *189:12 7.775 
2 *189:12 *704:A 7.745 
3 *189:12 *779:A1 2.05 
*END

*D_NET *190 0.00113748
*CONN
*I *704:B I *D sky130_fd_sc_hd__nand2_1
*I *779:B1_N I *D sky130_fd_sc_hd__a21bo_1
*I *703:Y O *D sky130_fd_sc_hd__nand2_1
*CAP
1 *704:B 9.064e-05
2 *779:B1_N 0
3 *703:Y 0.000162432
4 *190:10 0.000253072
5 *704:B *906:A 1.1561e-05
6 *704:B *307:8 9.9535e-05
7 *704:B *308:10 1.83847e-05
8 *190:10 *703:A 5.02217e-05
9 *190:10 *906:A 9.766e-05
10 *190:10 *307:8 0.000116629
11 *704:A *704:B 5.93674e-05
12 *897:A *190:10 4.82919e-05
13 *189:12 *704:B 9.50342e-06
14 *189:12 *190:10 0.000120186
*RES
1 *703:Y *190:10 7.815 
2 *190:10 *779:B1_N 3.6 
3 *190:10 *704:B 6.195 
*END

*D_NET *191 0.00146275
*CONN
*I *778:A I *D sky130_fd_sc_hd__xnor2_1
*I *706:A I *D sky130_fd_sc_hd__nor2_1
*I *704:Y O *D sky130_fd_sc_hd__nand2_1
*CAP
1 *778:A 1.65033e-05
2 *706:A 6.62665e-05
3 *704:Y 0.000297804
4 *191:10 0.000380574
5 *706:A *706:B 0.000204456
6 *706:A *839:D 5.56629e-05
7 *706:A *250:14 7.07801e-05
8 *778:A *250:14 4.66108e-05
9 *778:A *343:6 2.49909e-05
10 *191:10 *706:B 0.000129047
11 *191:10 *780:A 0.000158066
12 *191:10 *344:10 1.19928e-05
*RES
1 *704:Y *191:10 8.445 
2 *191:10 *706:A 6 
3 *191:10 *778:A 4.05 
*END

*D_NET *192 0.00189871
*CONN
*I *780:A I *D sky130_fd_sc_hd__xnor2_1
*I *706:B I *D sky130_fd_sc_hd__nor2_1
*I *705:Y O *D sky130_fd_sc_hd__xnor2_1
*CAP
1 *780:A 5.6917e-05
2 *706:B 0.000170687
3 *705:Y 0.000102749
4 *192:8 0.000330352
5 *706:B *715:C1 0
6 *706:B *343:40 0.000114492
7 *706:B *370:47 2.97004e-06
8 *706:B *374:12 9.10587e-05
9 *780:A *344:10 4.66742e-05
10 *192:8 *343:40 0.000305921
11 *192:8 *370:47 0.000137024
12 *706:A *706:B 0.000204456
13 *854:A *706:B 4.82919e-05
14 *191:10 *706:B 0.000129047
15 *191:10 *780:A 0.000158066
*RES
1 *705:Y *192:8 7.275 
2 *192:8 *706:B 8.235 
3 *192:8 *780:A 5.085 
*END

*D_NET *193 0.00113098
*CONN
*I *707:B I *D sky130_fd_sc_hd__and2b_1
*I *713:C I *D sky130_fd_sc_hd__and3_1
*I *706:Y O *D sky130_fd_sc_hd__nor2_1
*CAP
1 *707:B 0.000175543
2 *713:C 0.000112209
3 *706:Y 0
4 *193:4 0.000287752
5 *707:B *711:B1 8.8266e-05
6 *707:B *714:B1 1.71207e-05
7 *707:B *777:A2 4.17687e-05
8 *707:B *839:D 0.000143004
9 *707:B *194:6 4.99619e-05
10 *707:B *342:36 0
11 *707:B *374:12 7.06865e-05
12 *854:A *713:C 0.000144666
*RES
1 *706:Y *193:4 1.6 
2 *193:4 *713:C 2.9875 
3 *193:4 *707:B 9.56 
*END

*D_NET *194 0.00186912
*CONN
*I *711:B1 I *D sky130_fd_sc_hd__o211ai_1
*I *714:A3 I *D sky130_fd_sc_hd__a31o_1
*I *707:X O *D sky130_fd_sc_hd__and2b_1
*CAP
1 *711:B1 0.000314777
2 *714:A3 0.000122706
3 *707:X 5.21708e-05
4 *194:6 0.000489653
5 *711:B1 *709:B 0.000120655
6 *711:B1 *710:B 3.00381e-05
7 *711:B1 *772:B 4.77757e-05
8 *711:B1 *775:B 2.49909e-05
9 *711:B1 *775:C 4.43682e-05
10 *711:B1 *776:B 4.92062e-05
11 *711:B1 *247:6 9.40454e-05
12 *714:A3 *701:A 0.000120186
13 *714:A3 *713:B 5.08304e-06
14 *714:A3 *342:36 0.000109359
15 *707:B *711:B1 8.8266e-05
16 *707:B *194:6 4.99619e-05
17 *188:15 *711:B1 9.66021e-05
18 *188:15 *714:A3 9.27255e-06
*RES
1 *707:X *194:6 2.395 
2 *194:6 *714:A3 8.12 
3 *194:6 *711:B1 8.875 
*END

*D_NET *195 0.00166762
*CONN
*I *710:A I *D sky130_fd_sc_hd__and2_1
*I *775:B I *D sky130_fd_sc_hd__and3_1
*I *774:A1 I *D sky130_fd_sc_hd__a21oi_1
*I *708:Y O *D sky130_fd_sc_hd__nand2_1
*CAP
1 *710:A 2.27009e-05
2 *775:B 3.98087e-05
3 *774:A1 0.000197709
4 *708:Y 4.09564e-05
5 *195:14 0.000322021
6 *195:8 0.00014816
7 *710:A *776:A 4.66108e-05
8 *710:A *777:B1 4.66108e-05
9 *710:A *373:19 8.49205e-05
10 *774:A1 *709:B 6.97124e-05
11 *774:A1 *839:D 6.18754e-05
12 *774:A1 *248:10 9.15727e-05
13 *774:A1 *336:24 5.36384e-06
14 *195:8 *708:B 0.00010511
15 *195:8 *776:B 6.28843e-05
16 *195:14 *708:B 6.70881e-05
17 *195:14 *709:B 6.21553e-05
18 *195:14 *776:B 1.07797e-05
19 *195:14 *248:10 7.00025e-05
20 *711:B1 *775:B 2.49909e-05
21 *774:B1 *774:A1 8.65905e-05
*RES
1 *708:Y *195:8 4.98 
2 *195:8 *195:14 2.19 
3 *195:14 *774:A1 7.23 
4 *195:14 *775:B 4.05 
5 *195:8 *710:A 4.395 
*END

*D_NET *196 0.000401661
*CONN
*I *710:B I *D sky130_fd_sc_hd__and2_1
*I *709:X O *D sky130_fd_sc_hd__or2_1
*CAP
1 *710:B 0.000101075
2 *709:X 0.000101075
3 *710:B *709:A 0.000138551
4 *710:B *776:A 3.09233e-05
5 *711:B1 *710:B 3.00381e-05
6 *898:A *710:B 0
*RES
1 *709:X *710:B 9.285 
*END

*D_NET *197 0.00152881
*CONN
*I *773:B I *D sky130_fd_sc_hd__xor2_1
*I *772:B I *D sky130_fd_sc_hd__nand2_1
*I *711:C1 I *D sky130_fd_sc_hd__o211ai_1
*I *710:X O *D sky130_fd_sc_hd__and2_1
*CAP
1 *773:B 0
2 *772:B 0.000214598
3 *711:C1 0
4 *710:X 6.60908e-05
5 *197:12 0.000335733
6 *197:6 0.000187226
7 *772:B *198:16 6.67223e-05
8 *772:B *247:6 9.76935e-05
9 *197:6 *341:6 9.27326e-05
10 *197:12 *709:A 0
11 *711:A1 *772:B 0.000123492
12 *711:A2 *772:B 8.52845e-05
13 *711:B1 *772:B 4.77757e-05
14 *772:A *772:B 4.77757e-05
15 *773:A *197:6 1.56428e-05
16 *898:A *197:12 0.000148043
*RES
1 *710:X *197:6 3.085 
2 *197:6 *197:12 6.145 
3 *197:12 *711:C1 1.6 
4 *197:12 *772:B 6.67 
5 *197:6 *773:B 1.6 
*END

*D_NET *198 0.00313534
*CONN
*I *731:A1 I *D sky130_fd_sc_hd__a211o_1
*I *716:A I *D sky130_fd_sc_hd__nand2_1
*I *711:Y O *D sky130_fd_sc_hd__o211ai_1
*CAP
1 *731:A1 0
2 *716:A 0.00019578
3 *711:Y 0.000771945
4 *198:16 0.000967725
5 *716:A *730:A 2.61093e-05
6 *716:A *730:B 9.66021e-05
7 *716:A *731:B1 6.89716e-05
8 *716:A *842:CLK 5.83121e-06
9 *716:A *346:8 0.000272189
10 *716:A *346:21 0
11 *198:16 *599:A 0
12 *198:16 *731:A2 3.7837e-05
13 *198:16 *838:CLK 0.000114492
14 *198:16 *840:CLK 0
15 *198:16 *218:14 3.39426e-05
16 *198:16 *304:32 0
17 *198:16 *370:27 0
18 *198:16 *370:148 0.000198614
19 *711:A2 *198:16 8.52845e-05
20 *772:B *198:16 6.67223e-05
21 *773:A *198:16 3.50033e-05
22 *840:RESET_B *198:16 0.000158297
23 *898:A *198:16 0
*RES
1 *711:Y *198:16 19.16 
2 *198:16 *716:A 10.115 
3 *198:16 *731:A1 1.6 
*END

*D_NET *199 0.000196745
*CONN
*I *715:B1 I *D sky130_fd_sc_hd__a211oi_1
*I *712:X O *D sky130_fd_sc_hd__o211a_1
*CAP
1 *715:B1 6.19022e-05
2 *712:X 6.19022e-05
3 *715:B1 *308:10 5.53249e-06
4 *715:B1 *308:21 6.74079e-05
5 *715:B1 *344:10 0
*RES
1 *712:X *715:B1 8.58 
*END

*D_NET *200 0.000633168
*CONN
*I *714:B1 I *D sky130_fd_sc_hd__a31o_1
*I *713:X O *D sky130_fd_sc_hd__and3_1
*CAP
1 *714:B1 7.56317e-05
2 *713:X 7.56317e-05
3 *714:B1 *713:B 0.000201393
4 *714:B1 *777:A2 8.53113e-06
5 *714:B1 *341:14 4.82919e-05
6 *714:B1 *373:19 4.66108e-05
7 *714:B1 *374:12 0.000159957
8 *707:B *714:B1 1.71207e-05
*RES
1 *713:X *714:B1 10.05 
*END

*D_NET *201 0.00138742
*CONN
*I *715:C1 I *D sky130_fd_sc_hd__a211oi_1
*I *714:X O *D sky130_fd_sc_hd__a31o_1
*CAP
1 *715:C1 0.000369667
2 *714:X 0.000369667
3 *715:C1 *713:A 9.37731e-05
4 *715:C1 *713:B 6.8665e-05
5 *715:C1 *780:B 5.63405e-05
6 *715:C1 *906:A 0.000106657
7 *715:C1 *307:8 0
8 *715:C1 *308:10 4.70343e-05
9 *715:C1 *343:40 0
10 *715:C1 *344:10 0
11 *715:C1 *373:8 8.40269e-05
12 *715:C1 *374:20 8.53113e-06
13 *704:A *715:C1 0.000183057
14 *706:B *715:C1 0
*RES
1 *714:X *715:C1 15.495 
*END

*D_NET *202 0.00153487
*CONN
*I *731:A2 I *D sky130_fd_sc_hd__a211o_1
*I *716:B I *D sky130_fd_sc_hd__nand2_1
*I *715:Y O *D sky130_fd_sc_hd__a211oi_1
*CAP
1 *731:A2 0.000252567
2 *716:B 0.000110728
3 *715:Y 0.000355331
4 *202:6 0.000718626
5 *716:B *731:C1 0
6 *716:B *370:47 0
7 *731:A2 *370:148 5.97833e-05
8 *198:16 *731:A2 3.7837e-05
*RES
1 *715:Y *202:6 6.19 
2 *202:6 *716:B 7.235 
3 *202:6 *731:A2 5.515 
*END

*D_NET *203 0.000788337
*CONN
*I *765:A I *D sky130_fd_sc_hd__xnor2_1
*I *766:A1 I *D sky130_fd_sc_hd__a21bo_1
*I *716:Y O *D sky130_fd_sc_hd__nand2_1
*CAP
1 *765:A 0.000103943
2 *766:A1 4.82046e-05
3 *716:Y 7.95669e-05
4 *203:10 0.000231715
5 *765:A *732:B 8.57237e-05
6 *765:A *215:25 7.57202e-05
7 *766:A1 *215:25 4.66108e-05
8 *203:10 *731:C1 0
9 *203:10 *765:B 0
10 *203:10 *215:25 0.000116853
*RES
1 *716:Y *203:10 7.235 
2 *203:10 *766:A1 2.395 
3 *203:10 *765:A 3.775 
*END

*D_NET *204 0.00223892
*CONN
*I *734:A I *D sky130_fd_sc_hd__or3_1
*I *719:A I *D sky130_fd_sc_hd__nand2_1
*I *768:B1_N I *D sky130_fd_sc_hd__a21bo_1
*I *717:Y O *D sky130_fd_sc_hd__nand2_1
*CAP
1 *734:A 3.85114e-05
2 *719:A 7.26955e-06
3 *768:B1_N 0
4 *717:Y 0.000154221
5 *204:15 0.000506429
6 *204:6 0.000614869
7 *719:A *719:B 1.85674e-05
8 *719:A *734:C 9.53428e-06
9 *734:A *726:A 3.64998e-06
10 *734:A *734:C 3.95724e-05
11 *734:A *847:CLK 0
12 *734:A *209:16 6.07575e-06
13 *734:A *304:84 4.99619e-05
14 *204:6 *717:A 0.000124007
15 *204:6 *311:12 0.00012657
16 *204:15 *719:B 0.000426206
17 *204:15 *726:A 7.67415e-06
18 *204:15 *767:A 1.61831e-05
19 *204:15 *205:6 5.29938e-05
20 *204:15 *311:12 3.66286e-05
*RES
1 *717:Y *204:6 3.775 
2 *204:6 *768:B1_N 1.6 
3 *204:6 *204:15 6.33 
4 *204:15 *719:A 1.96 
5 *204:15 *734:A 2.755 
*END

*D_NET *205 0.00123679
*CONN
*I *719:B I *D sky130_fd_sc_hd__nand2_1
*I *768:A1 I *D sky130_fd_sc_hd__a21bo_1
*I *718:X O *D sky130_fd_sc_hd__or2_1
*CAP
1 *719:B 0.000122096
2 *768:A1 0
3 *718:X 9.09119e-05
4 *205:6 0.000213008
5 *719:B *767:A 7.75867e-05
6 *719:B *767:B 2.75229e-05
7 *719:B *768:A2 0.000119631
8 *205:6 *311:12 8.8266e-05
9 *719:A *719:B 1.85674e-05
10 *204:15 *719:B 0.000426206
11 *204:15 *205:6 5.29938e-05
*RES
1 *718:X *205:6 3.43 
2 *205:6 *768:A1 1.6 
3 *205:6 *719:B 6.22 
*END

*D_NET *206 0.000852774
*CONN
*I *726:A I *D sky130_fd_sc_hd__nor3_1
*I *767:A I *D sky130_fd_sc_hd__xnor2_1
*I *719:Y O *D sky130_fd_sc_hd__nand2_1
*CAP
1 *726:A 0.000140862
2 *767:A 5.14208e-05
3 *719:Y 0
4 *206:4 0.000192283
5 *726:A *726:B 9.5433e-05
6 *726:A *726:C 2.61226e-05
7 *726:A *727:A 4.82919e-05
8 *726:A *734:C 5.4155e-06
9 *726:A *209:16 4.82863e-05
10 *726:A *214:14 4.99619e-05
11 *726:A *244:10 0
12 *767:A *734:C 0
13 *767:A *209:16 8.96017e-05
14 *719:B *767:A 7.75867e-05
15 *734:A *726:A 3.64998e-06
16 *204:15 *726:A 7.67415e-06
17 *204:15 *767:A 1.61831e-05
*RES
1 *719:Y *206:4 1.6 
2 *206:4 *767:A 3.445 
3 *206:4 *726:A 9.005 
*END

*D_NET *207 0.00111729
*CONN
*I *722:A I *D sky130_fd_sc_hd__nand2_1
*I *770:A1 I *D sky130_fd_sc_hd__a21bo_1
*I *720:X O *D sky130_fd_sc_hd__or2_1
*CAP
1 *722:A 0.000118601
2 *770:A1 6.10042e-05
3 *720:X 8.49259e-05
4 *207:8 0.000264531
5 *722:A *720:A 0.000162318
6 *722:A *909:A 0
7 *722:A *209:10 0.000178677
8 *722:A *304:84 0
9 *770:A1 *209:10 8.53113e-06
10 *770:A1 *209:16 0.000118513
11 *770:A1 *304:84 0
12 *207:8 *844:CLK 7.35813e-05
13 *872:A *722:A 4.66108e-05
*RES
1 *720:X *207:8 4.74 
2 *207:8 *770:A1 4.98 
3 *207:8 *722:A 6.705 
*END

*D_NET *208 0.00208942
*CONN
*I *722:B I *D sky130_fd_sc_hd__nand2_1
*I *733:A_N I *D sky130_fd_sc_hd__nand2b_1
*I *770:B1_N I *D sky130_fd_sc_hd__a21bo_1
*I *721:Y O *D sky130_fd_sc_hd__nand2_1
*CAP
1 *722:B 7.56322e-05
2 *733:A_N 0.000139305
3 *770:B1_N 7.77117e-06
4 *721:Y 0
5 *208:10 0.000326871
6 *208:4 0.000255426
7 *722:B *721:A 3.20741e-05
8 *722:B *721:B 5.4155e-06
9 *722:B *209:10 1.08758e-05
10 *733:A_N *770:A2 0.000160641
11 *733:A_N *771:A 7.15196e-05
12 *733:A_N *771:B 7.22354e-05
13 *733:A_N *212:18 4.30228e-05
14 *733:A_N *370:77 0.00057431
15 *770:B1_N *770:A2 4.82863e-05
16 *770:B1_N *370:77 4.99619e-05
17 *208:10 *909:A 0
18 *208:10 *209:10 9.87538e-05
19 *208:10 *209:16 8.78735e-05
20 *208:10 *245:10 2.24336e-05
21 *844:RESET_B *208:10 0
22 *872:A *722:B 7.00889e-06
*RES
1 *721:Y *208:4 1.6 
2 *208:4 *208:10 7.93 
3 *208:10 *770:B1_N 2.05 
4 *208:10 *733:A_N 7.24 
5 *208:4 *722:B 3.115 
*END

*D_NET *209 0.00355241
*CONN
*I *769:A I *D sky130_fd_sc_hd__xnor2_1
*I *734:B I *D sky130_fd_sc_hd__or3_1
*I *726:B I *D sky130_fd_sc_hd__nor3_1
*I *722:Y O *D sky130_fd_sc_hd__nand2_1
*CAP
1 *769:A 0.000536489
2 *734:B 0
3 *726:B 7.77859e-05
4 *722:Y 0.000120352
5 *209:16 0.000468298
6 *209:10 0.00104735
7 *726:B *726:C 5.02217e-05
8 *726:B *843:CLK 8.65905e-05
9 *769:A *720:B 1.46022e-05
10 *769:A *844:CLK 2.75145e-05
11 *769:A *844:D 0.000177127
12 *769:A *908:A 0
13 *769:A *912:A 0.000143266
14 *769:A *348:6 1.54878e-05
15 *209:16 *726:C 0
16 *209:16 *734:C 5.83121e-06
17 *209:16 *909:A 0
18 *209:16 *244:10 3.05295e-05
19 *209:16 *245:10 0
20 *209:16 *304:84 0
21 *722:A *209:10 0.000178677
22 *722:B *209:10 1.08758e-05
23 *726:A *726:B 9.5433e-05
24 *726:A *209:16 4.82863e-05
25 *734:A *209:16 6.07575e-06
26 *767:A *209:16 8.96017e-05
27 *770:A1 *209:10 8.53113e-06
28 *770:A1 *209:16 0.000118513
29 *872:A *209:10 8.34281e-06
30 *208:10 *209:10 9.87538e-05
31 *208:10 *209:16 8.78735e-05
*RES
1 *722:Y *209:10 6.195 
2 *209:10 *209:16 8.36 
3 *209:16 *726:B 7.52 
4 *209:16 *734:B 1.6 
5 *209:10 *769:A 14.86 
*END

*D_NET *210 0.00293025
*CONN
*I *735:A I *D sky130_fd_sc_hd__and4_1
*I *725:A I *D sky130_fd_sc_hd__nand2_1
*I *723:Y O *D sky130_fd_sc_hd__nand2_1
*CAP
1 *735:A 0.000613801
2 *725:A 0.00021077
3 *723:Y 7.44811e-05
4 *210:6 0.000899053
5 *725:A *604:A 5.39961e-05
6 *725:A *723:A 1.34503e-05
7 *725:A *725:B 5.18317e-06
8 *725:A *212:18 1.4389e-05
9 *735:A *724:A 3.45117e-05
10 *735:A *725:B 1.07797e-05
11 *735:A *735:C 0.000237218
12 *735:A *212:18 0.00017234
13 *735:A *304:69 0.000185405
14 *735:A *349:8 9.60582e-07
15 *735:A *349:21 0.000116165
16 *210:6 *723:A 2.67275e-05
17 acc[23] *725:A 8.52845e-05
18 *845:RESET_B *735:A 3.05423e-05
19 *873:A *725:A 9.28507e-05
20 *873:A *735:A 5.23362e-05
*RES
1 *723:Y *210:6 2.74 
2 *210:6 *725:A 9.425 
3 *210:6 *735:A 21.255 
*END

*D_NET *211 0.0014011
*CONN
*I *725:B I *D sky130_fd_sc_hd__nand2_1
*I *733:B I *D sky130_fd_sc_hd__nand2b_1
*I *724:X O *D sky130_fd_sc_hd__or2_1
*CAP
1 *725:B 0.000303628
2 *733:B 9.22377e-06
3 *724:X 5.70648e-05
4 *211:6 0.000369917
5 *725:B *845:D 0.000166308
6 *725:B *212:18 0.000160597
7 *725:B *304:84 0
8 *733:B *212:18 6.07768e-05
9 *733:B *370:77 6.24524e-05
10 *211:6 *212:18 4.66108e-05
11 *211:6 *370:77 0.000148554
12 *725:A *725:B 5.18317e-06
13 *735:A *725:B 1.07797e-05
*RES
1 *724:X *211:6 3.085 
2 *211:6 *733:B 2.1625 
3 *211:6 *725:B 15.03 
*END

*D_NET *212 0.00264817
*CONN
*I *726:C I *D sky130_fd_sc_hd__nor3_1
*I *734:C I *D sky130_fd_sc_hd__or3_1
*I *771:A I *D sky130_fd_sc_hd__xnor2_1
*I *725:Y O *D sky130_fd_sc_hd__nand2_1
*CAP
1 *726:C 0.000130277
2 *734:C 5.45133e-05
3 *771:A 7.68028e-05
4 *725:Y 0.000240957
5 *212:35 0.000404449
6 *212:18 0.000537418
7 *726:C *735:C 0
8 *726:C *735:D 0.000133178
9 *726:C *214:14 0
10 *734:C *304:84 1.34503e-05
11 *212:18 *845:D 0.000157697
12 *212:18 *370:77 2.64061e-05
13 *212:35 *735:D 2.68548e-05
14 *212:35 *304:84 4.61244e-05
15 *719:A *734:C 9.53428e-06
16 *725:A *212:18 1.4389e-05
17 *725:B *212:18 0.000160597
18 *726:A *726:C 2.61226e-05
19 *726:A *734:C 5.4155e-06
20 *726:B *726:C 5.02217e-05
21 *733:A_N *771:A 7.15196e-05
22 *733:A_N *212:18 4.30228e-05
23 *733:B *212:18 6.07768e-05
24 *734:A *734:C 3.95724e-05
25 *735:A *212:18 0.00017234
26 *767:A *734:C 0
27 *845:RESET_B *212:18 9.40874e-05
28 *209:16 *726:C 0
29 *209:16 *734:C 5.83121e-06
30 *211:6 *212:18 4.66108e-05
*RES
1 *725:Y *212:18 12.2 
2 *212:18 *771:A 3.1 
3 *212:18 *212:35 7.54 
4 *212:35 *734:C 2.755 
5 *212:35 *726:C 8.555 
*END

*D_NET *213 0.000475411
*CONN
*I *727:A I *D sky130_fd_sc_hd__inv_2
*I *726:Y O *D sky130_fd_sc_hd__nor3_1
*CAP
1 *727:A 8.51942e-05
2 *726:Y 8.51942e-05
3 *727:A *843:CLK 0.000169395
4 *727:A *214:14 8.73359e-05
5 *726:A *727:A 4.82919e-05
*RES
1 *726:Y *727:A 5.855 
*END

*D_NET *214 0.00201058
*CONN
*I *732:A I *D sky130_fd_sc_hd__or2_1
*I *731:B1 I *D sky130_fd_sc_hd__a211o_1
*I *727:Y O *D sky130_fd_sc_hd__inv_2
*CAP
1 *732:A 0.000168651
2 *731:B1 0.000171151
3 *727:Y 0.000248082
4 *214:14 0.000587884
5 *731:B1 *731:C1 0.000222119
6 *731:B1 *765:B 0.000104625
7 *732:A *732:B 8.52883e-05
8 *732:A *736:A1 0
9 *732:A *736:A2 0
10 *732:A *842:D 8.86801e-05
11 *732:A *222:12 4.18421e-05
12 *732:A *304:19 6.17587e-06
13 *214:14 *765:B 1.15399e-05
14 *214:14 *843:CLK 1.61831e-05
15 *214:14 *222:12 5.2089e-05
16 *214:14 *244:10 0
17 *214:14 *304:19 0
18 *716:A *731:B1 6.89716e-05
19 *726:A *214:14 4.99619e-05
20 *726:C *214:14 0
21 *727:A *214:14 8.73359e-05
*RES
1 *727:Y *214:14 7.7475 
2 *214:14 *731:B1 7.4025 
3 *214:14 *732:A 6.8175 
*END

*D_NET *215 0.00223707
*CONN
*I *766:B1_N I *D sky130_fd_sc_hd__a21bo_1
*I *732:B I *D sky130_fd_sc_hd__or2_1
*I *730:A I *D sky130_fd_sc_hd__nand2_1
*I *728:Y O *D sky130_fd_sc_hd__nand2_1
*CAP
1 *766:B1_N 0
2 *732:B 0.000209891
3 *730:A 0.000188049
4 *728:Y 0.000113358
5 *215:25 0.000306505
6 *215:6 0.000398021
7 *730:A *730:B 0.000258374
8 *730:A *217:8 4.66108e-05
9 *732:B *222:12 0.00013919
10 *215:6 *730:B 4.35432e-05
11 *215:6 *346:8 3.52139e-06
12 *215:6 *346:21 3.00381e-05
13 *215:25 *730:B 6.36578e-05
14 *716:A *730:A 2.61093e-05
15 *732:A *732:B 8.52883e-05
16 *765:A *732:B 8.57237e-05
17 *765:A *215:25 7.57202e-05
18 *766:A1 *215:25 4.66108e-05
19 *203:10 *215:25 0.000116853
*RES
1 *728:Y *215:6 3.085 
2 *215:6 *730:A 5.44 
3 *215:6 *215:25 6.52 
4 *215:25 *732:B 5.89 
5 *215:25 *766:B1_N 1.6 
*END

*D_NET *216 0.00103842
*CONN
*I *766:A2 I *D sky130_fd_sc_hd__a21bo_1
*I *730:B I *D sky130_fd_sc_hd__nand2_1
*I *729:X O *D sky130_fd_sc_hd__or2_1
*CAP
1 *766:A2 0
2 *730:B 0.000178314
3 *729:X 7.95331e-05
4 *216:6 0.000257847
5 *730:B *731:C1 0
6 *730:B *346:8 6.05513e-05
7 *730:B *370:47 0
8 *716:A *730:B 9.66021e-05
9 *730:A *730:B 0.000258374
10 *215:6 *730:B 4.35432e-05
11 *215:25 *730:B 6.36578e-05
*RES
1 *729:X *216:6 2.74 
2 *216:6 *730:B 10.715 
3 *216:6 *766:A2 1.6 
*END

*D_NET *217 0.000842561
*CONN
*I *765:B I *D sky130_fd_sc_hd__xnor2_1
*I *731:C1 I *D sky130_fd_sc_hd__a211o_1
*I *730:Y O *D sky130_fd_sc_hd__nand2_1
*CAP
1 *765:B 5.89999e-05
2 *731:C1 0.000132874
3 *730:Y 3.69588e-05
4 *217:8 0.000228833
5 *716:B *731:C1 0
6 *730:A *217:8 4.66108e-05
7 *730:B *731:C1 0
8 *731:B1 *731:C1 0.000222119
9 *731:B1 *765:B 0.000104625
10 *203:10 *731:C1 0
11 *203:10 *765:B 0
12 *214:14 *765:B 1.15399e-05
*RES
1 *730:Y *217:8 4.05 
2 *217:8 *731:C1 6.255 
3 *217:8 *765:B 4.98 
*END

*D_NET *218 0.00211373
*CONN
*I *737:A1 I *D sky130_fd_sc_hd__a21o_1
*I *756:B I *D sky130_fd_sc_hd__and3_1
*I *736:A1 I *D sky130_fd_sc_hd__a21oi_1
*I *731:X O *D sky130_fd_sc_hd__a211o_1
*CAP
1 *737:A1 1.19844e-05
2 *756:B 0.000160203
3 *736:A1 1.29535e-05
4 *731:X 0.000375293
5 *218:23 0.000210523
6 *218:14 0.000426581
7 *736:A1 *736:A2 9.13949e-06
8 *736:A1 *737:A2 9.13949e-06
9 *737:A1 *737:A2 4.00541e-06
10 *756:B *757:A 0.000124895
11 *756:B *757:B 8.65961e-05
12 *218:14 *842:D 7.06865e-05
13 *218:14 *222:12 9.28568e-05
14 *218:14 *222:21 2.20014e-05
15 *218:14 *304:19 4.84472e-05
16 *218:14 *370:148 1.06688e-05
17 *218:23 *737:A2 8.8266e-05
18 *218:23 *757:A 4.60584e-05
19 *218:23 *222:21 2.23611e-05
20 *732:A *736:A1 0
21 *736:B1 *737:A1 5.4155e-06
22 *736:B1 *756:B 2.7441e-05
23 *736:B1 *218:23 2.30292e-05
24 *120:18 *756:B 0.000191243
25 *198:16 *218:14 3.39426e-05
*RES
1 *731:X *218:14 11.99 
2 *218:14 *736:A1 1.96 
3 *218:14 *218:23 1.485 
4 *218:23 *756:B 5.875 
5 *218:23 *737:A1 1.96 
*END

*D_NET *219 0.000533124
*CONN
*I *735:B I *D sky130_fd_sc_hd__and4_1
*I *732:X O *D sky130_fd_sc_hd__or2_1
*CAP
1 *735:B 0.00015125
2 *732:X 0.00015125
3 *735:B *222:12 0.000160488
4 *735:B *304:19 7.01359e-05
*RES
1 *732:X *735:B 9.555 
*END

*D_NET *220 0.000974757
*CONN
*I *735:C I *D sky130_fd_sc_hd__and4_1
*I *733:Y O *D sky130_fd_sc_hd__nand2b_1
*CAP
1 *735:C 0.000285986
2 *733:Y 0.000285986
3 *735:C *843:CLK 4.77719e-05
4 *735:C *304:19 2.84864e-05
5 *735:C *304:69 4.38721e-06
6 *735:C *370:77 8.49205e-05
7 *726:C *735:C 0
8 *735:A *735:C 0.000237218
*RES
1 *733:Y *735:C 12.675 
*END

*D_NET *221 0.000616891
*CONN
*I *735:D I *D sky130_fd_sc_hd__and4_1
*I *734:X O *D sky130_fd_sc_hd__or3_1
*CAP
1 *735:D 0.000185785
2 *734:X 0.000185785
3 *735:D *843:CLK 8.52883e-05
4 *726:C *735:D 0.000133178
5 *212:35 *735:D 2.68548e-05
*RES
1 *734:X *735:D 10.635 
*END

*D_NET *222 0.00230253
*CONN
*I *756:C I *D sky130_fd_sc_hd__and3_1
*I *737:A2 I *D sky130_fd_sc_hd__a21o_1
*I *736:A2 I *D sky130_fd_sc_hd__a21oi_1
*I *735:X O *D sky130_fd_sc_hd__and4_1
*CAP
1 *756:C 0.000331724
2 *737:A2 2.21179e-05
3 *736:A2 1.29887e-05
4 *735:X 0.000230176
5 *222:21 0.000391129
6 *222:12 0.000280451
7 *732:A *736:A2 0
8 *732:A *222:12 4.18421e-05
9 *732:B *222:12 0.00013919
10 *735:B *222:12 0.000160488
11 *736:A1 *736:A2 9.13949e-06
12 *736:A1 *737:A2 9.13949e-06
13 *736:B1 *737:A2 4.99619e-05
14 *736:B1 *756:C 0.000164874
15 *737:A1 *737:A2 4.00541e-06
16 *120:18 *756:C 0.000177725
17 *214:14 *222:12 5.2089e-05
18 *218:14 *222:12 9.28568e-05
19 *218:14 *222:21 2.20014e-05
20 *218:23 *737:A2 8.8266e-05
21 *218:23 *222:21 2.23611e-05
*RES
1 *735:X *222:12 10.625 
2 *222:12 *736:A2 1.96 
3 *222:12 *222:21 0.795 
4 *222:21 *737:A2 2.755 
5 *222:21 *756:C 6.4525 
*END

*D_NET *223 0.000980523
*CONN
*I *757:A I *D sky130_fd_sc_hd__nor2_1
*I *736:Y O *D sky130_fd_sc_hd__a21oi_1
*CAP
1 *757:A 0.000322563
2 *736:Y 0.000322563
3 *757:A *605:A 4.99619e-05
4 *757:A *757:B 0.000114483
5 *756:B *757:A 0.000124895
6 *842:RESET_B *757:A 0
7 *218:23 *757:A 4.60584e-05
*RES
1 *736:Y *757:A 12.9 
*END

*D_NET *224 0.00242738
*CONN
*I *739:A3 I *D sky130_fd_sc_hd__a311o_1
*I *738:A3 I *D sky130_fd_sc_hd__a31oi_1
*I *761:A2 I *D sky130_fd_sc_hd__a21o_1
*I *758:B I *D sky130_fd_sc_hd__nand2_1
*I *737:X O *D sky130_fd_sc_hd__a21o_1
*CAP
1 *739:A3 3.33456e-05
2 *738:A3 0.000130971
3 *761:A2 2.08101e-05
4 *758:B 0
5 *737:X 0.000277646
6 *224:32 0.000244199
7 *224:23 0.000317565
8 *224:12 0.000494519
9 *738:A3 *747:A 0
10 *739:A3 *857:A 6.77501e-05
11 *224:12 *857:A 8.8266e-05
12 *224:23 *857:A 6.39688e-05
13 *224:32 *857:A 8.57237e-05
14 *738:A2 *738:A3 2.49909e-05
15 *738:B1 *738:A3 0
16 *739:A2 *738:A3 7.30547e-05
17 *739:A2 *739:A3 0.000157589
18 *739:A2 *224:32 4.66108e-05
19 *761:B1 *224:32 4.82919e-05
20 *118:10 *738:A3 5.81675e-05
21 *118:21 *738:A3 7.06865e-05
22 *120:14 *224:12 0
23 *120:14 *224:23 0.000123225
*RES
1 *737:X *224:12 10.1 
2 *224:12 *758:B 1.6 
3 *224:12 *224:23 3.84 
4 *224:23 *761:A2 1.96 
5 *224:23 *224:32 1.83 
6 *224:32 *738:A3 8.195 
7 *224:32 *739:A3 3.1 
*END

*D_NET *225 0.000274295
*CONN
*I *740:B I *D sky130_fd_sc_hd__xnor2_1
*I *738:Y O *D sky130_fd_sc_hd__a31oi_1
*CAP
1 *740:B 0.000130772
2 *738:Y 0.000130772
3 *740:B *301:28 0
4 *740:B *351:12 0
5 *738:A1 *740:B 8.69386e-06
6 *738:B1 *740:B 4.05674e-06
*RES
1 *738:Y *740:B 9.03 
*END

*D_NET *226 0.00504449
*CONN
*I *753:A1 I *D sky130_fd_sc_hd__a21oi_1
*I *749:A2 I *D sky130_fd_sc_hd__a31o_1
*I *744:B I *D sky130_fd_sc_hd__nand2_1
*I *739:X O *D sky130_fd_sc_hd__a311o_1
*CAP
1 *753:A1 0.000456324
2 *749:A2 0.000259642
3 *744:B 2.83327e-05
4 *739:X 0.000328988
5 *226:17 0.000772087
6 *226:8 0.000413441
7 *749:A2 *745:B 0.000113797
8 *749:A2 *749:B1 1.99109e-05
9 *749:A2 *849:CLK 0.000111176
10 *749:A2 *227:27 8.15295e-05
11 *749:A2 *232:35 0
12 *753:A1 *615:B 4.82863e-05
13 *753:A1 *745:B 4.82919e-05
14 *753:A1 *747:B 9.80943e-06
15 *753:A1 *753:A2 0.000110502
16 *753:A1 *754:A 0.000335615
17 *753:A1 *851:D 6.63219e-06
18 *753:A1 *852:CLK 7.96104e-06
19 *753:A1 *919:A 7.23602e-05
20 *753:A1 *305:96 0
21 *753:A1 *320:14 0.000234674
22 *226:8 *857:A 2.8585e-06
23 *226:17 *745:B 0.000275542
24 *626:B *749:A2 4.21973e-05
25 *628:B1 *749:A2 2.99518e-06
26 *630:A1 *749:A2 0.000129526
27 *738:B1 *226:8 4.41506e-05
28 *739:A2 *226:8 0.00012657
29 *739:B1 *744:B 0
30 *739:C1 *744:B 0
31 *749:A1 *749:A2 5.5746e-05
32 *878:A *749:A2 5.75488e-05
33 *880:A *753:A1 0.000103069
34 *101:31 *753:A1 1.88904e-05
35 *103:16 *744:B 3.18367e-05
36 *103:16 *753:A1 0.000301306
37 *103:16 *226:8 9.27255e-06
38 *103:16 *226:17 0.000293406
39 *117:12 *226:8 9.02174e-05
*RES
1 *739:X *226:8 5.86 
2 *226:8 *744:B 2.215 
3 *226:8 *226:17 2.865 
4 *226:17 *749:A2 11.495 
5 *226:17 *753:A1 13.7941 
*END

*D_NET *227 0.00671958
*CONN
*I *749:B1 I *D sky130_fd_sc_hd__a31o_1
*I *743:A_N I *D sky130_fd_sc_hd__nand2b_1
*I *752:A1 I *D sky130_fd_sc_hd__a21o_1
*I *741:Y O *D sky130_fd_sc_hd__nor2_1
*CAP
1 *749:B1 3.02592e-05
2 *743:A_N 0.000447795
3 *752:A1 0.000121859
4 *741:Y 0.000362658
5 *227:27 0.0014366
6 *227:10 0.00144306
7 *743:A_N *743:B 2.62903e-05
8 *743:A_N *745:A 9.98285e-05
9 *743:A_N *747:A 2.3478e-05
10 *743:A_N *754:A 7.96972e-05
11 *743:A_N *849:CLK 0.000102144
12 *743:A_N *849:D 3.00381e-05
13 *743:A_N *915:A 3.69766e-05
14 *743:A_N *316:20 3.61989e-05
15 *752:A1 *742:B 0.000122331
16 *227:10 *741:B 0.000203996
17 *227:10 *754:B 0.00022755
18 *227:10 *923:A 2.92496e-05
19 *227:10 *356:31 0.000140248
20 *227:10 *358:31 0.000107571
21 *227:10 *359:8 4.66108e-05
22 *227:27 *746:B 5.07362e-05
23 *227:27 *752:A2 0
24 *227:27 *852:D 0.000128793
25 *227:27 *358:31 6.83087e-05
26 acc[1] *227:10 6.72027e-05
27 acc[29] *227:10 2.10433e-05
28 *626:A *227:27 1.34594e-05
29 *626:B *743:A_N 0.000135442
30 *626:B *749:B1 4.82863e-05
31 *626:B *227:27 6.07575e-06
32 *628:B1 *227:27 0.000119762
33 *630:A2 *743:A_N 0.000266753
34 *630:B1 *743:A_N 3.86159e-05
35 *749:A2 *749:B1 1.99109e-05
36 *749:A2 *227:27 8.15295e-05
37 *851:RESET_B *227:10 0.000270229
38 *852:RESET_B *227:10 1.16597e-05
39 *852:RESET_B *227:27 2.88506e-05
40 *866:A *227:10 2.94504e-05
41 *879:A *227:10 0.00012503
42 *880:A *743:A_N 2.05571e-05
43 *883:A *743:A_N 9.93012e-06
44 *107:16 *227:27 3.52139e-06
*RES
1 *741:Y *227:10 13.935 
2 *227:10 *752:A1 5.085 
3 *227:10 *227:27 14.18 
4 *227:27 *743:A_N 13.9159 
5 *227:27 *749:B1 2.41 
*END

*D_NET *228 0.00371973
*CONN
*I *751:A1 I *D sky130_fd_sc_hd__o211a_1
*I *749:A3 I *D sky130_fd_sc_hd__a31o_1
*I *743:B I *D sky130_fd_sc_hd__nand2b_1
*I *742:Y O *D sky130_fd_sc_hd__nand2_1
*CAP
1 *751:A1 1.73276e-05
2 *749:A3 5.34474e-05
3 *743:B 0.000387841
4 *742:Y 0.000364842
5 *228:20 0.000651544
6 *228:14 0.000592425
7 *743:B *745:A 0.000290106
8 *743:B *747:A 1.22505e-05
9 *743:B *915:A 1.79536e-05
10 *743:B *316:20 5.06605e-05
11 *749:A3 *232:35 5.61453e-05
12 *751:A1 *751:A2 9.03508e-06
13 *228:14 *742:A 0.000107998
14 *228:14 *746:A 2.67275e-05
15 *228:14 *751:A2 2.30292e-05
16 *228:14 *852:CLK 7.04485e-05
17 *228:14 *852:D 3.24131e-05
18 *228:14 *918:A 8.40269e-05
19 *228:14 *232:35 0
20 *228:14 *354:12 8.49205e-05
21 *228:20 *751:A2 2.75229e-05
22 *228:20 *751:B1 3.09179e-05
23 *228:20 *316:20 8.59514e-06
24 acc[26] *228:14 0
25 *628:B1 *228:14 0
26 *630:A2 *743:B 0.000208472
27 *630:B1 *743:B 6.03947e-06
28 *743:A_N *743:B 2.62903e-05
29 *749:A1 *743:B 2.75229e-05
30 *749:A1 *749:A3 0.000111061
31 *749:A1 *228:20 6.26945e-05
32 *849:RESET_B *228:14 0.000166692
33 *883:A *743:B 0.000110778
34 *107:12 *228:14 0
*RES
1 *742:Y *228:14 12.995 
2 *228:14 *228:20 2.985 
3 *228:20 *743:B 11.3131 
4 *228:20 *749:A3 6.98 
5 *228:14 *751:A1 1.96 
*END

*D_NET *229 0.00126105
*CONN
*I *745:A I *D sky130_fd_sc_hd__xnor2_1
*I *743:Y O *D sky130_fd_sc_hd__nand2b_1
*CAP
1 *745:A 0.000331769
2 *743:Y 0.000331769
3 *745:A *316:20 9.89532e-05
4 *630:A1 *745:A 6.71882e-05
5 *630:B1 *745:A 4.14339e-05
6 *743:A_N *745:A 9.98285e-05
7 *743:B *745:A 0.000290106
*RES
1 *743:Y *745:A 10.145 
*END

*D_NET *230 0.00102477
*CONN
*I *745:B I *D sky130_fd_sc_hd__xnor2_1
*I *744:Y O *D sky130_fd_sc_hd__nand2_1
*CAP
1 *745:B 0.000258225
2 *744:Y 0.000258225
3 *745:B *232:10 0
4 *745:B *320:14 7.06865e-05
5 *749:A2 *745:B 0.000113797
6 *753:A1 *745:B 4.82919e-05
7 *226:17 *745:B 0.000275542
*RES
1 *744:Y *745:B 11.445 
*END

*D_NET *231 0.00258417
*CONN
*I *752:B1 I *D sky130_fd_sc_hd__a21o_1
*I *751:A2 I *D sky130_fd_sc_hd__o211a_1
*I *748:A_N I *D sky130_fd_sc_hd__and2b_1
*I *746:Y O *D sky130_fd_sc_hd__nor2_1
*CAP
1 *752:B1 0
2 *751:A2 0.000208792
3 *748:A_N 6.00919e-05
4 *746:Y 9.66312e-05
5 *231:27 0.000382464
6 *231:12 0.000330395
7 *748:A_N *917:A 0.000121437
8 *748:A_N *919:A 8.49205e-05
9 *751:A2 *742:B 6.52265e-05
10 *751:A2 *751:B1 3.18332e-05
11 *751:A2 *753:A2 4.66742e-05
12 *751:A2 *316:20 0.00018371
13 *231:12 *608:A 9.44791e-05
14 *231:12 *919:A 3.68999e-05
15 *231:27 *608:A 7.21296e-06
16 *231:27 *742:B 4.82863e-05
17 *231:27 *752:A2 0.000305629
18 *231:27 *919:A 0.000184508
19 acc[26] *748:A_N 0.000198046
20 *751:A1 *751:A2 9.03508e-06
21 *849:RESET_B *748:A_N 1.46744e-05
22 *849:RESET_B *231:12 2.26739e-05
23 *228:14 *751:A2 2.30292e-05
24 *228:20 *751:A2 2.75229e-05
*RES
1 *746:Y *231:12 7.52 
2 *231:12 *748:A_N 3.775 
3 *231:12 *231:27 8.89 
4 *231:27 *751:A2 6.22 
5 *231:27 *752:B1 1.6 
*END

*D_NET *232 0.00585557
*CONN
*I *752:A2 I *D sky130_fd_sc_hd__a21o_1
*I *748:B I *D sky130_fd_sc_hd__and2b_1
*I *751:B1 I *D sky130_fd_sc_hd__o211a_1
*I *747:Y O *D sky130_fd_sc_hd__nand2_1
*CAP
1 *752:A2 0.000389871
2 *748:B 0
3 *751:B1 4.98684e-05
4 *747:Y 0.00075709
5 *232:35 0.000783502
6 *232:10 0.00120059
7 *751:B1 *316:20 0.000160641
8 *752:A2 *742:B 4.66108e-05
9 *752:A2 *746:B 0
10 *752:A2 *917:A 4.35432e-05
11 *232:10 *747:B 0.000198186
12 *232:10 *849:CLK 0
13 *232:10 *305:12 0
14 *232:10 *305:66 0
15 *232:10 *305:96 0
16 *232:10 *320:14 2.46089e-05
17 *232:35 *750:A 0.000159134
18 *232:35 *750:B 0.000155265
19 *232:35 *852:CLK 0
20 *232:35 *917:A 1.56315e-05
21 *616:B *232:10 0.000103246
22 *744:A *232:10 0.000111567
23 *745:B *232:10 0
24 *749:A1 *751:B1 8.23457e-05
25 *749:A1 *232:35 1.29636e-05
26 *749:A2 *232:35 0
27 *749:A3 *232:35 5.61453e-05
28 *751:A2 *751:B1 3.18332e-05
29 *849:RESET_B *752:A2 0.00034189
30 *850:RESET_B *232:10 0.00042195
31 *852:RESET_B *752:A2 0.000131197
32 *101:25 *232:10 2.53191e-06
33 *101:31 *232:10 8.18916e-05
34 *101:31 *232:35 2.82846e-05
35 *107:12 *232:35 0.00012864
36 *227:27 *752:A2 0
37 *228:14 *232:35 0
38 *228:20 *751:B1 3.09179e-05
39 *231:27 *752:A2 0.000305629
*RES
1 *747:Y *232:10 15.3 
2 *232:10 *751:B1 5.445 
3 *232:10 *232:35 9.38 
4 *232:35 *748:B 1.6 
5 *232:35 *752:A2 13.625 
*END

*D_NET *233 0.000481494
*CONN
*I *750:A I *D sky130_fd_sc_hd__xnor2_1
*I *748:X O *D sky130_fd_sc_hd__and2b_1
*CAP
1 *750:A 4.45668e-05
2 *748:X 4.45668e-05
3 *750:A *917:A 0.000212713
4 *107:12 *750:A 2.0514e-05
5 *232:35 *750:A 0.000159134
*RES
1 *748:X *750:A 5.39 
*END

*D_NET *234 0.000513378
*CONN
*I *750:B I *D sky130_fd_sc_hd__xnor2_1
*I *749:X O *D sky130_fd_sc_hd__a31o_1
*CAP
1 *750:B 7.40325e-05
2 *749:X 7.40325e-05
3 *626:B *750:B 2.75145e-05
4 *628:B1 *750:B 0.000182534
5 *232:35 *750:B 0.000155265
*RES
1 *749:X *750:B 9.54 
*END

*D_NET *235 0.00147114
*CONN
*I *753:A2 I *D sky130_fd_sc_hd__a21oi_1
*I *751:X O *D sky130_fd_sc_hd__o211a_1
*CAP
1 *753:A2 0.000312266
2 *751:X 0.000312266
3 *753:A2 *611:A 8.35106e-05
4 *753:A2 *741:A 8.09021e-06
5 *753:A2 *742:A 0.000155348
6 *753:A2 *747:B 6.46363e-05
7 *753:A2 *753:B1 0.000226025
8 *753:A2 *851:D 0
9 *753:A2 *919:A 0.00011379
10 *753:A2 *355:10 9.50342e-06
11 *751:A2 *753:A2 4.66742e-05
12 *753:A1 *753:A2 0.000110502
13 *876:A *753:A2 2.8531e-05
*RES
1 *751:X *753:A2 14.82 
*END

*D_NET *236 0.000633435
*CONN
*I *753:B1 I *D sky130_fd_sc_hd__a21oi_1
*I *752:X O *D sky130_fd_sc_hd__a21o_1
*CAP
1 *753:B1 9.0417e-05
2 *752:X 9.0417e-05
3 *753:B1 *741:A 4.49939e-05
4 *753:B1 *919:A 0.000181582
5 *753:A2 *753:B1 0.000226025
*RES
1 *752:X *753:B1 10.365 
*END

*D_NET *237 0.000517707
*CONN
*I *755:A I *D sky130_fd_sc_hd__xnor2_1
*I *753:Y O *D sky130_fd_sc_hd__a21oi_1
*CAP
1 *755:A 0.000125019
2 *753:Y 0.000125019
3 *755:A *611:A 0.000139252
4 *755:A *755:B 7.35729e-05
5 *755:A *319:16 0
6 *755:A *355:10 5.48439e-05
*RES
1 *753:Y *755:A 10.32 
*END

*D_NET *238 0.000316174
*CONN
*I *755:B I *D sky130_fd_sc_hd__xnor2_1
*I *754:Y O *D sky130_fd_sc_hd__xnor2_1
*CAP
1 *755:B 9.44945e-05
2 *754:Y 9.44945e-05
3 *755:B *611:A 3.64998e-06
4 *755:B *355:10 4.99619e-05
5 *755:A *755:B 7.35729e-05
*RES
1 *754:Y *755:B 5.045 
*END

*D_NET *239 0.000667908
*CONN
*I *757:B I *D sky130_fd_sc_hd__nor2_1
*I *756:X O *D sky130_fd_sc_hd__and3_1
*CAP
1 *757:B 0.000207366
2 *756:X 0.000207366
3 *757:B *846:D 5.20968e-05
4 *756:B *757:B 8.65961e-05
5 *757:A *757:B 0.000114483
6 *846:RESET_B *757:B 0
*RES
1 *756:X *757:B 11.415 
*END

*D_NET *240 0.00114091
*CONN
*I *760:A2 I *D sky130_fd_sc_hd__a21bo_1
*I *759:B I *D sky130_fd_sc_hd__xnor2_1
*I *758:Y O *D sky130_fd_sc_hd__nand2_1
*CAP
1 *760:A2 0.000211049
2 *759:B 0
3 *758:Y 6.36069e-05
4 *240:8 0.000274655
5 *760:A2 *618:A 3.25635e-05
6 *760:A2 *618:B 4.43871e-06
7 *760:A2 *352:10 5.76412e-05
8 *760:A2 *352:25 2.28331e-05
9 *760:A2 *370:77 0
10 *240:8 *314:16 4.49328e-05
11 *619:A *760:A2 0.000132485
12 *619:A *240:8 9.50342e-06
13 *625:A *760:A2 4.24292e-06
14 *760:A1 *760:A2 0.000122325
15 *104:6 *760:A2 0.00016063
*RES
1 *758:Y *240:8 4.98 
2 *240:8 *759:B 3.6 
3 *240:8 *760:A2 8.235 
*END

*D_NET *241 0.000459782
*CONN
*I *762:B I *D sky130_fd_sc_hd__xnor2_1
*I *760:X O *D sky130_fd_sc_hd__a21bo_1
*CAP
1 *762:B 0.000102909
2 *760:X 0.000102909
3 *762:B *617:B 8.57024e-05
4 *762:B *315:12 0.000116165
5 *762:B *349:21 0
6 *762:B *370:91 5.20968e-05
*RES
1 *760:X *762:B 9.375 
*END

*D_NET *242 0.000518434
*CONN
*I *763:C I *D sky130_fd_sc_hd__and3_1
*I *761:X O *D sky130_fd_sc_hd__a21o_1
*CAP
1 *763:C 0.000202494
2 *761:X 0.000202494
3 *763:C *314:16 0
4 *624:B *763:C 0
5 *626:B *763:C 8.80347e-07
6 *630:A2 *763:C 6.63219e-06
7 *761:B1 *763:C 3.69113e-05
8 *878:A *763:C 6.36578e-05
9 *112:6 *763:C 5.36384e-06
10 *116:10 *763:C 0
*RES
1 *761:X *763:C 10.62 
*END

*D_NET *243 0.000869776
*CONN
*I *764:B I *D sky130_fd_sc_hd__xor2_1
*I *763:X O *D sky130_fd_sc_hd__and3_1
*CAP
1 *764:B 0.00014481
2 *763:X 0.00014481
3 *764:B *754:A 5.63701e-05
4 *626:B *764:B 0.000418504
5 *764:A *764:B 1.50636e-05
6 *883:A *764:B 9.02174e-05
*RES
1 *763:X *764:B 7.46 
*END

*D_NET *244 0.000814584
*CONN
*I *767:B I *D sky130_fd_sc_hd__xnor2_1
*I *768:A2 I *D sky130_fd_sc_hd__a21bo_1
*I *766:X O *D sky130_fd_sc_hd__a21bo_1
*CAP
1 *767:B 1.97819e-05
2 *768:A2 7.68423e-05
3 *766:X 0.000175302
4 *244:10 0.000271926
5 *768:A2 *843:D 2.75229e-05
6 *244:10 *843:D 6.5525e-05
7 *244:10 *909:A 0
8 *719:B *767:B 2.75229e-05
9 *719:B *768:A2 0.000119631
10 *726:A *244:10 0
11 *209:16 *244:10 3.05295e-05
12 *214:14 *244:10 0
*RES
1 *766:X *244:10 9.02 
2 *244:10 *768:A2 3.43 
3 *244:10 *767:B 2.05 
*END

*D_NET *245 0.00149121
*CONN
*I *770:A2 I *D sky130_fd_sc_hd__a21bo_1
*I *769:B I *D sky130_fd_sc_hd__xnor2_1
*I *768:X O *D sky130_fd_sc_hd__a21bo_1
*CAP
1 *770:A2 0.00013778
2 *769:B 0.000175596
3 *768:X 0.000115294
4 *245:10 0.00042867
5 *769:B *370:62 4.29107e-05
6 *769:B *370:77 1.83756e-05
7 *770:A2 *603:A 4.00541e-06
8 *770:A2 *370:77 2.59926e-05
9 *245:10 *909:A 5.43211e-05
10 *733:A_N *770:A2 0.000160641
11 *770:B1_N *770:A2 4.82863e-05
12 *844:RESET_B *245:10 1.70935e-05
13 *871:A *769:B 0.000239807
14 *208:10 *245:10 2.24336e-05
15 *209:16 *245:10 0
*RES
1 *768:X *245:10 7.745 
2 *245:10 *769:B 5.155 
3 *245:10 *770:A2 4.585 
*END

*D_NET *246 0.000185977
*CONN
*I *771:B I *D sky130_fd_sc_hd__xnor2_1
*I *770:X O *D sky130_fd_sc_hd__a21bo_1
*CAP
1 *771:B 5.68709e-05
2 *770:X 5.68709e-05
3 *733:A_N *771:B 7.22354e-05
*RES
1 *770:X *771:B 4.34 
*END

*D_NET *247 0.00178604
*CONN
*I *774:A2 I *D sky130_fd_sc_hd__a21oi_1
*I *775:C I *D sky130_fd_sc_hd__and3_1
*I *772:Y O *D sky130_fd_sc_hd__nand2_1
*CAP
1 *774:A2 7.27678e-05
2 *775:C 0.000166265
3 *772:Y 0.000430541
4 *247:6 0.000669574
5 *774:A2 *248:10 4.11194e-05
6 *775:C *709:B 6.32036e-05
7 *699:B1 *774:A2 9.50342e-06
8 *711:A1 *247:6 6.90438e-05
9 *711:B1 *775:C 4.43682e-05
10 *711:B1 *247:6 9.40454e-05
11 *772:A *247:6 2.79137e-05
12 *772:B *247:6 9.76935e-05
*RES
1 *772:Y *247:6 7.225 
2 *247:6 *775:C 3.6775 
3 *247:6 *774:A2 6.98 
*END

*D_NET *248 0.001809
*CONN
*I *776:A I *D sky130_fd_sc_hd__nor2_1
*I *777:B1 I *D sky130_fd_sc_hd__a21o_1
*I *774:Y O *D sky130_fd_sc_hd__a21oi_1
*CAP
1 *776:A 0.000185702
2 *777:B1 7.77241e-05
3 *774:Y 0.000184082
4 *248:10 0.000447508
5 *776:A *708:A 7.63282e-05
6 *776:A *709:A 1.1561e-05
7 *776:A *341:6 7.91708e-05
8 *776:A *373:19 1.91597e-05
9 *776:A *374:12 1.83756e-05
10 *777:B1 *714:A1 0
11 *777:B1 *341:6 6.71882e-05
12 *777:B1 *341:14 3.19457e-05
13 *777:B1 *373:19 5.74791e-05
14 *248:10 *709:A 3.05712e-05
15 *248:10 *776:B 0.000114492
16 *248:10 *839:CLK 3.25831e-05
17 *248:10 *839:D 0
18 *699:B1 *248:10 0
19 *710:A *776:A 4.66108e-05
20 *710:A *777:B1 4.66108e-05
21 *710:B *776:A 3.09233e-05
22 *774:A1 *248:10 9.15727e-05
23 *774:A2 *248:10 4.11194e-05
24 *854:A *776:A 4.82863e-05
25 *898:A *776:A 0
26 *195:14 *248:10 7.00025e-05
*RES
1 *774:Y *248:10 10.04 
2 *248:10 *777:B1 3.445 
3 *248:10 *776:A 9.68 
*END

*D_NET *249 0.000870543
*CONN
*I *776:B I *D sky130_fd_sc_hd__nor2_1
*I *775:X O *D sky130_fd_sc_hd__and3_1
*CAP
1 *776:B 0.000164572
2 *775:X 0.000164572
3 *776:B *708:A 0.000130721
4 *776:B *708:B 1.73877e-05
5 *776:B *709:A 0.000155928
6 *711:B1 *776:B 4.92062e-05
7 *195:8 *776:B 6.28843e-05
8 *195:14 *776:B 1.07797e-05
9 *248:10 *776:B 0.000114492
*RES
1 *775:X *776:B 11.415 
*END

*D_NET *250 0.00123556
*CONN
*I *778:B I *D sky130_fd_sc_hd__xnor2_1
*I *779:A2 I *D sky130_fd_sc_hd__a21bo_1
*I *777:X O *D sky130_fd_sc_hd__a21o_1
*CAP
1 *778:B 0
2 *779:A2 6.47666e-05
3 *777:X 0.000259707
4 *250:14 0.000324473
5 *779:A2 *343:14 9.91257e-05
6 *250:14 *599:A 0
7 *250:14 *708:A 0
8 *250:14 *708:B 0.000116165
9 *250:14 *839:D 0.000162325
10 *250:14 *343:6 3.79854e-05
11 *250:14 *343:14 7.00889e-06
12 *250:14 *370:27 0
13 *250:14 *373:19 4.66108e-05
14 *706:A *250:14 7.07801e-05
15 *778:A *250:14 4.66108e-05
*RES
1 *777:X *250:14 10.955 
2 *250:14 *779:A2 3.085 
3 *250:14 *778:B 1.6 
*END

*D_NET *251 0.000240424
*CONN
*I *780:B I *D sky130_fd_sc_hd__xnor2_1
*I *779:X O *D sky130_fd_sc_hd__a21bo_1
*CAP
1 *780:B 5.42722e-05
2 *779:X 5.42722e-05
3 *780:B *343:40 7.55391e-05
4 *715:C1 *780:B 5.63405e-05
*RES
1 *779:X *780:B 8.835 
*END

*D_NET *252 0.00207152
*CONN
*I *783:B I *D sky130_fd_sc_hd__xnor2_1
*I *784:A2 I *D sky130_fd_sc_hd__a21bo_1
*I *782:X O *D sky130_fd_sc_hd__a21bo_1
*CAP
1 *783:B 0
2 *784:A2 0.000124484
3 *782:X 0.00025746
4 *252:12 0.000381944
5 *784:A2 *683:A 0.000161204
6 *784:A2 *350:12 8.16944e-05
7 *252:12 *686:A 0.000114492
8 *252:12 *302:6 0.000224005
9 *252:12 *302:10 8.23457e-05
10 *684:B *784:A2 0.000397093
11 *699:B1 *252:12 0.000114492
12 *783:A *784:A2 8.23457e-05
13 *784:A1 *784:A2 4.99619e-05
*RES
1 *782:X *252:12 9.845 
2 *252:12 *784:A2 6.535 
3 *252:12 *783:B 1.6 
*END

*D_NET *253 0.00142954
*CONN
*I *786:A2 I *D sky130_fd_sc_hd__a21bo_1
*I *785:B I *D sky130_fd_sc_hd__xnor2_1
*I *784:X O *D sky130_fd_sc_hd__a21bo_1
*CAP
1 *786:A2 5.122e-05
2 *785:B 0.000148473
3 *784:X 0.000212863
4 *253:8 0.000412556
5 *785:B *836:CLK 8.53113e-06
6 *785:B *837:D 5.42473e-05
7 *786:A2 *332:12 0.000275553
8 *253:8 *787:B 0
9 *253:8 *837:D 5.4256e-05
10 *253:8 *862:A 0
11 *253:8 *903:A 0
12 *785:A *785:B 5.00071e-05
13 *785:A *786:A2 0.000161837
14 *854:A *253:8 0
15 *892:A *785:B 0
16 *169:21 *253:8 0
*RES
1 *784:X *253:8 7.275 
2 *253:8 *785:B 6.75 
3 *253:8 *786:A2 6.12 
*END

*D_NET *254 0.000334018
*CONN
*I *787:B I *D sky130_fd_sc_hd__xnor2_1
*I *786:X O *D sky130_fd_sc_hd__a21bo_1
*CAP
1 *787:B 0.000115814
2 *786:X 0.000115814
3 *787:B *837:D 7.23533e-05
4 *787:B *862:A 0
5 *787:B *332:12 3.00381e-05
6 *253:8 *787:B 0
*RES
1 *786:X *787:B 9.03 
*END

*D_NET *255 0.00127756
*CONN
*I *789:B I *D sky130_fd_sc_hd__and2_1
*I *788:Y O *D sky130_fd_sc_hd__nand3_1
*CAP
1 *789:B 0.000409452
2 *788:Y 0.000409452
3 *679:A2 *789:B 0.000107415
4 *679:C1 *789:B 3.31103e-05
5 *164:21 *789:B 2.75145e-05
6 *165:10 *789:B 0.000286429
7 *166:18 *789:B 4.18603e-06
*RES
1 *788:Y *789:B 13.56 
*END

*D_NET *256 0.00143121
*CONN
*I *791:B I *D sky130_fd_sc_hd__xnor2_1
*I *792:A2 I *D sky130_fd_sc_hd__a21bo_1
*I *790:Y O *D sky130_fd_sc_hd__nand2_1
*CAP
1 *791:B 0
2 *792:A2 0.000105196
3 *790:Y 0.000100046
4 *256:12 0.000205242
5 *792:A2 *368:56 8.49205e-05
6 *792:A2 *368:65 4.66108e-05
7 *256:12 *597:A 0
8 *644:B *792:A2 8.82557e-05
9 *644:B *256:12 1.60203e-05
10 *644:C *256:12 4.82919e-05
11 *684:B *792:A2 0.000386488
12 *684:B *256:12 0.000176189
13 *790:A *256:12 3.25831e-05
14 *791:A *256:12 4.82863e-05
15 *134:18 *256:12 9.30787e-05
*RES
1 *790:Y *256:12 8.63 
2 *256:12 *792:A2 5.155 
3 *256:12 *791:B 1.6 
*END

*D_NET *257 0.00195554
*CONN
*I *794:A2 I *D sky130_fd_sc_hd__a21bo_1
*I *793:B I *D sky130_fd_sc_hd__xnor2_1
*I *792:X O *D sky130_fd_sc_hd__a21bo_1
*CAP
1 *794:A2 0.000224841
2 *793:B 9.55625e-05
3 *792:X 3.63968e-05
4 *257:8 0.000356801
5 *794:A2 *639:A 0.000122834
6 *794:A2 *331:22 7.58244e-05
7 *257:8 *639:A 0.000141921
8 *640:B *794:A2 0.000182071
9 *793:A *793:B 9.54563e-05
10 *794:A1 *794:A2 0.000153791
11 *836:RESET_B *794:A2 0.000189047
12 *894:A *257:8 0.000106344
13 *125:10 *794:A2 8.98208e-05
14 *125:10 *257:8 1.197e-05
15 *125:18 *794:A2 7.28589e-05
*RES
1 *792:X *257:8 5.235 
2 *257:8 *793:B 5.535 
3 *257:8 *794:A2 10.68 
*END

*D_NET *258 0.0010867
*CONN
*I *795:B I *D sky130_fd_sc_hd__xnor2_1
*I *794:X O *D sky130_fd_sc_hd__a21bo_1
*CAP
1 *795:B 0.000161497
2 *794:X 0.000161497
3 *795:B *638:B 0.000146432
4 *795:B *900:A 0.000162234
5 *795:B *331:22 0.000240512
6 *795:B *368:56 8.40269e-05
7 *794:A1 *795:B 3.42142e-05
8 *891:A *795:B 1.22608e-05
9 *893:A *795:B 8.40269e-05
*RES
1 *794:X *795:B 12.12 
*END

*D_NET *259 0.00231261
*CONN
*I *798:A I *D sky130_fd_sc_hd__and2_1
*I *800:C I *D sky130_fd_sc_hd__nand3_1
*I *799:A2 I *D sky130_fd_sc_hd__a21o_1
*I *796:X O *D sky130_fd_sc_hd__or2_1
*CAP
1 *798:A 8.46094e-05
2 *800:C 0.0003127
3 *799:A2 6.20615e-05
4 *796:X 0
5 *259:12 0.000548735
6 *259:4 0.000258583
7 *798:A *798:B 0.000121547
8 *798:A *930:A 5.4155e-06
9 *798:A *324:14 1.61831e-05
10 *799:A2 *326:14 5.53249e-06
11 *800:C *801:B 4.82919e-05
12 *800:C *802:A2 0.000229438
13 *800:C *805:B1 7.67415e-06
14 *800:C *925:A 1.68324e-05
15 *800:C *930:A 0.000102001
16 *259:12 *798:B 1.91597e-05
17 *259:12 *930:A 0.000143228
18 *259:12 *326:14 0.000109782
19 acc[4] *800:C 2.203e-05
20 acc[9] *798:A 8.65961e-05
21 *796:A *798:A 1.67131e-05
22 *154:18 *800:C 6.97118e-05
23 *159:29 *799:A2 2.51475e-05
24 *159:29 *800:C 6.36438e-07
*RES
1 *796:X *259:4 1.6 
2 *259:4 *259:12 5.0075 
3 *259:12 *799:A2 4.5375 
4 *259:12 *800:C 10.2225 
5 *259:4 *798:A 3.805 
*END

*D_NET *260 0.00154643
*CONN
*I *798:B I *D sky130_fd_sc_hd__and2_1
*I *797:Y O *D sky130_fd_sc_hd__nand2_1
*CAP
1 *798:B 0.000428423
2 *797:Y 0.000428423
3 *798:B *924:A 0.00019391
4 *798:B *324:14 2.16917e-05
5 *798:B *326:14 0.000131086
6 *796:A *798:B 2.68464e-05
7 *797:B *798:B 6.23808e-05
8 *798:A *798:B 0.000121547
9 *824:RESET_B *798:B 4.43871e-06
10 *886:A *798:B 0.000108527
11 *259:12 *798:B 1.91597e-05
*RES
1 *797:Y *798:B 14.82 
*END

*D_NET *261 0.00279578
*CONN
*I *802:A2 I *D sky130_fd_sc_hd__a21oi_1
*I *801:A I *D sky130_fd_sc_hd__and2_1
*I *803:C I *D sky130_fd_sc_hd__and3_1
*I *799:X O *D sky130_fd_sc_hd__a21o_1
*CAP
1 *802:A2 0.000233034
2 *801:A 0
3 *803:C 0.000236064
4 *799:X 0
5 *261:10 0.000348924
6 *261:4 0.000345894
7 *802:A2 *668:A 0
8 *802:A2 *805:B1 2.54522e-05
9 *803:C *801:B 0.000113797
10 *803:C *804:A 3.05712e-05
11 *803:C *827:CLK 4.13482e-05
12 *261:10 *801:B 9.50342e-06
13 acc[4] *802:A2 7.00889e-06
14 *799:B1 *802:A2 5.30673e-05
15 *799:B1 *261:10 2.96426e-05
16 *800:B *803:C 0.000155928
17 *800:B *261:10 4.14369e-05
18 *800:C *802:A2 0.000229438
19 *802:B1 *803:C 0.000193851
20 *803:B *803:C 1.79877e-05
21 *827:RESET_B *802:A2 2.54431e-05
22 *149:12 *803:C 5.66235e-05
23 *154:12 *802:A2 0.000120655
24 *154:12 *803:C 1.23244e-05
25 *154:12 *261:10 5.00612e-05
26 *157:20 *261:10 9.54469e-05
27 *159:10 *802:A2 0.00020613
28 *159:29 *802:A2 0.000116151
*RES
1 *799:X *261:4 1.6 
2 *261:4 *261:10 4.43 
3 *261:10 *803:C 9.105 
4 *261:10 *801:A 3.6 
5 *261:4 *802:A2 11.915 
*END

*D_NET *262 0.000488938
*CONN
*I *801:B I *D sky130_fd_sc_hd__and2_1
*I *800:Y O *D sky130_fd_sc_hd__nand3_1
*CAP
1 *801:B 0.000108867
2 *800:Y 0.000108867
3 *801:B *826:CLK 5.16418e-05
4 *800:B *801:B 5.83121e-06
5 *800:C *801:B 4.82919e-05
6 *803:C *801:B 0.000113797
7 *154:12 *801:B 3.23391e-05
8 *154:18 *801:B 9.80032e-06
9 *261:10 *801:B 9.50342e-06
*RES
1 *800:Y *801:B 9.375 
*END

*D_NET *263 0.00517712
*CONN
*I *805:B1 I *D sky130_fd_sc_hd__a21oi_1
*I *804:A I *D sky130_fd_sc_hd__nor2_1
*I *802:Y O *D sky130_fd_sc_hd__a21oi_1
*CAP
1 *805:B1 0.000707994
2 *804:A 0.000498547
3 *802:Y 0
4 *263:4 0.00120654
5 *804:A *824:CLK 0.000124922
6 *804:A *827:CLK 2.69138e-05
7 *804:A *303:99 2.23407e-05
8 *804:A *324:35 3.82018e-05
9 *805:B1 *805:A2 2.30292e-05
10 *805:B1 *364:35 0.000249884
11 acc[11] *805:B1 2.8107e-05
12 acc[4] *805:B1 4.82863e-05
13 acc[6] *805:B1 0.000514815
14 *674:B1 *804:A 1.09931e-05
15 *674:B2 *804:A 0.000170963
16 *675:B1 *805:B1 0.000177726
17 *676:B1 *805:B1 0
18 *799:B1 *804:A 0.000139933
19 *800:A *804:A 0.000224473
20 *800:B *804:A 0.000199727
21 *800:C *805:B1 7.67415e-06
22 *802:A2 *805:B1 2.54522e-05
23 *803:B *804:A 8.53113e-06
24 *803:C *804:A 3.05712e-05
25 *881:A *804:A 0
26 *145:26 *804:A 0.000100999
27 *148:14 *804:A 0.000177925
28 *154:18 *804:A 6.71882e-05
29 *154:18 *805:B1 5.05521e-05
30 *157:20 *804:A 0.000197599
31 *159:10 *805:B1 9.72269e-05
32 *159:29 *804:A 0
*RES
1 *802:Y *263:4 1.6 
2 *263:4 *804:A 17.555 
3 *263:4 *805:B1 18.26 
*END

*D_NET *264 0.00282944
*CONN
*I *804:B I *D sky130_fd_sc_hd__nor2_1
*I *803:X O *D sky130_fd_sc_hd__and3_1
*CAP
1 *804:B 0.000505942
2 *803:X 0.000505942
3 *804:B *651:A 2.92479e-05
4 *804:B *664:B 4.82863e-05
5 *804:B *824:CLK 0.000409514
6 *804:B *827:CLK 0.00024188
7 *804:B *303:99 0.000281855
8 *804:B *360:30 9.0444e-05
9 *659:B1 *804:B 0.000111547
10 *665:B *804:B 7.58003e-05
11 *674:C1 *804:B 0.000293719
12 *676:B1 *804:B 0.000132422
13 *826:RESET_B *804:B 0.000102836
14 *881:A *804:B 0
*RES
1 *803:X *804:B 20.58 
*END

*D_NET *265 0.00174447
*CONN
*I *806:B I *D sky130_fd_sc_hd__xnor2_1
*I *805:Y O *D sky130_fd_sc_hd__a21oi_1
*CAP
1 *806:B 0.000294261
2 *805:Y 0.000294261
3 *806:B *805:A1 0.000376259
4 *806:B *927:A 1.92979e-05
5 *806:B *327:16 0.000292494
6 acc[11] *806:B 6.98142e-05
7 *806:A *806:B 3.90732e-05
8 *889:A *806:B 0.000359012
*RES
1 *805:Y *806:B 10.7003 
*END

*D_NET *266 0.000638633
*CONN
*I *809:B I *D sky130_fd_sc_hd__nor2_1
*I *808:X O *D sky130_fd_sc_hd__o21a_1
*CAP
1 *809:B 0.00015657
2 *808:X 0.00015657
3 *658:C *809:B 0.000134938
4 *137:18 *809:B 4.70919e-05
5 *145:8 *809:B 0.000106833
6 *145:26 *809:B 3.66286e-05
*RES
1 *808:X *809:B 6.77 
*END

*D_NET *267 0.000366214
*CONN
*I *811:B I *D sky130_fd_sc_hd__xnor2_1
*I *810:Y O *D sky130_fd_sc_hd__nor2_1
*CAP
1 *811:B 0.000183107
2 *810:Y 0.000183107
3 *811:B *332:30 0
4 *811:A *811:B 0
5 *145:26 *811:B 0
*RES
1 *810:Y *811:B 9.975 
*END

*D_NET *268 0.00144646
*CONN
*I *813:B I *D sky130_fd_sc_hd__and2_1
*I *812:X O *D sky130_fd_sc_hd__or2_1
*CAP
1 *813:B 0.000518057
2 *812:X 0.000518057
3 *813:B *823:CLK 0
4 *813:B *853:CLK 1.16646e-05
5 *813:B *853:D 0.000256469
6 *813:B *305:14 0
7 *813:B *305:38 3.52139e-06
8 *813:B *319:16 0.00013687
9 *853:RESET_B *813:B 1.82499e-06
*RES
1 *812:X *813:B 14.46 
*END

*D_NET *269 0.000298134
*CONN
*I *822:D I *D sky130_fd_sc_hd__dfrtp_1
*I *813:X O *D sky130_fd_sc_hd__and2_1
*CAP
1 *822:D 4.71707e-05
2 *813:X 4.71707e-05
3 *822:D *333:31 8.14616e-05
4 *141:10 *822:D 0.000122331
*RES
1 *813:X *822:D 4.685 
*END

*D_NET *270 0.000630812
*CONN
*I *823:D I *D sky130_fd_sc_hd__dfrtp_1
*I *807:Y O *D sky130_fd_sc_hd__xnor2_1
*CAP
1 *823:D 0.000157948
2 *807:Y 0.000157948
3 *823:D *823:CLK 5.72004e-05
4 *657:B1 *823:D 2.75145e-05
5 *807:B *823:D 8.40213e-05
6 *139:12 *823:D 0
7 *143:18 *823:D 2.59926e-05
8 *144:10 *823:D 0.000120186
*RES
1 *807:Y *823:D 10.665 
*END

*D_NET *271 0.000824767
*CONN
*I *824:D I *D sky130_fd_sc_hd__dfrtp_1
*I *809:Y O *D sky130_fd_sc_hd__nor2_1
*CAP
1 *824:D 0.000241026
2 *809:Y 0.000241026
3 *824:D *650:A 0.000201044
4 *824:D *651:A 8.8266e-05
5 *659:B1 *824:D 2.67022e-05
6 *145:26 *824:D 2.67022e-05
*RES
1 *809:Y *824:D 10.8638 
*END

*D_NET *272 0.00103075
*CONN
*I *825:D I *D sky130_fd_sc_hd__dfrtp_4
*I *811:Y O *D sky130_fd_sc_hd__xnor2_1
*CAP
1 *825:D 0.000465729
2 *811:Y 0.000465729
3 *825:D *301:8 9.92913e-05
4 *825:D *301:12 0
5 *825:RESET_B *825:D 0
*RES
1 *811:Y *825:D 12.915 
*END

*D_NET *273 0.00101392
*CONN
*I *826:D I *D sky130_fd_sc_hd__dfrtp_1
*I *798:X O *D sky130_fd_sc_hd__and2_1
*CAP
1 *826:D 0.000213884
2 *798:X 0.000213884
3 *826:D *670:A 0
4 *826:D *928:A 0.00018305
5 *826:D *930:A 0.000284995
6 acc[9] *826:D 8.7152e-06
7 *826:RESET_B *826:D 0.000109389
8 *827:RESET_B *826:D 0
*RES
1 *798:X *826:D 12.45 
*END

*D_NET *274 0.00082203
*CONN
*I *827:D I *D sky130_fd_sc_hd__dfrtp_1
*I *801:X O *D sky130_fd_sc_hd__and2_1
*CAP
1 *827:D 0.000160832
2 *801:X 0.000160832
3 *802:B1 *827:D 5.5165e-05
4 *826:RESET_B *827:D 4.66108e-05
5 *154:12 *827:D 0.000116158
6 *159:10 *827:D 0.000282431
*RES
1 *801:X *827:D 11.07 
*END

*D_NET *275 0.00368481
*CONN
*I *828:D I *D sky130_fd_sc_hd__dfrtp_1
*I *804:Y O *D sky130_fd_sc_hd__nor2_1
*CAP
1 *828:D 0.000812398
2 *804:Y 0.000812398
3 *828:D *651:A 0.000198945
4 *828:D *360:10 5.33085e-05
5 *828:D *360:14 0.000181443
6 *659:B1 *828:D 2.54606e-05
7 *665:B *828:D 0.000566394
8 *677:B1 *828:D 1.65192e-05
9 *806:A *828:D 0.000545852
10 *829:RESET_B *828:D 0.000433433
11 *138:16 *828:D 3.86607e-05
*RES
1 *804:Y *828:D 24.915 
*END

*D_NET *276 0.000570434
*CONN
*I *829:D I *D sky130_fd_sc_hd__dfrtp_1
*I *806:Y O *D sky130_fd_sc_hd__xnor2_1
*CAP
1 *829:D 0.000146384
2 *806:Y 0.000146384
3 *829:D *663:A 1.82499e-06
4 *829:D *364:27 0.00011577
5 acc[11] *829:D 9.50342e-06
6 *675:B1 *829:D 0
7 *676:B1 *829:D 3.77134e-05
8 *829:RESET_B *829:D 0.000112855
9 *887:A *829:D 0
*RES
1 *806:Y *829:D 10.665 
*END

*D_NET *277 0.00035094
*CONN
*I *830:D I *D sky130_fd_sc_hd__dfrtp_1
*I *789:X O *D sky130_fd_sc_hd__and2_1
*CAP
1 *830:D 0.000151483
2 *789:X 0.000151483
3 *830:D *597:A 0
4 *830:D *830:CLK 7.00889e-06
5 *830:D *303:73 1.34503e-05
6 *166:18 *830:D 2.75145e-05
*RES
1 *789:X *830:D 9.48 
*END

*D_NET *278 0.000550614
*CONN
*I *831:D I *D sky130_fd_sc_hd__dfrtp_1
*I *791:Y O *D sky130_fd_sc_hd__xnor2_1
*CAP
1 *831:D 0.000145168
2 *791:Y 0.000145168
3 *831:D *831:CLK 4.66108e-05
4 *831:D *303:20 9.54469e-05
5 *889:A *831:D 8.94334e-05
6 *130:10 *831:D 2.87867e-05
*RES
1 *791:Y *831:D 10.155 
*END

*D_NET *279 0.00139854
*CONN
*I *832:D I *D sky130_fd_sc_hd__dfrtp_1
*I *793:Y O *D sky130_fd_sc_hd__xnor2_1
*CAP
1 *832:D 0.000376955
2 *793:Y 0.000376955
3 *832:D *688:A 4.89295e-05
4 *832:D *905:A 6.08681e-05
5 *832:D *340:33 9.14049e-05
6 *832:D *340:50 1.19525e-05
7 *832:D *372:27 3.6355e-05
8 *691:A *832:D 8.40582e-05
9 *698:A1 *832:D 6.5724e-05
10 *698:A2 *832:D 4.80415e-05
11 *698:B2 *832:D 7.97014e-05
12 *793:A *832:D 0
13 *174:20 *832:D 8.90552e-05
14 *180:10 *832:D 2.85364e-05
*RES
1 *793:Y *832:D 14.82 
*END

*D_NET *280 0.00141503
*CONN
*I *833:D I *D sky130_fd_sc_hd__dfrtp_1
*I *795:Y O *D sky130_fd_sc_hd__xnor2_1
*CAP
1 *833:D 0.000323039
2 *795:Y 0.000323039
3 *833:D *634:B 0.000138551
4 *833:D *636:A 7.23533e-05
5 *833:D *833:CLK 4.27173e-05
6 *833:D *303:22 0
7 *637:B *833:D 1.37812e-05
8 *646:B1 *833:D 0.000164686
9 *680:B1 *833:D 0
10 *795:A *833:D 8.65961e-05
11 *888:A *833:D 0.000127045
12 *121:8 *833:D 4.82863e-05
13 *124:21 *833:D 7.49327e-05
*RES
1 *795:Y *833:D 13.8938 
*END

*D_NET *281 0.000514853
*CONN
*I *834:D I *D sky130_fd_sc_hd__dfrtp_1
*I *781:X O *D sky130_fd_sc_hd__xor2_1
*CAP
1 *834:D 0.000125104
2 *781:X 0.000125104
3 *834:D *838:CLK 1.96491e-05
4 *834:D *336:14 8.11224e-05
5 *697:A1 *834:D 3.63206e-05
6 *125:10 *834:D 6.89005e-05
7 *166:18 *834:D 1.08758e-05
8 *168:6 *834:D 4.77757e-05
*RES
1 *781:X *834:D 9.975 
*END

*D_NET *282 0.000528307
*CONN
*I *835:D I *D sky130_fd_sc_hd__dfrtp_1
*I *783:Y O *D sky130_fd_sc_hd__xnor2_1
*CAP
1 *835:D 0.000134881
2 *783:Y 0.000134881
3 *835:D *682:B 7.06865e-05
4 *835:D *368:132 6.55328e-05
5 *684:B *835:D 0.000122325
*RES
1 *783:Y *835:D 9.72 
*END

*D_NET *283 0.00040897
*CONN
*I *836:D I *D sky130_fd_sc_hd__dfrtp_1
*I *785:Y O *D sky130_fd_sc_hd__xnor2_1
*CAP
1 *836:D 0.000173335
2 *785:Y 0.000173335
3 *836:D *836:CLK 0
4 *892:A *836:D 6.23011e-05
*RES
1 *785:Y *836:D 9.885 
*END

*D_NET *284 0.000566582
*CONN
*I *837:D I *D sky130_fd_sc_hd__dfrtp_1
*I *787:Y O *D sky130_fd_sc_hd__xnor2_1
*CAP
1 *837:D 0.000183675
2 *787:Y 0.000183675
3 *837:D *862:A 0
4 *837:D *904:A 1.83756e-05
5 *785:B *837:D 5.42473e-05
6 *787:A *837:D 0
7 *787:B *837:D 7.23533e-05
8 *178:14 *837:D 0
9 *253:8 *837:D 5.4256e-05
*RES
1 *787:Y *837:D 10.815 
*END

*D_NET *285 0.000380939
*CONN
*I *838:D I *D sky130_fd_sc_hd__dfrtp_1
*I *773:X O *D sky130_fd_sc_hd__xor2_1
*CAP
1 *838:D 6.86163e-05
2 *773:X 6.86163e-05
3 *838:D *838:CLK 7.18771e-05
4 *838:D *341:6 1.07285e-05
5 *773:A *838:D 0.000161101
*RES
1 *773:X *838:D 5.3 
*END

*D_NET *286 0.00166911
*CONN
*I *839:D I *D sky130_fd_sc_hd__dfrtp_1
*I *776:Y O *D sky130_fd_sc_hd__nor2_1
*CAP
1 *839:D 0.000269292
2 *776:Y 0.000269292
3 *839:D *701:A 0
4 *839:D *708:A 0.00012657
5 *839:D *708:B 8.9771e-05
6 *839:D *709:B 0.000135889
7 *839:D *839:CLK 4.18603e-06
8 *839:D *374:12 0.000210395
9 *706:A *839:D 5.56629e-05
10 *707:B *839:D 0.000143004
11 *774:A1 *839:D 6.18754e-05
12 *774:B1 *839:D 0.00011686
13 *839:RESET_B *839:D 0
14 *854:A *839:D 2.39856e-05
15 *248:10 *839:D 0
16 *250:14 *839:D 0.000162325
*RES
1 *776:Y *839:D 15.765 
*END

*D_NET *287 0.000940542
*CONN
*I *840:D I *D sky130_fd_sc_hd__dfrtp_1
*I *778:Y O *D sky130_fd_sc_hd__xnor2_1
*CAP
1 *840:D 0.000315118
2 *778:Y 0.000315118
3 *840:D *343:6 2.11084e-05
4 *840:D *370:12 0.000177694
5 *840:RESET_B *840:D 0.000111504
*RES
1 *778:Y *840:D 9.53 
*END

*D_NET *288 0.00224523
*CONN
*I *841:D I *D sky130_fd_sc_hd__dfrtp_1
*I *780:Y O *D sky130_fd_sc_hd__xnor2_1
*CAP
1 *841:D 0.000849211
2 *780:Y 0.000849211
3 *841:D *841:CLK 8.3303e-06
4 *841:D *344:10 0.000502809
5 *841:D *370:31 1.34503e-05
6 *841:RESET_B *841:D 2.22198e-05
*RES
1 *780:Y *841:D 13.355 
*END

*D_NET *289 0.000726506
*CONN
*I *842:D I *D sky130_fd_sc_hd__dfrtp_1
*I *765:Y O *D sky130_fd_sc_hd__xnor2_1
*CAP
1 *842:D 0.000219487
2 *765:Y 0.000219487
3 *842:D *842:CLK 2.99553e-05
4 *842:D *304:19 7.06865e-05
5 *842:D *304:28 2.75229e-05
6 *732:A *842:D 8.86801e-05
7 *218:14 *842:D 7.06865e-05
*RES
1 *765:Y *842:D 10.3988 
*END

*D_NET *290 0.000291018
*CONN
*I *843:D I *D sky130_fd_sc_hd__dfrtp_1
*I *767:Y O *D sky130_fd_sc_hd__xnor2_1
*CAP
1 *843:D 9.8985e-05
2 *767:Y 9.8985e-05
3 *843:D *909:A 0
4 *768:A2 *843:D 2.75229e-05
5 *244:10 *843:D 6.5525e-05
*RES
1 *767:Y *843:D 9.03 
*END

*D_NET *291 0.000705505
*CONN
*I *844:D I *D sky130_fd_sc_hd__dfrtp_1
*I *769:Y O *D sky130_fd_sc_hd__xnor2_1
*CAP
1 *844:D 0.000169801
2 *769:Y 0.000169801
3 *844:D *720:B 9.32942e-05
4 *844:D *908:A 5.42473e-05
5 *844:D *912:A 0
6 *769:A *844:D 0.000177127
7 *844:RESET_B *844:D 4.1235e-05
*RES
1 *769:Y *844:D 11.7 
*END

*D_NET *292 0.000865785
*CONN
*I *845:D I *D sky130_fd_sc_hd__dfrtp_1
*I *771:Y O *D sky130_fd_sc_hd__xnor2_1
*CAP
1 *845:D 0.00027089
2 *771:Y 0.00027089
3 *845:D *304:84 0
4 *725:B *845:D 0.000166308
5 *212:18 *845:D 0.000157697
*RES
1 *771:Y *845:D 12.15 
*END

*D_NET *293 0.000388545
*CONN
*I *846:D I *D sky130_fd_sc_hd__dfrtp_1
*I *757:Y O *D sky130_fd_sc_hd__nor2_1
*CAP
1 *846:D 0.000141487
2 *757:Y 0.000141487
3 *846:D *605:A 5.34747e-05
4 *757:B *846:D 5.20968e-05
5 *846:RESET_B *846:D 0
*RES
1 *757:Y *846:D 9.465 
*END

*D_NET *294 0.000913892
*CONN
*I *847:D I *D sky130_fd_sc_hd__dfrtp_1
*I *759:Y O *D sky130_fd_sc_hd__xnor2_1
*CAP
1 *847:D 0.000425805
2 *759:Y 0.000425805
3 *847:D *304:69 2.49909e-05
4 *847:D *352:10 3.72916e-05
*RES
1 *759:Y *847:D 9.875 
*END

*D_NET *295 0.000644735
*CONN
*I *848:D I *D sky130_fd_sc_hd__dfrtp_1
*I *762:Y O *D sky130_fd_sc_hd__xnor2_1
*CAP
1 *848:D 0.000181667
2 *762:Y 0.000181667
3 *848:D *370:97 3.39151e-05
4 acc[25] *848:D 4.94404e-05
5 *762:A *848:D 0.000198046
*RES
1 *762:Y *848:D 10.155 
*END

*D_NET *296 0.00073944
*CONN
*I *849:D I *D sky130_fd_sc_hd__dfrtp_1
*I *764:X O *D sky130_fd_sc_hd__xor2_1
*CAP
1 *849:D 0.000148962
2 *764:X 0.000148962
3 *849:D *849:CLK 0.000265917
4 *849:D *316:20 0
5 *849:D *353:34 8.08153e-06
6 *849:D *354:12 0.000134509
7 *626:B *849:D 2.97004e-06
8 *743:A_N *849:D 3.00381e-05
*RES
1 *764:X *849:D 10.815 
*END

*D_NET *297 0.000505507
*CONN
*I *850:D I *D sky130_fd_sc_hd__dfrtp_1
*I *740:Y O *D sky130_fd_sc_hd__xnor2_1
*CAP
1 *850:D 0.000166447
2 *740:Y 0.000166447
3 *850:D *850:CLK 7.35813e-05
4 *850:D *915:A 1.33293e-05
5 *740:A *850:D 8.57024e-05
*RES
1 *740:Y *850:D 6.08 
*END

*D_NET *298 0.000952462
*CONN
*I *851:D I *D sky130_fd_sc_hd__dfrtp_1
*I *745:Y O *D sky130_fd_sc_hd__xnor2_1
*CAP
1 *851:D 0.000278646
2 *745:Y 0.000278646
3 *851:D *742:A 3.67779e-05
4 *851:D *852:CLK 3.91475e-05
5 *851:D *305:96 2.99518e-06
6 *851:D *316:20 0.000309618
7 *753:A1 *851:D 6.63219e-06
8 *753:A2 *851:D 0
*RES
1 *745:Y *851:D 11.445 
*END

*D_NET *299 0.000525769
*CONN
*I *852:D I *D sky130_fd_sc_hd__dfrtp_1
*I *750:Y O *D sky130_fd_sc_hd__xnor2_1
*CAP
1 *852:D 0.000132077
2 *750:Y 0.000132077
3 *626:A *852:D 7.00889e-06
4 *107:12 *852:D 9.33998e-05
5 *227:27 *852:D 0.000128793
6 *228:14 *852:D 3.24131e-05
*RES
1 *750:Y *852:D 10.275 
*END

*D_NET *300 0.000944377
*CONN
*I *853:D I *D sky130_fd_sc_hd__dfrtp_1
*I *755:Y O *D sky130_fd_sc_hd__xnor2_1
*CAP
1 *853:D 0.000201698
2 *755:Y 0.000201698
3 *853:D *305:12 4.64635e-05
4 *853:D *305:14 2.39373e-05
5 *853:D *305:38 0.000131658
6 *853:D *319:16 7.70938e-05
7 *853:D *355:10 5.35969e-06
8 *813:B *853:D 0.000256469
*RES
1 *755:Y *853:D 13.185 
*END

*D_NET *301 0.00854201
*CONN
*I *858:A I *D sky130_fd_sc_hd__clkbuf_16
*I *857:A I *D sky130_fd_sc_hd__clkbuf_16
*I *856:A I *D sky130_fd_sc_hd__clkbuf_16
*I *855:A I *D sky130_fd_sc_hd__clkbuf_16
*I *854:X O *D sky130_fd_sc_hd__clkbuf_16
*CAP
1 *858:A 0.000268055
2 *857:A 0.00041471
3 *856:A 0
4 *855:A 0.000434102
5 *854:X 0.000104229
6 *301:28 0.00119718
7 *301:12 0.000741562
8 *301:8 0.0009261
9 *855:A *818:A 0.000168081
10 *855:A *303:8 0.000192125
11 *858:A *915:A 0
12 *301:12 *332:30 0.000221255
13 *301:12 *369:47 0.000286664
14 *301:12 *369:66 0.000203344
15 *301:28 *609:A 0.000296025
16 *301:28 *747:A 0.000116853
17 *301:28 *812:B 0
18 *301:28 *332:30 7.54567e-05
19 *301:28 *371:10 0.00011852
20 *616:B *858:A 5.105e-05
21 *649:B *855:A 4.82919e-05
22 *669:A *301:12 0.00032611
23 *684:A *855:A 5.74656e-05
24 *684:B *855:A 4.82919e-05
25 *738:B1 *857:A 1.19928e-05
26 *739:A1 *857:A 4.66108e-05
27 *739:A2 *857:A 1.61831e-05
28 *739:A3 *857:A 6.77501e-05
29 *739:C1 *857:A 1.08758e-05
30 *739:C1 *858:A 4.66108e-05
31 *740:A *301:28 0.000308048
32 *740:B *301:28 0
33 *744:A *858:A 5.83121e-06
34 *758:A *857:A 4.82863e-05
35 *761:B1 *857:A 4.99619e-05
36 *825:D *301:8 9.92913e-05
37 *825:D *301:12 0
38 *825:RESET_B *301:12 0.000121152
39 *827:RESET_B *855:A 1.17409e-05
40 *103:16 *858:A 0.00015956
41 *117:12 *857:A 8.34281e-06
42 *118:10 *301:28 0
43 *118:25 *857:A 0.000124895
44 *118:33 *857:A 0.000234674
45 *120:14 *857:A 3.96737e-05
46 *167:10 *855:A 0.000124895
47 *171:22 *855:A 0.000469354
48 *224:12 *857:A 8.8266e-05
49 *224:23 *857:A 6.39688e-05
50 *224:32 *857:A 8.57237e-05
51 *226:8 *857:A 2.8585e-06
*RES
1 *854:X *301:8 5.775 
2 *301:8 *301:12 12.05 
3 *301:12 *855:A 11.365 
4 *301:12 *856:A 1.6 
5 *301:8 *301:28 13.58 
6 *301:28 *857:A 10.105 
7 *301:28 *858:A 9.35 
*END

*D_NET *302 0.00834296
*CONN
*I *834:CLK I *D sky130_fd_sc_hd__dfrtp_1
*I *838:CLK I *D sky130_fd_sc_hd__dfrtp_1
*I *859:A I *D sky130_fd_sc_hd__clkbuf_8
*I *832:CLK I *D sky130_fd_sc_hd__dfrtp_1
*I *837:CLK I *D sky130_fd_sc_hd__dfrtp_1
*I *836:CLK I *D sky130_fd_sc_hd__dfrtp_1
*I *835:CLK I *D sky130_fd_sc_hd__dfrtp_1
*I *839:CLK I *D sky130_fd_sc_hd__dfrtp_1
*I *855:X O *D sky130_fd_sc_hd__clkbuf_16
*CAP
1 *834:CLK 0
2 *838:CLK 0.000356431
3 *859:A 0.000102558
4 *832:CLK 4.56798e-05
5 *837:CLK 0
6 *836:CLK 0.000300333
7 *835:CLK 0
8 *839:CLK 0.000223693
9 *855:X 0
10 *302:82 0.000570616
11 *302:36 0.000734774
12 *302:34 0.000701414
13 *302:30 0.000391952
14 *302:10 0.00032183
15 *302:6 0.000284839
16 *302:4 0.000332787
17 *838:CLK *336:14 7.01303e-05
18 *838:CLK *341:6 9.03088e-05
19 *839:CLK *686:B 1.34361e-05
20 *839:CLK *336:24 7.81954e-05
21 *839:CLK *368:132 0.000141592
22 *859:A *688:A 8.52883e-05
23 *859:A *350:12 7.27844e-05
24 *859:A *361:8 0.000154981
25 *302:30 *688:B 3.09233e-05
26 *302:34 *685:A 2.91986e-05
27 *302:34 *688:B 7.831e-05
28 *684:A *302:82 5.83121e-06
29 *691:A *302:34 9.28171e-05
30 *697:A1 *838:CLK 0.00017187
31 *697:A1 *302:82 8.23457e-05
32 *697:A2 *302:82 2.20014e-05
33 *699:B1 *839:CLK 0
34 *699:B1 *302:30 0.000170484
35 *699:B1 *302:34 8.86692e-05
36 *711:A2 *838:CLK 1.94182e-05
37 *773:A *838:CLK 0.000188515
38 *782:A1 *302:82 0.000157332
39 *782:B1_N *839:CLK 0
40 *785:B *836:CLK 8.53113e-06
41 *786:A1 *302:34 0.000180416
42 *834:D *838:CLK 1.96491e-05
43 *836:D *836:CLK 0
44 *837:RESET_B *832:CLK 4.41506e-05
45 *837:RESET_B *302:36 4.31698e-05
46 *838:D *838:CLK 7.18771e-05
47 *839:D *839:CLK 4.18603e-06
48 *839:RESET_B *839:CLK 0
49 *892:A *836:CLK 0
50 *895:A *859:A 4.89295e-05
51 *896:A *302:34 0.000182082
52 *171:22 *839:CLK 9.50342e-06
53 *171:22 *302:6 0.00033233
54 *171:22 *302:10 0.000192125
55 *171:22 *302:82 5.17879e-05
56 *173:10 *302:10 0.000118081
57 *175:8 *302:30 2.42236e-05
58 *175:8 *302:34 2.21807e-05
59 *179:10 *302:34 0.000133857
60 *180:10 *302:30 3.69334e-05
61 *180:10 *302:82 0
62 *183:10 *302:82 0
63 *184:12 *838:CLK 0.000110032
64 *184:12 *302:82 4.41506e-05
65 *198:16 *838:CLK 0.000114492
66 *248:10 *839:CLK 3.25831e-05
67 *252:12 *302:6 0.000224005
68 *252:12 *302:10 8.23457e-05
*RES
1 *855:X *302:4 1.6 
2 *302:4 *302:6 3.555 
3 *302:6 *302:10 2.535 
4 *302:10 *839:CLK 9.785 
5 *302:10 *835:CLK 1.6 
6 *302:6 *302:30 4.145 
7 *302:30 *302:34 7.97 
8 *302:34 *302:36 6.315 
9 *302:36 *836:CLK 10.01 
10 *302:36 *837:CLK 1.6 
11 *302:34 *832:CLK 2.395 
12 *302:30 *859:A 6.12 
13 *302:4 *302:82 8.35 
14 *302:82 *838:CLK 13.955 
15 *302:82 *834:CLK 1.6 
*END

*D_NET *303 0.0134329
*CONN
*I *824:CLK I *D sky130_fd_sc_hd__dfrtp_1
*I *826:CLK I *D sky130_fd_sc_hd__dfrtp_1
*I *827:CLK I *D sky130_fd_sc_hd__dfrtp_1
*I *825:CLK I *D sky130_fd_sc_hd__dfrtp_4
*I *830:CLK I *D sky130_fd_sc_hd__dfrtp_1
*I *860:A I *D sky130_fd_sc_hd__clkbuf_4
*I *831:CLK I *D sky130_fd_sc_hd__dfrtp_1
*I *829:CLK I *D sky130_fd_sc_hd__dfrtp_1
*I *828:CLK I *D sky130_fd_sc_hd__dfrtp_1
*I *833:CLK I *D sky130_fd_sc_hd__dfrtp_1
*I *856:X O *D sky130_fd_sc_hd__clkbuf_16
*CAP
1 *824:CLK 0.000303493
2 *826:CLK 0.000215031
3 *827:CLK 0.000183852
4 *825:CLK 0.000331892
5 *830:CLK 8.36182e-05
6 *860:A 0
7 *831:CLK 1.36534e-05
8 *829:CLK 1.14982e-05
9 *828:CLK 0
10 *833:CLK 0.000149155
11 *856:X 0
12 *303:99 0.000482036
13 *303:97 0.000386646
14 *303:73 0.0010876
15 *303:37 0.000335444
16 *303:22 0.000672402
17 *303:20 0.000637131
18 *303:10 0.000453485
19 *303:8 0.00127727
20 *303:4 0.000575873
21 *824:CLK *650:A 0.00010978
22 *824:CLK *651:A 8.8266e-05
23 *824:CLK *324:35 3.993e-05
24 *825:CLK *597:A 0.00013264
25 *827:CLK *664:B 0.000127118
26 *829:CLK *364:27 2.16917e-05
27 *833:CLK *636:A 6.32121e-05
28 *833:CLK *636:B 4.16262e-05
29 *833:CLK *335:6 1.83847e-05
30 *833:CLK *335:25 0.00013521
31 *303:10 *815:A 5.16348e-05
32 *303:20 *647:A 4.35432e-05
33 *303:20 *648:B 4.82863e-05
34 *303:20 *815:A 0.0002045
35 *303:20 *330:12 1.02348e-05
36 *303:20 *368:77 3.79555e-05
37 *303:22 *636:A 2.92496e-05
38 *303:22 *328:19 0.000108322
39 *303:22 *330:12 0
40 *303:22 *367:22 0
41 *303:37 *635:A 4.66108e-05
42 *303:37 *636:A 2.49909e-05
43 *303:37 *663:A 7.25532e-05
44 *303:37 *330:12 0.000122331
45 *303:37 *364:6 0.000220038
46 *303:37 *364:27 0.000155444
47 *303:73 *815:A 0.000145081
48 *303:73 *366:10 3.68967e-05
49 *303:73 *369:47 0
50 *303:73 *369:66 0
51 *644:A *303:20 0.000114492
52 *644:A *303:22 3.96661e-05
53 *644:B *303:20 8.40269e-05
54 *649:A *303:20 7.36562e-05
55 *659:B1 *824:CLK 2.47174e-05
56 *665:A *824:CLK 1.92979e-05
57 *669:B *303:73 1.94351e-05
58 *673:C *826:CLK 8.40269e-05
59 *674:B2 *824:CLK 0.000170963
60 *676:B1 *827:CLK 1.98695e-05
61 *679:B1 *303:10 0
62 *679:B1 *303:73 0
63 *680:B1 *303:22 0
64 *799:B1 *303:99 0.000133068
65 *800:A *827:CLK 0.000118513
66 *800:A *303:99 0.000114492
67 *801:B *826:CLK 5.16418e-05
68 *802:B1 *827:CLK 1.83756e-05
69 *803:B *827:CLK 6.83488e-05
70 *803:C *827:CLK 4.13482e-05
71 *804:A *824:CLK 0.000124922
72 *804:A *827:CLK 2.69138e-05
73 *804:A *303:99 2.23407e-05
74 *804:B *824:CLK 0.000409514
75 *804:B *827:CLK 0.00024188
76 *804:B *303:99 0.000281855
77 *826:RESET_B *826:CLK 0.000309312
78 *827:RESET_B *303:8 0.000256392
79 *828:RESET_B *303:37 4.57018e-05
80 *829:RESET_B *829:CLK 2.75229e-05
81 *829:RESET_B *303:37 5.05437e-05
82 *830:D *830:CLK 7.00889e-06
83 *830:D *303:73 1.34503e-05
84 *830:RESET_B *825:CLK 0
85 *830:RESET_B *303:73 0
86 *831:D *831:CLK 4.66108e-05
87 *831:D *303:20 9.54469e-05
88 *833:D *833:CLK 4.27173e-05
89 *833:D *303:22 0
90 *855:A *303:8 0.000192125
91 *881:A *824:CLK 1.56428e-05
92 *887:A *303:22 2.42236e-05
93 *888:A *833:CLK 1.26626e-05
94 *888:A *303:22 0.000159796
95 *889:A *831:CLK 4.66108e-05
96 *890:A *833:CLK 0
97 *890:A *303:37 0.000123225
98 *124:21 *303:22 9.044e-05
99 *134:18 *303:20 6.09913e-05
100 *136:10 *303:10 5.53249e-06
101 *136:10 *303:73 3.31204e-05
102 *145:26 *824:CLK 0
103 *149:12 *827:CLK 2.95518e-05
104 *154:12 *826:CLK 4.9968e-05
105 *165:10 *303:73 0
106 *166:18 *830:CLK 3.70009e-05
107 *166:18 *303:73 1.83463e-05
*RES
1 *856:X *303:4 1.6 
2 *303:4 *303:8 8.66 
3 *303:8 *303:10 0.615 
4 *303:10 *303:20 11.845 
5 *303:20 *303:22 4.44 
6 *303:22 *833:CLK 6.975 
7 *303:22 *303:37 10.385 
8 *303:37 *828:CLK 1.6 
9 *303:37 *829:CLK 2.05 
10 *303:20 *831:CLK 4.05 
11 *303:10 *860:A 3.6 
12 *303:8 *303:73 11.48 
13 *303:73 *830:CLK 3.1 
14 *303:73 *825:CLK 11.45 
15 *303:4 *303:97 2 
16 *303:97 *303:99 3.42 
17 *303:99 *827:CLK 9.06 
18 *303:99 *826:CLK 11.185 
19 *303:97 *824:CLK 11.595 
*END

*D_NET *304 0.00855699
*CONN
*I *848:CLK I *D sky130_fd_sc_hd__dfrtp_1
*I *845:CLK I *D sky130_fd_sc_hd__dfrtp_1
*I *844:CLK I *D sky130_fd_sc_hd__dfrtp_1
*I *847:CLK I *D sky130_fd_sc_hd__dfrtp_1
*I *846:CLK I *D sky130_fd_sc_hd__dfrtp_1
*I *841:CLK I *D sky130_fd_sc_hd__dfrtp_1
*I *840:CLK I *D sky130_fd_sc_hd__dfrtp_1
*I *842:CLK I *D sky130_fd_sc_hd__dfrtp_1
*I *843:CLK I *D sky130_fd_sc_hd__dfrtp_1
*I *857:X O *D sky130_fd_sc_hd__clkbuf_16
*CAP
1 *848:CLK 0.00101263
2 *845:CLK 0
3 *844:CLK 0.000157612
4 *847:CLK 2.08954e-05
5 *846:CLK 0.00016869
6 *841:CLK 7.63131e-05
7 *840:CLK 0.000216635
8 *842:CLK 6.38507e-05
9 *843:CLK 0.00029443
10 *857:X 0
11 *304:86 0.000157612
12 *304:84 0.00150772
13 *304:69 0.000737153
14 *304:32 0.000566318
15 *304:28 0.000566735
16 *304:19 0.000414015
17 *304:6 0.000574178
18 *304:4 0.000275424
19 *840:CLK *864:A 0.000123955
20 *840:CLK *370:12 2.20014e-05
21 *842:CLK *346:8 6.04424e-05
22 *844:CLK *720:B 1.83756e-05
23 *846:CLK *346:8 0.000119654
24 *848:CLK *720:A 0
25 *848:CLK *315:12 0
26 *848:CLK *349:21 0
27 *304:28 *346:8 9.92334e-05
28 *304:84 *720:A 0
29 acc[25] *848:CLK 0.0001459
30 *716:A *842:CLK 5.83121e-06
31 *722:A *304:84 0
32 *725:B *304:84 0
33 *726:B *843:CLK 8.65905e-05
34 *727:A *843:CLK 0.000169395
35 *732:A *304:19 6.17587e-06
36 *734:A *847:CLK 0
37 *734:A *304:84 4.99619e-05
38 *734:C *304:84 1.34503e-05
39 *735:A *304:69 0.000185405
40 *735:B *304:19 7.01359e-05
41 *735:C *843:CLK 4.77719e-05
42 *735:C *304:19 2.84864e-05
43 *735:C *304:69 4.38721e-06
44 *735:D *843:CLK 8.52883e-05
45 *769:A *844:CLK 2.75145e-05
46 *770:A1 *304:84 0
47 *841:D *841:CLK 8.3303e-06
48 *842:D *842:CLK 2.99553e-05
49 *842:D *304:19 7.06865e-05
50 *842:D *304:28 2.75229e-05
51 *842:RESET_B *304:32 3.10059e-05
52 *845:D *304:84 0
53 *847:D *304:69 2.49909e-05
54 *198:16 *840:CLK 0
55 *198:16 *304:32 0
56 *207:8 *844:CLK 7.35813e-05
57 *209:16 *304:84 0
58 *212:35 *304:84 4.61244e-05
59 *214:14 *843:CLK 1.61831e-05
60 *214:14 *304:19 0
61 *218:14 *304:19 4.84472e-05
*RES
1 *857:X *304:4 1.6 
2 *304:4 *304:6 0.795 
3 *304:6 *843:CLK 7.225 
4 *304:6 *304:19 8.185 
5 *304:19 *842:CLK 3.085 
6 *304:19 *304:28 2.52 
7 *304:28 *304:32 6.185 
8 *304:32 *840:CLK 7.335 
9 *304:32 *841:CLK 4.74 
10 *304:28 *846:CLK 4.81 
11 *304:4 *304:69 7.885 
12 *304:69 *847:CLK 1.96 
13 *304:69 *304:84 8.555 
14 *304:84 *304:86 2 
15 *304:86 *844:CLK 4.48 
16 *304:86 *845:CLK 1.6 
17 *304:84 *848:CLK 8.26447 
*END

*D_NET *305 0.0073207
*CONN
*I *852:CLK I *D sky130_fd_sc_hd__dfrtp_1
*I *851:CLK I *D sky130_fd_sc_hd__dfrtp_1
*I *849:CLK I *D sky130_fd_sc_hd__dfrtp_1
*I *861:A I *D sky130_fd_sc_hd__clkbuf_8
*I *850:CLK I *D sky130_fd_sc_hd__dfrtp_1
*I *853:CLK I *D sky130_fd_sc_hd__dfrtp_1
*I *822:CLK I *D sky130_fd_sc_hd__dfrtp_1
*I *823:CLK I *D sky130_fd_sc_hd__dfrtp_1
*I *858:X O *D sky130_fd_sc_hd__clkbuf_16
*CAP
1 *852:CLK 0.000247916
2 *851:CLK 0
3 *849:CLK 0.000468315
4 *861:A 7.61619e-05
5 *850:CLK 0.000198497
6 *853:CLK 0.000103597
7 *822:CLK 3.69285e-05
8 *823:CLK 0.000195728
9 *858:X 2.55105e-05
10 *305:96 0.000425658
11 *305:66 0.000778101
12 *305:51 0.00051245
13 *305:38 0.00043266
14 *305:14 0.000422021
15 *305:12 0.000583433
16 *305:8 0.000348588
17 *823:CLK *319:16 0
18 *849:CLK *746:A 9.66021e-05
19 *849:CLK *754:A 0
20 *849:CLK *316:33 0
21 *849:CLK *353:34 5.83121e-06
22 *849:CLK *354:12 2.76356e-05
23 *852:CLK *742:A 0
24 *305:8 *747:B 4.82863e-05
25 *305:12 *319:16 0
26 *305:14 *319:16 0
27 *305:51 *609:A 0
28 *616:B *305:66 3.80043e-05
29 *626:B *849:CLK 0
30 *630:A1 *849:CLK 0.000129526
31 *655:B *823:CLK 0.00018305
32 *743:A_N *849:CLK 0.000102144
33 *744:A *861:A 0.000163199
34 *744:A *305:66 0
35 *749:A2 *849:CLK 0.000111176
36 *753:A1 *852:CLK 7.96104e-06
37 *753:A1 *305:96 0
38 *813:B *823:CLK 0
39 *813:B *853:CLK 1.16646e-05
40 *813:B *305:14 0
41 *813:B *305:38 3.52139e-06
42 *823:D *823:CLK 5.72004e-05
43 *849:D *849:CLK 0.000265917
44 *850:D *850:CLK 7.35813e-05
45 *850:RESET_B *305:51 5.39961e-05
46 *850:RESET_B *305:66 0.00012904
47 *851:D *852:CLK 3.91475e-05
48 *851:D *305:96 2.99518e-06
49 *853:D *305:12 4.64635e-05
50 *853:D *305:14 2.39373e-05
51 *853:D *305:38 0.000131658
52 *878:A *849:CLK 0.00038671
53 *880:A *849:CLK 1.88602e-05
54 *101:25 *305:96 5.91331e-05
55 *101:31 *852:CLK 4.96188e-05
56 *101:31 *305:96 7.23943e-06
57 *107:12 *852:CLK 4.43871e-06
58 *141:10 *823:CLK 0.000116151
59 *228:14 *852:CLK 7.04485e-05
60 *232:10 *849:CLK 0
61 *232:10 *305:12 0
62 *232:10 *305:66 0
63 *232:10 *305:96 0
64 *232:35 *852:CLK 0
*RES
1 *858:X *305:8 4.05 
2 *305:8 *305:12 3.7275 
3 *305:12 *305:14 2.7975 
4 *305:14 *823:CLK 7.53 
5 *305:14 *822:CLK 4.05 
6 *305:12 *305:38 5.4275 
7 *305:38 *853:CLK 3.01 
8 *305:38 *305:51 3.635 
9 *305:51 *850:CLK 6.81 
10 *305:51 *305:66 4.23 
11 *305:66 *861:A 5.085 
12 *305:66 *849:CLK 14.97 
13 *305:8 *305:96 2.655 
14 *305:96 *851:CLK 3.6 
15 *305:96 *852:CLK 7.53 
*END

*D_NET *306 0.00287987
*CONN
*I *656:A I *D sky130_fd_sc_hd__nand2_1
*I *812:A I *D sky130_fd_sc_hd__or2_1
*I *866:X O *D sky130_fd_sc_hd__clkbuf_1
*CAP
1 *656:A 5.34728e-05
2 *812:A 0.00067948
3 *866:X 7.91565e-05
4 *306:6 0.000812109
5 *656:A *910:A 1.07797e-05
6 *656:A *333:31 0.000157595
7 *812:A *812:B 8.08439e-05
8 *812:A *333:31 0.000702282
9 *306:6 *333:31 3.66286e-05
10 *853:RESET_B *656:A 0.00013521
11 *853:RESET_B *812:A 4.82863e-05
12 *853:RESET_B *306:6 8.40269e-05
*RES
1 *866:X *306:6 3.085 
2 *306:6 *812:A 16.085 
3 *306:6 *656:A 7.49 
*END

*D_NET *307 0.00167508
*CONN
*I *712:B1 I *D sky130_fd_sc_hd__o211a_1
*I *702:A I *D sky130_fd_sc_hd__or2_1
*I *703:A I *D sky130_fd_sc_hd__nand2_1
*I *867:X O *D sky130_fd_sc_hd__buf_1
*CAP
1 *712:B1 6.40536e-05
2 *702:A 2.54989e-05
3 *703:A 7.80409e-05
4 *867:X 0
5 *307:8 0.000393066
6 *307:6 0.000353579
7 *703:A *703:B 7.63204e-05
8 *703:A *906:A 0
9 *703:A *343:14 4.43871e-06
10 *712:B1 *715:A2 0.000117832
11 *307:8 *715:A2 3.25831e-05
12 *307:8 *308:10 5.72004e-05
13 *307:8 *308:21 5.98004e-06
14 *307:8 *343:14 0.000110421
15 acc[16] *307:8 4.13879e-05
16 *704:B *307:8 9.9535e-05
17 *715:C1 *307:8 0
18 *854:A *702:A 4.82919e-05
19 *190:10 *703:A 5.02217e-05
20 *190:10 *307:8 0.000116629
*RES
1 *867:X *307:6 3.6 
2 *307:6 *307:8 7.245 
3 *307:8 *703:A 5.235 
4 *307:8 *702:A 4.05 
5 *307:6 *712:B1 4.98 
*END

*D_NET *308 0.00128564
*CONN
*I *705:A I *D sky130_fd_sc_hd__xnor2_1
*I *712:A1 I *D sky130_fd_sc_hd__o211a_1
*I *715:A1 I *D sky130_fd_sc_hd__a211oi_1
*I *868:X O *D sky130_fd_sc_hd__buf_1
*CAP
1 *705:A 2.59446e-05
2 *712:A1 9.73191e-06
3 *715:A1 0
4 *868:X 0.00016013
5 *308:21 9.94016e-05
6 *308:10 0.000223855
7 *705:A *712:C1 0.000190633
8 *705:A *344:18 0.000201508
9 *712:A1 *712:C1 4.82863e-05
10 *712:A1 *344:18 4.82863e-05
11 *308:10 *344:10 0
12 *308:21 *715:A2 7.63282e-05
13 *308:21 *344:10 0
14 *704:B *308:10 1.83847e-05
15 *715:B1 *308:10 5.53249e-06
16 *715:B1 *308:21 6.74079e-05
17 *715:C1 *308:10 4.70343e-05
18 *307:8 *308:10 5.72004e-05
19 *307:8 *308:21 5.98004e-06
*RES
1 *868:X *308:10 6.375 
2 *308:10 *715:A1 3.6 
3 *308:10 *308:21 3.89 
4 *308:21 *712:A1 2.05 
5 *308:21 *705:A 3.43 
*END

*D_NET *309 0.00140554
*CONN
*I *654:A I *D sky130_fd_sc_hd__nor2_1
*I *652:A I *D sky130_fd_sc_hd__nand2_1
*I *869:X O *D sky130_fd_sc_hd__clkbuf_1
*CAP
1 *654:A 0.000122693
2 *652:A 0.000140974
3 *869:X 0.000112234
4 *309:8 0.000375901
5 *652:A *652:B 0.000114746
6 *652:A *921:A 0
7 *652:A *345:23 3.86607e-05
8 *654:A *910:A 5.53249e-06
9 *654:A *345:23 0.000121094
10 *654:A *371:51 4.70343e-05
11 *309:8 *319:16 8.51419e-05
12 *823:RESET_B *652:A 0.000162311
13 *823:RESET_B *654:A 3.09233e-05
14 *823:RESET_B *309:8 4.82919e-05
15 *879:A *654:A 0
16 *884:A *652:A 0
17 *144:10 *652:A 0
*RES
1 *869:X *309:8 5.085 
2 *309:8 *652:A 7.02 
3 *309:8 *654:A 6.255 
*END

*D_NET *310 0.00133244
*CONN
*I *729:A I *D sky130_fd_sc_hd__or2_1
*I *728:A I *D sky130_fd_sc_hd__nand2_1
*I *870:X O *D sky130_fd_sc_hd__clkbuf_1
*CAP
1 *729:A 0
2 *728:A 0.000113066
3 *870:X 0.000226381
4 *310:12 0.000339447
5 *728:A *729:B 2.7881e-05
6 *728:A *344:10 9.29751e-06
7 *728:A *346:21 0.000161128
8 *728:A *370:47 0.000183738
9 *310:12 *602:A 4.82863e-05
10 *310:12 *911:A 0.000109058
11 *310:12 *370:47 0.000114157
*RES
1 *870:X *310:12 5.635 
2 *310:12 *728:A 8.795 
3 *310:12 *729:A 1.6 
*END

*D_NET *311 0.000800233
*CONN
*I *718:A I *D sky130_fd_sc_hd__or2_1
*I *717:A I *D sky130_fd_sc_hd__nand2_1
*I *871:X O *D sky130_fd_sc_hd__clkbuf_1
*CAP
1 *718:A 0
2 *717:A 5.54713e-05
3 *871:X 8.9138e-05
4 *311:12 0.000144609
5 *717:A *717:B 4.24643e-05
6 *311:12 *912:A 0
7 *311:12 *370:62 9.30787e-05
8 *204:6 *717:A 0.000124007
9 *204:6 *311:12 0.00012657
10 *204:15 *311:12 3.66286e-05
11 *205:6 *311:12 8.8266e-05
*RES
1 *871:X *311:12 8.21 
2 *311:12 *717:A 3.1 
3 *311:12 *718:A 1.6 
*END

*D_NET *312 0.00114614
*CONN
*I *720:A I *D sky130_fd_sc_hd__or2_1
*I *721:A I *D sky130_fd_sc_hd__nand2_1
*I *872:X O *D sky130_fd_sc_hd__clkbuf_1
*CAP
1 *720:A 0.000124135
2 *721:A 0.000153348
3 *872:X 0.000107189
4 *312:6 0.000384672
5 *721:A *721:B 5.4155e-06
6 acc[19] *721:A 0
7 *722:A *720:A 0.000162318
8 *722:B *721:A 3.20741e-05
9 *848:CLK *720:A 0
10 *872:A *720:A 1.70935e-05
11 *872:A *721:A 6.91111e-05
12 *872:A *312:6 9.07793e-05
13 *304:84 *720:A 0
*RES
1 *872:X *312:6 3.085 
2 *312:6 *721:A 3.955 
3 *312:6 *720:A 8.255 
*END

*D_NET *313 0.000970352
*CONN
*I *723:A I *D sky130_fd_sc_hd__nand2_1
*I *724:A I *D sky130_fd_sc_hd__or2_1
*I *873:X O *D sky130_fd_sc_hd__clkbuf_1
*CAP
1 *723:A 0.000131053
2 *724:A 0.000189431
3 *873:X 3.61565e-05
4 *313:6 0.00035664
5 *724:A *724:B 7.56981e-05
6 *724:A *349:21 3.64532e-05
7 *725:A *723:A 1.34503e-05
8 *735:A *724:A 3.45117e-05
9 *873:A *723:A 4.94474e-05
10 *873:A *313:6 2.07836e-05
11 *875:A *723:A 0
12 *210:6 *723:A 2.67275e-05
*RES
1 *873:X *313:6 2.05 
2 *313:6 *724:A 9.275 
3 *313:6 *723:A 3.805 
*END

*D_NET *314 0.00185868
*CONN
*I *632:A I *D sky130_fd_sc_hd__or2_1
*I *631:A I *D sky130_fd_sc_hd__nand2_1
*I *874:X O *D sky130_fd_sc_hd__clkbuf_1
*CAP
1 *632:A 8.00162e-05
2 *631:A 2.56451e-05
3 *874:X 0.00043591
4 *314:16 0.000541572
5 *632:A *631:B 0.00012657
6 *314:16 *916:A 4.6035e-05
7 *619:A *314:16 1.15688e-05
8 *619:B *314:16 0.000117832
9 *624:B *314:16 5.42646e-05
10 *625:A *314:16 4.31189e-05
11 *630:A2 *314:16 0
12 *633:B *632:A 4.99619e-05
13 *633:B *314:16 0.000115464
14 *761:B1 *314:16 0
15 *762:A *314:16 2.77283e-05
16 *763:C *314:16 0
17 *110:23 *314:16 2.90488e-05
18 *118:10 *631:A 7.00889e-06
19 *118:10 *632:A 1.12578e-05
20 *118:10 *314:16 0
21 *118:33 *314:16 4.9968e-05
22 *120:14 *314:16 4.07724e-05
23 *120:18 *632:A 0
24 *240:8 *314:16 4.49328e-05
*RES
1 *874:X *314:16 14.45 
2 *314:16 *631:A 2.05 
3 *314:16 *632:A 3.445 
*END

*D_NET *315 0.00152135
*CONN
*I *618:A I *D sky130_fd_sc_hd__or2_1
*I *617:A I *D sky130_fd_sc_hd__nand2_1
*I *875:X O *D sky130_fd_sc_hd__clkbuf_1
*CAP
1 *618:A 0.000150923
2 *617:A 0
3 *875:X 0.000221088
4 *315:12 0.000372011
5 *618:A *617:B 0.000205076
6 *315:12 *617:B 7.49727e-06
7 *315:12 *916:A 0
8 *315:12 *349:21 0
9 *315:12 *352:10 0
10 *315:12 *370:91 3.04982e-05
11 acc[25] *315:12 0
12 *625:A *618:A 4.82919e-05
13 *760:A1 *618:A 0.0002659
14 *760:A2 *618:A 3.25635e-05
15 *762:B *315:12 0.000116165
16 *848:CLK *315:12 0
17 *104:6 *618:A 5.53137e-05
18 *104:6 *315:12 9.01143e-06
19 *105:6 *618:A 7.00889e-06
*RES
1 *875:X *315:12 9.41 
2 *315:12 *617:A 1.6 
3 *315:12 *618:A 6.295 
*END

*D_NET *316 0.00452183
*CONN
*I *622:A I *D sky130_fd_sc_hd__or2_1
*I *621:A I *D sky130_fd_sc_hd__nand2_1
*I *627:B1 I *D sky130_fd_sc_hd__o211a_1
*I *876:X O *D sky130_fd_sc_hd__buf_1
*CAP
1 *622:A 2.08101e-05
2 *621:A 0.000195957
3 *627:B1 0
4 *876:X 0.000663585
5 *316:33 0.00036716
6 *316:20 0.000813979
7 *621:A *621:B 4.49498e-05
8 *621:A *746:A 0
9 *621:A *353:21 3.23663e-05
10 *316:20 *754:A 0.000191805
11 *316:20 *915:A 7.45042e-05
12 *316:20 *320:14 0.000119756
13 *316:20 *353:34 5.53249e-06
14 *316:20 *354:12 0
15 *316:33 *746:A 0.000238137
16 *316:33 *915:A 0.000105566
17 *316:33 *353:21 2.59835e-05
18 *316:33 *353:34 0.000182418
19 acc[24] *621:A 7.00889e-06
20 acc[24] *316:33 4.47125e-05
21 *623:A *621:A 4.99619e-05
22 *623:B *621:A 0.00011378
23 *626:B *316:20 4.62787e-05
24 *630:A1 *316:20 0.000122337
25 *630:A2 *316:20 9.58678e-06
26 *743:A_N *316:20 3.61989e-05
27 *743:B *316:20 5.06605e-05
28 *745:A *316:20 9.89532e-05
29 *749:A1 *316:20 4.47125e-05
30 *751:A2 *316:20 0.00018371
31 *751:B1 *316:20 0.000160641
32 *849:CLK *316:33 0
33 *849:D *316:20 0
34 *851:D *316:20 0.000309618
35 *874:A *621:A 0.000152563
36 *228:20 *316:20 8.59514e-06
*RES
1 *876:X *316:20 17.28 
2 *316:20 *627:B1 3.6 
3 *316:20 *316:33 7.01 
4 *316:33 *621:A 10.37 
5 *316:33 *622:A 1.96 
*END

*D_NET *317 0.00255386
*CONN
*I *638:A I *D sky130_fd_sc_hd__nand2_1
*I *639:A I *D sky130_fd_sc_hd__or2_1
*I *877:X O *D sky130_fd_sc_hd__clkbuf_1
*CAP
1 *638:A 5.02968e-05
2 *639:A 0.000412601
3 *877:X 0
4 *317:6 0.000462898
5 *638:A *638:B 2.66935e-05
6 *639:A *638:B 0.00019863
7 *639:A *331:22 0.000319633
8 *639:A *334:8 8.23457e-05
9 *640:B *639:A 0.000168047
10 *646:A2 *639:A 2.39856e-05
11 *681:B *638:A 6.45236e-05
12 *681:B *639:A 0.000177532
13 *792:A1 *639:A 6.74079e-05
14 *794:A2 *639:A 0.000122834
15 *894:A *639:A 2.68721e-05
16 *125:10 *639:A 8.69864e-05
17 *166:18 *638:A 4.82919e-05
18 *167:10 *639:A 7.23602e-05
19 *257:8 *639:A 0.000141921
*RES
1 *877:X *317:6 3.6 
2 *317:6 *639:A 15.72 
3 *317:6 *638:A 4.92 
*END

*D_NET *318 0.00211625
*CONN
*I *628:A1 I *D sky130_fd_sc_hd__a211o_1
*I *620:A I *D sky130_fd_sc_hd__xnor2_1
*I *627:A1 I *D sky130_fd_sc_hd__o211a_1
*I *878:X O *D sky130_fd_sc_hd__buf_1
*CAP
1 *628:A1 0
2 *620:A 9.09573e-05
3 *627:A1 0
4 *878:X 0.000222113
5 *318:18 0.00018102
6 *318:12 0.000312176
7 *620:A *627:A2 2.81017e-05
8 *620:A *628:A2 1.61831e-05
9 *620:A *917:A 0.000149274
10 *620:A *354:16 0.000149015
11 *318:12 *621:B 4.43871e-06
12 *318:12 *746:A 8.61248e-05
13 *318:12 *747:A 2.67022e-05
14 *318:18 *627:A2 3.26889e-05
15 *318:18 *628:A2 0.000305678
16 *628:B1 *620:A 0.000135264
17 *628:B1 *318:18 5.9584e-05
18 *628:C1 *620:A 9.72742e-06
19 *628:C1 *318:18 5.22973e-05
20 *629:A *318:12 0.000242063
21 *878:A *318:12 5.83121e-06
22 *110:23 *318:12 0
23 *116:6 *318:12 7.00889e-06
*RES
1 *878:X *318:12 10.07 
2 *318:12 *318:18 3.24 
3 *318:18 *627:A1 1.6 
4 *318:18 *620:A 5.665 
5 *318:12 *628:A1 1.6 
*END

*D_NET *319 0.00429823
*CONN
*I *614:A I *D sky130_fd_sc_hd__nand2_1
*I *615:A I *D sky130_fd_sc_hd__or2_1
*I *879:X O *D sky130_fd_sc_hd__clkbuf_1
*CAP
1 *614:A 8.12594e-06
2 *615:A 0.000151293
3 *879:X 0.000638777
4 *319:16 0.000798196
5 *614:A *615:B 4.82919e-05
6 *614:A *747:B 3.74161e-05
7 *615:A *615:B 0.000733522
8 *615:A *747:B 0.000847191
9 *319:16 *611:A 0
10 *319:16 *741:A 0
11 *319:16 *910:A 3.77199e-05
12 *319:16 *345:23 4.24292e-06
13 *319:16 *355:10 5.21627e-05
14 *319:16 *371:38 5.49126e-05
15 *319:16 *371:51 3.23663e-05
16 *616:B *615:A 4.82863e-05
17 *657:B1 *319:16 8.49205e-05
18 *755:A *319:16 0
19 *813:B *319:16 0.00013687
20 *823:CLK *319:16 0
21 *823:RESET_B *319:16 4.82919e-05
22 *853:D *319:16 7.70938e-05
23 *869:A *319:16 9.22715e-05
24 *139:12 *319:16 1.52184e-05
25 *143:10 *319:16 0.00010596
26 *143:18 *319:16 0.000159957
27 *305:12 *319:16 0
28 *305:14 *319:16 0
29 *309:8 *319:16 8.51419e-05
*RES
1 *879:X *319:16 19.175 
2 *319:16 *615:A 9.79 
3 *319:16 *614:A 2.05 
*END

*D_NET *320 0.00463428
*CONN
*I *741:A I *D sky130_fd_sc_hd__nor2_1
*I *742:A I *D sky130_fd_sc_hd__nand2_1
*I *880:X O *D sky130_fd_sc_hd__clkbuf_1
*CAP
1 *741:A 0.000505061
2 *742:A 0.000298144
3 *880:X 0.000508081
4 *320:14 0.00131129
5 *741:A *611:A 0.000121167
6 *741:A *741:B 1.86911e-05
7 *741:A *754:A 0.000242935
8 *741:A *899:A 7.96104e-06
9 *741:A *910:A 4.66108e-05
10 *741:A *919:A 0.000128182
11 *741:A *333:31 3.59531e-06
12 *741:A *355:10 0
13 *741:A *359:8 2.75145e-05
14 *741:A *371:66 0.000113821
15 *745:B *320:14 7.06865e-05
16 *753:A1 *320:14 0.000234674
17 *753:A2 *741:A 8.09021e-06
18 *753:A2 *742:A 0.000155348
19 *753:B1 *741:A 4.49939e-05
20 *849:RESET_B *742:A 0.000176647
21 *851:D *742:A 3.67779e-05
22 *852:CLK *742:A 0
23 *852:RESET_B *741:A 4.80532e-05
24 *876:A *742:A 0.000250567
25 *103:16 *320:14 2.30292e-05
26 *228:14 *742:A 0.000107998
27 *232:10 *320:14 2.46089e-05
28 *316:20 *320:14 0.000119756
29 *319:16 *741:A 0
*RES
1 *880:X *320:14 12.2 
2 *320:14 *742:A 13.1 
3 *320:14 *741:A 15.515 
*END

*D_NET *321 0.0031002
*CONN
*I *650:A I *D sky130_fd_sc_hd__and2_1
*I *651:A I *D sky130_fd_sc_hd__nor2_1
*I *881:X O *D sky130_fd_sc_hd__clkbuf_1
*CAP
1 *650:A 0.000577651
2 *651:A 0.00025629
3 *881:X 0
4 *321:4 0.000833941
5 *650:A *650:B 1.00941e-05
6 *650:A *921:A 4.20983e-05
7 *650:A *357:8 3.1835e-05
8 *650:A *357:10 5.59619e-05
9 *651:A *660:A 2.03321e-05
10 *651:A *332:30 0.000212505
11 *651:A *360:10 0
12 *651:A *360:14 0
13 *804:B *651:A 2.92479e-05
14 *806:A *651:A 0.000191533
15 *811:A *651:A 0.0001249
16 *824:CLK *650:A 0.00010978
17 *824:CLK *651:A 8.8266e-05
18 *824:D *650:A 0.000201044
19 *824:D *651:A 8.8266e-05
20 *826:RESET_B *651:A 2.75145e-05
21 *828:D *651:A 0.000198945
*RES
1 *881:X *321:4 1.6 
2 *321:4 *651:A 13.04 
3 *321:4 *650:A 15.905 
*END

*D_NET *322 0.00461545
*CONN
*I *746:A I *D sky130_fd_sc_hd__nor2_1
*I *747:A I *D sky130_fd_sc_hd__nand2_1
*I *882:X O *D sky130_fd_sc_hd__clkbuf_1
*CAP
1 *746:A 0.0010454
2 *747:A 0.00024327
3 *882:X 0
4 *322:6 0.00128867
5 *746:A *621:B 0
6 *746:A *742:B 2.49909e-05
7 *746:A *746:B 5.4155e-06
8 *746:A *915:A 0.000112605
9 *746:A *918:A 1.9415e-05
10 *746:A *353:34 2.24089e-05
11 *746:A *354:12 5.99708e-05
12 *747:A *915:A 9.13366e-05
13 acc[24] *746:A 0.000239813
14 acc[27] *746:A 0.000315527
15 *621:A *746:A 0
16 *629:A *747:A 0
17 *738:A1 *747:A 9.14049e-05
18 *738:A3 *747:A 0
19 *738:B1 *747:A 1.07797e-05
20 *740:A *747:A 1.26626e-05
21 *743:A_N *747:A 2.3478e-05
22 *743:B *747:A 1.22505e-05
23 *849:CLK *746:A 9.66021e-05
24 *849:RESET_B *746:A 9.30977e-05
25 *874:A *746:A 0
26 *882:A *746:A 1.82373e-05
27 *883:A *746:A 4.92861e-05
28 *883:A *747:A 2.05641e-05
29 *116:10 *747:A 0.00022372
30 *228:14 *746:A 2.67275e-05
31 *301:28 *747:A 0.000116853
32 *316:33 *746:A 0.000238137
33 *318:12 *746:A 8.61248e-05
34 *318:12 *747:A 2.67022e-05
*RES
1 *882:X *322:6 3.6 
2 *322:6 *747:A 9.51 
3 *322:6 *746:A 22.875 
*END

*D_NET *323 0.0049175
*CONN
*I *754:A I *D sky130_fd_sc_hd__xnor2_1
*I *883:X O *D sky130_fd_sc_hd__clkbuf_1
*CAP
1 *754:A 0.0015588
2 *883:X 0.0015588
3 *754:A *610:A 4.77719e-05
4 *754:A *611:A 1.14169e-05
5 *754:A *741:B 0.000193127
6 *754:A *915:A 6.95717e-05
7 *616:B *754:A 9.50947e-05
8 *741:A *754:A 0.000242935
9 *743:A_N *754:A 7.96972e-05
10 *753:A1 *754:A 0.000335615
11 *764:A *754:A 0
12 *764:B *754:A 5.63701e-05
13 *849:CLK *754:A 0
14 *852:RESET_B *754:A 6.06593e-05
15 *880:A *754:A 0.000139371
16 *883:A *754:A 8.40213e-05
17 *117:12 *754:A 0.000192452
18 *316:20 *754:A 0.000191805
*RES
1 *883:X *754:A 20.7964 
*END

*D_NET *324 0.0042812
*CONN
*I *659:A1 I *D sky130_fd_sc_hd__a21o_1
*I *660:A I *D sky130_fd_sc_hd__xor2_1
*I *661:A1 I *D sky130_fd_sc_hd__o22ai_1
*I *674:A1 I *D sky130_fd_sc_hd__o221ai_4
*I *884:X O *D sky130_fd_sc_hd__clkbuf_2
*CAP
1 *659:A1 0
2 *660:A 0.000104539
3 *661:A1 3.36227e-05
4 *674:A1 1.93866e-05
5 *884:X 0.000458796
6 *324:48 0.000307818
7 *324:35 0.000544032
8 *324:14 0.000785313
9 *660:A *360:14 0.000116158
10 *660:A *360:20 1.83756e-05
11 *324:14 *650:B 6.63219e-06
12 *324:14 *924:A 0.000386893
13 *324:14 *930:A 0.000194694
14 *324:14 *357:10 8.77495e-06
15 *324:35 *651:B 0.000284992
16 *324:48 *661:A2 2.19562e-06
17 *324:48 *360:20 1.82842e-05
18 acc[3] *324:14 1.92979e-05
19 acc[9] *324:14 1.33293e-05
20 *651:A *660:A 2.03321e-05
21 *659:B1 *661:A1 3.21081e-06
22 *659:B1 *324:48 3.27707e-05
23 *661:B2 *661:A1 1.08758e-05
24 *797:A *674:A1 5.05167e-05
25 *797:A *324:35 0.000154271
26 *797:B *674:A1 4.92861e-05
27 *797:B *324:35 9.28053e-05
28 *798:A *324:14 1.61831e-05
29 *798:B *324:14 2.16917e-05
30 *804:A *324:35 3.82018e-05
31 *806:A *660:A 3.86529e-05
32 *824:CLK *324:35 3.993e-05
33 *824:RESET_B *324:14 0
34 *826:RESET_B *660:A 1.33293e-05
35 *881:A *324:35 2.09163e-05
36 *886:A *324:14 0
37 *886:A *324:35 2.18128e-05
38 *137:12 *324:14 0.000274675
39 *146:6 *661:A1 4.66108e-05
40 *146:6 *324:48 1.19928e-05
*RES
1 *884:X *324:14 17.305 
2 *324:14 *674:A1 4.215 
3 *324:14 *324:35 6.46087 
4 *324:35 *661:A1 2.41 
5 *324:35 *324:48 2.535 
6 *324:48 *660:A 7.775 
7 *324:48 *659:A1 1.6 
*END

*D_NET *325 0.001878
*CONN
*I *670:A I *D sky130_fd_sc_hd__nand2_1
*I *671:A I *D sky130_fd_sc_hd__or2_1
*I *885:X O *D sky130_fd_sc_hd__clkbuf_1
*CAP
1 *670:A 0.000171754
2 *671:A 0
3 *885:X 0.000329394
4 *325:10 0.000501149
5 *670:A *670:B 0
6 *325:10 *667:B 1.44259e-05
7 *325:10 *668:A 0.000248247
8 *325:10 *925:A 0.000158175
9 *325:10 *927:A 2.49909e-05
10 acc[9] *670:A 5.83121e-06
11 *672:A *670:A 4.21314e-05
12 *672:A *325:10 0.000312077
13 *826:D *670:A 0
14 *885:A *325:10 3.65279e-05
15 *886:A *670:A 0
16 *886:A *325:10 0
17 *157:12 *670:A 3.32916e-05
*RES
1 *885:X *325:10 10.14 
2 *325:10 *671:A 3.6 
3 *325:10 *670:A 6.285 
*END

*D_NET *326 0.00262775
*CONN
*I *667:A I *D sky130_fd_sc_hd__nand2_1
*I *668:A I *D sky130_fd_sc_hd__or2_1
*I *886:X O *D sky130_fd_sc_hd__clkbuf_1
*CAP
1 *667:A 0
2 *668:A 0.000430365
3 *886:X 0.000245554
4 *326:14 0.000675919
5 *668:A *667:B 0.000125244
6 *326:14 *815:A 2.24999e-05
7 *326:14 *930:A 4.92733e-05
8 acc[7] *668:A 0.000192125
9 *672:A *668:A 1.26548e-05
10 *672:B *668:A 0.000272994
11 *797:B *326:14 0
12 *798:B *326:14 0.000131086
13 *799:A2 *326:14 5.53249e-06
14 *802:A2 *668:A 0
15 *827:RESET_B *668:A 1.09302e-05
16 *827:RESET_B *326:14 4.77719e-05
17 *154:12 *668:A 4.77757e-05
18 *159:29 *326:14 0
19 *259:12 *326:14 0.000109782
20 *325:10 *668:A 0.000248247
*RES
1 *886:X *326:14 9.92 
2 *326:14 *668:A 14.09 
3 *326:14 *667:A 1.6 
*END

*D_NET *327 0.00544715
*CONN
*I *662:A I *D sky130_fd_sc_hd__xnor2_1
*I *805:A1 I *D sky130_fd_sc_hd__a21oi_1
*I *675:A1 I *D sky130_fd_sc_hd__a21oi_1
*I *887:X O *D sky130_fd_sc_hd__buf_1
*CAP
1 *662:A 4.1358e-05
2 *805:A1 0.000334165
3 *675:A1 1.09472e-05
4 *887:X 0.000497777
5 *327:16 0.00118159
6 *327:10 0.00137561
7 *662:A *662:B 0.000122337
8 *675:A1 *364:27 8.7152e-06
9 *327:10 *592:A 2.49909e-05
10 *327:10 *662:B 0.00011215
11 *327:10 *663:A 9.044e-05
12 *327:10 *664:A 2.96426e-05
13 *327:10 *664:B 8.40213e-05
14 *327:10 *819:A 0.000112464
15 *327:10 *329:10 6.76938e-05
16 *327:10 *332:30 1.7635e-05
17 acc[11] *662:A 0.000122331
18 acc[6] *675:A1 1.92979e-05
19 acc[8] *662:A 1.61831e-05
20 acc[8] *327:10 0
21 acc[8] *327:16 0
22 acc[9] *327:16 0
23 *806:A *327:10 0.000188231
24 *806:A *327:16 8.41015e-06
25 *806:B *805:A1 0.000376259
26 *806:B *327:16 0.000292494
27 *833:RESET_B *327:10 0
28 *889:A *805:A1 3.15377e-05
29 *889:A *327:16 0.000280873
*RES
1 *887:X *327:10 13.23 
2 *327:10 *327:16 2.1689 
3 *327:16 *675:A1 4.3325 
4 *327:16 *805:A1 5.01143 
5 *327:10 *662:A 5.085 
*END

*D_NET *328 0.00210426
*CONN
*I *635:A I *D sky130_fd_sc_hd__nor2_1
*I *636:A I *D sky130_fd_sc_hd__or2_1
*I *634:A I *D sky130_fd_sc_hd__nand2_1
*I *888:X O *D sky130_fd_sc_hd__clkbuf_1
*CAP
1 *635:A 4.43525e-05
2 *636:A 0.000361124
3 *634:A 0.000125037
4 *888:X 0
5 *328:19 0.000500683
6 *328:4 0.000220243
7 *634:A *634:B 6.02119e-05
8 *635:A *335:25 5.83121e-06
9 *636:A *636:B 3.95724e-05
10 *636:A *900:A 0
11 *636:A *335:25 8.23457e-05
12 *637:B *636:A 3.16275e-05
13 *646:A1 *636:A 8.73389e-06
14 *833:CLK *636:A 6.32121e-05
15 *833:D *636:A 7.23533e-05
16 *887:A *636:A 4.00949e-05
17 *887:A *328:19 0.000116853
18 *888:A *634:A 5.83121e-06
19 *888:A *636:A 4.84393e-05
20 *888:A *328:19 4.41506e-05
21 *890:A *636:A 0
22 *121:8 *634:A 2.15271e-05
23 *124:21 *634:A 2.8585e-06
24 *303:22 *636:A 2.92496e-05
25 *303:22 *328:19 0.000108322
26 *303:37 *635:A 4.66108e-05
27 *303:37 *636:A 2.49909e-05
*RES
1 *888:X *328:4 1.6 
2 *328:4 *634:A 3.355 
3 *328:4 *328:19 4.175 
4 *328:19 *636:A 13.69 
5 *328:19 *635:A 4.395 
*END

*D_NET *329 0.00472544
*CONN
*I *664:A I *D sky130_fd_sc_hd__nor2_1
*I *663:A I *D sky130_fd_sc_hd__and2_1
*I *889:X O *D sky130_fd_sc_hd__clkbuf_1
*CAP
1 *664:A 4.75737e-05
2 *663:A 0.000968952
3 *889:X 0.000575185
4 *329:10 0.00159171
5 *663:A *663:B 4.04522e-05
6 *663:A *364:27 2.75097e-05
7 *663:A *369:23 1.0183e-05
8 *664:A *664:B 3.293e-05
9 *664:A *819:A 1.62913e-05
10 *664:A *369:6 0.000123225
11 *329:10 *929:A 1.32843e-05
12 *329:10 *332:30 7.40651e-05
13 *329:10 *369:23 4.56414e-05
14 *645:A *329:10 4.66108e-05
15 *669:A *329:10 4.82863e-05
16 *675:B1 *663:A 8.95325e-05
17 *829:D *663:A 1.82499e-06
18 *829:RESET_B *663:A 0.000417808
19 *833:RESET_B *663:A 0
20 *889:A *329:10 0.000199541
21 *150:6 *663:A 8.49205e-05
22 *151:14 *329:10 9.58678e-06
23 *303:37 *663:A 7.25532e-05
24 *327:10 *663:A 9.044e-05
25 *327:10 *664:A 2.96426e-05
26 *327:10 *329:10 6.76938e-05
*RES
1 *889:X *329:10 11.46 
2 *329:10 *663:A 16.485 
3 *329:10 *664:A 5.1 
*END

*D_NET *330 0.00150791
*CONN
*I *647:A I *D sky130_fd_sc_hd__nand2_1
*I *648:A I *D sky130_fd_sc_hd__or2_1
*I *890:X O *D sky130_fd_sc_hd__clkbuf_1
*CAP
1 *647:A 5.10059e-05
2 *648:A 0
3 *890:X 0.000392051
4 *330:12 0.000443056
5 *647:A *648:B 4.82863e-05
6 *330:12 *364:6 8.65961e-05
7 *330:12 *368:77 0
8 *644:A *330:12 0
9 *828:RESET_B *330:12 9.54469e-05
10 *887:A *330:12 0
11 *889:A *330:12 0.000133168
12 *890:A *330:12 2.25179e-05
13 *124:21 *330:12 0
14 *134:6 *647:A 2.96334e-05
15 *134:18 *647:A 3.00381e-05
16 *303:20 *647:A 4.35432e-05
17 *303:20 *330:12 1.02348e-05
18 *303:22 *330:12 0
19 *303:37 *330:12 0.000122331
*RES
1 *890:X *330:12 12.965 
2 *330:12 *648:A 1.6 
3 *330:12 *647:A 3.1 
*END

*D_NET *331 0.00270079
*CONN
*I *642:A I *D sky130_fd_sc_hd__or2_1
*I *641:A I *D sky130_fd_sc_hd__nand2_1
*I *891:X O *D sky130_fd_sc_hd__clkbuf_1
*CAP
1 *642:A 8.58023e-05
2 *641:A 0
3 *891:X 0.000468671
4 *331:22 0.000554473
5 *642:A *641:B 0.000120655
6 *642:A *367:22 8.49205e-05
7 *331:22 *638:B 8.01816e-05
8 *639:A *331:22 0.000319633
9 *640:B *331:22 1.15688e-05
10 *645:C *642:A 2.59211e-05
11 *645:C *331:22 4.82919e-05
12 *646:A2 *331:22 0.000118081
13 *792:A1 *642:A 0.000267846
14 *794:A1 *331:22 5.37821e-05
15 *794:A2 *331:22 7.58244e-05
16 *795:B *331:22 0.000240512
17 *836:RESET_B *331:22 7.23602e-05
18 *891:A *331:22 5.31093e-05
19 *128:15 *642:A 1.91597e-05
*RES
1 *891:X *331:22 18.84 
2 *331:22 *641:A 1.6 
3 *331:22 *642:A 4.48 
*END

*D_NET *332 0.0120508
*CONN
*I *862:A I *D sky130_fd_sc_hd__buf_4
*I *863:A I *D sky130_fd_sc_hd__buf_2
*I *865:A I *D sky130_fd_sc_hd__buf_2
*I *864:A I *D sky130_fd_sc_hd__buf_4
*I *892:X O *D sky130_fd_sc_hd__dlymetal6s2s_1
*CAP
1 *862:A 0.000119863
2 *863:A 0.000123336
3 *865:A 3.30556e-05
4 *864:A 0.000915975
5 *892:X 0.00021915
6 *332:30 0.0016113
7 *332:20 0.00253466
8 *332:12 0.00208808
9 *862:A *368:18 5.27539e-05
10 *862:A *368:132 8.12462e-06
11 *863:A *664:B 8.23457e-05
12 *863:A *929:A 3.72952e-05
13 *863:A *930:A 5.46998e-05
14 *863:A *367:22 1.13796e-05
15 *864:A *370:12 8.64421e-05
16 *864:A *371:10 9.2741e-05
17 *865:A *371:10 5.05521e-05
18 *332:20 *339:22 9.24868e-05
19 *332:20 *367:22 0.000430581
20 *332:30 *360:10 0
21 *332:30 *367:12 1.88656e-05
22 *332:30 *369:23 0
23 *651:A *332:30 0.000212505
24 *669:A *332:30 0.000163921
25 *687:B *332:20 3.83542e-05
26 *785:A *332:12 5.77096e-05
27 *786:A1 *332:12 7.00889e-06
28 *786:A2 *332:12 0.000275553
29 *787:B *862:A 0
30 *787:B *332:12 3.00381e-05
31 *806:A *332:30 0.000331407
32 *811:A *332:30 0
33 *811:B *332:30 0
34 *829:RESET_B *863:A 3.72952e-05
35 *837:D *862:A 0
36 *840:CLK *864:A 0.000123955
37 *887:A *332:20 0.000111325
38 *893:A *332:20 0.000215152
39 *894:A *332:20 0.00013388
40 *151:14 *863:A 0.000149685
41 *151:14 *332:20 0.000179097
42 *156:14 *332:30 0.00044035
43 *164:12 *332:30 0.000268271
44 *173:27 *332:20 0.000223227
45 *253:8 *862:A 0
46 *301:12 *332:30 0.000221255
47 *301:28 *332:30 7.54567e-05
48 *327:10 *332:30 1.7635e-05
49 *329:10 *332:30 7.40651e-05
*RES
1 *892:X *332:12 8.31 
2 *332:12 *332:20 4.50013 
3 *332:20 *332:30 21.3925 
4 *332:30 *864:A 16.54 
5 *332:30 *865:A 2.395 
6 *332:20 *863:A 5.65357 
7 *332:12 *862:A 5.6175 
*END

*D_NET *333 0.00657275
*CONN
*I *899:A I *D sky130_fd_sc_hd__buf_2
*I *656:B I *D sky130_fd_sc_hd__nand2_1
*I *812:B I *D sky130_fd_sc_hd__or2_1
*I *822:Q O *D sky130_fd_sc_hd__dfrtp_1
*CAP
1 *899:A 0.00185743
2 *656:B 1.17375e-05
3 *812:B 9.99673e-05
4 *822:Q 3.65577e-05
5 *333:31 0.00232755
6 *333:6 0.000594913
7 *656:B *910:A 4.82919e-05
8 *656:B *359:8 2.75229e-05
9 *899:A *608:A 0.000147355
10 *899:A *746:B 6.62421e-05
11 *899:A *910:A 3.60648e-06
12 *333:31 *910:A 7.21296e-06
13 *333:31 *371:66 6.00334e-05
14 acc[28] *899:A 9.3062e-06
15 *656:A *333:31 0.000157595
16 *741:A *899:A 7.96104e-06
17 *741:A *333:31 3.59531e-06
18 *812:A *812:B 8.08439e-05
19 *812:A *333:31 0.000702282
20 *822:D *333:31 8.14616e-05
21 *822:RESET_B *333:6 5.30673e-05
22 *822:RESET_B *333:31 1.95248e-05
23 *882:A *899:A 4.55426e-05
24 *141:10 *333:31 8.65192e-05
25 *301:28 *812:B 0
26 *306:6 *333:31 3.66286e-05
*RES
1 *822:Q *333:6 2.395 
2 *333:6 *812:B 7.745 
3 *333:6 *333:31 14.495 
4 *333:31 *656:B 4.05 
5 *333:31 *899:A 10.1258 
*END

*D_NET *334 0.00315247
*CONN
*I *639:B I *D sky130_fd_sc_hd__or2_1
*I *638:B I *D sky130_fd_sc_hd__nand2_1
*I *900:A I *D sky130_fd_sc_hd__buf_2
*I *832:Q O *D sky130_fd_sc_hd__dfrtp_1
*CAP
1 *639:B 2.60093e-05
2 *638:B 0.000570674
3 *900:A 0.000128155
4 *832:Q 0.000145978
5 *334:10 0.000698828
6 *334:8 0.000171988
7 *638:B *597:A 0
8 *638:B *339:22 3.53866e-05
9 *638:B *368:56 0
10 *636:A *900:A 0
11 *637:B *900:A 0
12 *638:A *638:B 2.66935e-05
13 *639:A *638:B 0.00019863
14 *639:A *334:8 8.23457e-05
15 *640:B *334:8 2.01565e-05
16 *644:B *638:B 0.000190127
17 *646:A2 *639:B 1.83847e-05
18 *646:A2 *334:8 6.07575e-06
19 *680:B1 *638:B 0
20 *792:A1 *638:B 0.00011852
21 *794:A1 *900:A 2.84224e-05
22 *795:B *638:B 0.000146432
23 *795:B *900:A 0.000162234
24 *834:RESET_B *638:B 0
25 *891:A *900:A 4.99619e-05
26 *893:A *638:B 0.000113797
27 *893:A *900:A 6.28008e-05
28 *127:10 *638:B 7.06865e-05
29 *331:22 *638:B 8.01816e-05
*RES
1 *832:Q *334:8 3.445 
2 *334:8 *334:10 2 
3 *334:10 *900:A 6.705 
4 *334:10 *638:B 15.69 
5 *334:8 *639:B 2.05 
*END

*D_NET *335 0.00495824
*CONN
*I *901:A I *D sky130_fd_sc_hd__buf_2
*I *635:B I *D sky130_fd_sc_hd__nor2_1
*I *634:B I *D sky130_fd_sc_hd__nand2_1
*I *636:B I *D sky130_fd_sc_hd__or2_1
*I *833:Q O *D sky130_fd_sc_hd__dfrtp_1
*CAP
1 *901:A 0.00115723
2 *635:B 0
3 *634:B 7.39654e-05
4 *636:B 0.000136086
5 *833:Q 0
6 *335:25 0.000223383
7 *335:6 0.000792854
8 *335:4 0.00166458
9 *901:A *364:27 2.99518e-06
10 acc[6] *901:A 0
11 acc[8] *901:A 2.66935e-05
12 acc[8] *335:6 1.42449e-05
13 *634:A *634:B 6.02119e-05
14 *635:A *335:25 5.83121e-06
15 *636:A *636:B 3.95724e-05
16 *636:A *335:25 8.23457e-05
17 *646:A1 *335:25 2.5177e-05
18 *833:CLK *636:B 4.16262e-05
19 *833:CLK *335:6 1.83847e-05
20 *833:CLK *335:25 0.00013521
21 *833:D *634:B 0.000138551
22 *888:A *634:B 8.9362e-05
23 *888:A *335:25 0.000202095
24 *890:A *335:25 0
25 *121:8 *634:B 1.16578e-05
26 *124:21 *634:B 1.61831e-05
*RES
1 *833:Q *335:4 1.6 
2 *335:4 *335:6 5.625 
3 *335:6 *636:B 3.445 
4 *335:6 *335:25 7.81 
5 *335:25 *634:B 8.045 
6 *335:25 *635:B 1.6 
7 *335:4 *901:A 22.65 
*END

*D_NET *336 0.00412483
*CONN
*I *699:A2 I *D sky130_fd_sc_hd__a31o_1
*I *695:B I *D sky130_fd_sc_hd__or2_1
*I *902:A I *D sky130_fd_sc_hd__buf_2
*I *694:B I *D sky130_fd_sc_hd__nand2_1
*I *834:Q O *D sky130_fd_sc_hd__dfrtp_1
*CAP
1 *699:A2 3.94908e-05
2 *695:B 0
3 *902:A 0.000216212
4 *694:B 0
5 *834:Q 0.000961432
6 *336:30 0.000279125
7 *336:24 0.000382721
8 *336:14 0.00132073
9 *902:A *598:A 0.00012657
10 *902:A *694:A 1.85674e-05
11 *902:A *368:132 4.36241e-05
12 *336:24 *694:A 3.78737e-05
13 *336:24 *695:A 4.1977e-05
14 *336:30 *694:A 2.84092e-05
15 *336:30 *368:132 6.20192e-05
16 *696:A *336:30 1.37328e-05
17 *697:A2 *336:14 7.04534e-05
18 *699:B1 *336:24 8.25647e-05
19 *774:A1 *336:24 5.36384e-06
20 *781:A *336:14 2.03356e-05
21 *781:B *699:A2 0
22 *781:B *336:14 2.67193e-05
23 *834:D *336:14 8.11224e-05
24 *838:CLK *336:14 7.01303e-05
25 *839:CLK *336:24 7.81954e-05
26 *168:6 *336:14 3.83194e-05
27 *181:6 *336:24 2.30292e-05
28 *181:6 *336:30 4.82919e-05
29 *186:10 *336:14 7.81746e-06
*RES
1 *834:Q *336:14 16.685 
2 *336:14 *336:24 8.95 
3 *336:24 *336:30 1.86 
4 *336:30 *694:B 1.6 
5 *336:30 *902:A 5.875 
6 *336:24 *695:B 1.6 
7 *336:14 *699:A2 2.215 
*END

*D_NET *337 0.00213902
*CONN
*I *682:B I *D sky130_fd_sc_hd__nand2_1
*I *683:B I *D sky130_fd_sc_hd__or2_1
*I *903:A I *D sky130_fd_sc_hd__buf_2
*I *835:Q O *D sky130_fd_sc_hd__dfrtp_1
*CAP
1 *682:B 0.000569079
2 *683:B 5.66328e-05
3 *903:A 0.000135184
4 *835:Q 0
5 *337:8 0.000259255
6 *337:4 0.000636517
7 *682:B *368:132 2.37234e-05
8 acc[13] *903:A 3.00381e-05
9 acc[14] *903:A 3.23663e-05
10 *835:D *682:B 7.06865e-05
11 *835:RESET_B *682:B 2.86869e-05
12 *854:A *903:A 0.000163086
13 *854:A *337:8 0.000133763
14 *253:8 *903:A 0
*RES
1 *835:Q *337:4 1.6 
2 *337:4 *337:8 3.635 
3 *337:8 *903:A 6.63 
4 *337:8 *683:B 4.395 
5 *337:4 *682:B 12.515 
*END

*D_NET *338 0.00331812
*CONN
*I *686:B I *D sky130_fd_sc_hd__nand2_1
*I *904:A I *D sky130_fd_sc_hd__buf_2
*I *685:B I *D sky130_fd_sc_hd__or2_1
*I *836:Q O *D sky130_fd_sc_hd__dfrtp_1
*CAP
1 *686:B 0.000114177
2 *904:A 0.000338283
3 *685:B 5.08979e-05
4 *836:Q 4.31741e-05
5 *338:19 0.000654442
6 *338:6 0.000296054
7 *686:B *685:A 9.16941e-05
8 *686:B *686:A 0.000232082
9 *338:19 *685:A 0.000498682
10 *687:A *685:B 0
11 *693:A *686:B 0.000125304
12 *693:A *904:A 4.66108e-05
13 *693:A *338:19 2.73058e-05
14 *787:A *904:A 0.000124481
15 *787:A *338:19 0.000176359
16 *836:RESET_B *338:6 2.65814e-06
17 *837:D *904:A 1.83756e-05
18 *839:CLK *686:B 1.34361e-05
19 *171:22 *686:B 0.000174279
20 *173:10 *338:19 1.98705e-05
21 *178:14 *338:19 0.000269955
*RES
1 *836:Q *338:6 2.05 
2 *338:6 *685:B 2.47 
3 *338:6 *338:19 8.42 
4 *338:19 *904:A 9 
5 *338:19 *686:B 7.53 
*END

*D_NET *339 0.00585049
*CONN
*I *699:A1 I *D sky130_fd_sc_hd__a31o_1
*I *694:A I *D sky130_fd_sc_hd__nand2_1
*I *695:A I *D sky130_fd_sc_hd__or2_1
*I *893:X O *D sky130_fd_sc_hd__buf_1
*CAP
1 *699:A1 7.76722e-05
2 *694:A 0.000108039
3 *695:A 1.30314e-05
4 *893:X 0.00178015
5 *339:26 0.000374386
6 *339:22 0.00211114
7 *339:22 *368:56 0.000102288
8 *638:B *339:22 3.53866e-05
9 *644:B *339:22 3.79555e-05
10 *680:B1 *339:22 0
11 *699:A3 *699:A1 0.000150142
12 *699:B1 *694:A 8.41015e-06
13 *699:B1 *695:A 2.23203e-05
14 *699:B1 *699:A1 0
15 *795:A *339:22 5.83121e-06
16 *877:A *339:22 0.000620619
17 *893:A *339:22 9.42336e-05
18 *894:A *339:22 5.56205e-06
19 *898:A *339:26 0
20 *902:A *694:A 1.85674e-05
21 *127:10 *339:22 7.06865e-05
22 *169:21 *339:22 0
23 *169:21 *339:26 0
24 *181:6 *694:A 1.33293e-05
25 *332:20 *339:22 9.24868e-05
26 *336:24 *694:A 3.78737e-05
27 *336:24 *695:A 4.1977e-05
28 *336:30 *694:A 2.84092e-05
*RES
1 *893:X *339:22 12.4346 
2 *339:22 *339:26 0.8876 
3 *339:26 *695:A 4.0875 
4 *339:26 *694:A 5.5875 
5 *339:22 *699:A1 5.8625 
*END

*D_NET *340 0.00351658
*CONN
*I *688:B I *D sky130_fd_sc_hd__nand2_1
*I *689:B I *D sky130_fd_sc_hd__nor2_1
*I *690:B I *D sky130_fd_sc_hd__or2_1
*I *905:A I *D sky130_fd_sc_hd__buf_2
*I *837:Q O *D sky130_fd_sc_hd__dfrtp_1
*CAP
1 *688:B 0.000167841
2 *689:B 0
3 *690:B 0
4 *905:A 0.00020649
5 *837:Q 6.52939e-05
6 *340:50 0.000533225
7 *340:33 0.000415095
8 *340:8 0.000321495
9 *688:B *688:A 5.92482e-05
10 *340:33 *372:6 1.56428e-05
11 *340:50 *591:A 3.7837e-05
12 *340:50 *688:A 8.7152e-06
13 *340:50 *368:37 0
14 *340:50 *372:6 3.30017e-05
15 *340:50 *372:27 0.000156906
16 *691:A *905:A 0.000227489
17 *691:A *340:33 8.45475e-05
18 *691:B *905:A 0
19 *691:B *340:50 4.77719e-05
20 *698:A1 *340:50 1.71416e-05
21 *832:D *905:A 6.08681e-05
22 *832:D *340:33 9.14049e-05
23 *832:D *340:50 1.19525e-05
24 *832:RESET_B *340:50 1.14169e-05
25 *837:RESET_B *340:8 8.23457e-05
26 *894:A *688:B 0.000239581
27 *895:A *340:50 0
28 *896:A *905:A 0
29 *169:21 *688:B 0.000243892
30 *174:20 *340:33 4.66108e-05
31 *174:20 *340:50 7.32549e-05
32 *175:8 *688:B 9.93482e-05
33 *178:14 *905:A 4.89295e-05
34 *302:30 *688:B 3.09233e-05
35 *302:34 *688:B 7.831e-05
*RES
1 *837:Q *340:8 4.395 
2 *340:8 *905:A 8.07 
3 *340:8 *340:33 3.575 
4 *340:33 *690:B 1.6 
5 *340:33 *340:50 8.18 
6 *340:50 *689:B 3.6 
7 *340:50 *688:B 6.9826 
*END

*D_NET *341 0.00576925
*CONN
*I *708:B I *D sky130_fd_sc_hd__nand2_1
*I *709:B I *D sky130_fd_sc_hd__or2_1
*I *714:A2 I *D sky130_fd_sc_hd__a31o_1
*I *906:A I *D sky130_fd_sc_hd__buf_2
*I *838:Q O *D sky130_fd_sc_hd__dfrtp_1
*CAP
1 *708:B 0.000146784
2 *709:B 8.24184e-05
3 *714:A2 0
4 *906:A 0.000230038
5 *838:Q 0.00102992
6 *341:36 0.000229202
7 *341:14 0.000464261
8 *341:6 0.00126414
9 *708:B *708:A 4.99619e-05
10 *906:A *701:A 1.88904e-05
11 *906:A *713:A 0.000117986
12 *906:A *343:14 0.000122331
13 *906:A *373:8 0.000122331
14 *341:14 *714:A1 9.53428e-06
15 *341:14 *373:8 2.05056e-05
16 *341:14 *373:19 7.75097e-05
17 *703:A *906:A 0
18 *704:A *906:A 2.92496e-05
19 *704:B *906:A 1.1561e-05
20 *711:B1 *709:B 0.000120655
21 *714:B1 *341:14 4.82919e-05
22 *715:C1 *906:A 0.000106657
23 *773:A *341:6 1.36999e-05
24 *774:A1 *709:B 6.97124e-05
25 *775:C *709:B 6.32036e-05
26 *776:A *341:6 7.91708e-05
27 *776:B *708:B 1.73877e-05
28 *777:B1 *341:6 6.71882e-05
29 *777:B1 *341:14 3.19457e-05
30 *838:CLK *341:6 9.03088e-05
31 *838:D *341:6 1.07285e-05
32 *838:RESET_B *341:6 4.20162e-05
33 *839:D *708:B 8.9771e-05
34 *839:D *709:B 0.000135889
35 *854:A *708:B 4.99619e-05
36 *897:A *341:14 0
37 *189:12 *906:A 0.00016513
38 *190:10 *906:A 9.766e-05
39 *195:8 *708:B 0.00010511
40 *195:14 *708:B 6.70881e-05
41 *195:14 *709:B 6.21553e-05
42 *197:6 *341:6 9.27326e-05
43 *250:14 *708:B 0.000116165
*RES
1 *838:Q *341:6 13.78 
2 *341:6 *341:14 3.945 
3 *341:14 *906:A 12.065 
4 *341:14 *714:A2 1.6 
5 *341:6 *341:36 2 
6 *341:36 *709:B 6.375 
7 *341:36 *708:B 7.71 
*END

*D_NET *342 0.0027242
*CONN
*I *777:A2 I *D sky130_fd_sc_hd__a21o_1
*I *713:B I *D sky130_fd_sc_hd__and3_1
*I *701:B I *D sky130_fd_sc_hd__xnor2_1
*I *907:A I *D sky130_fd_sc_hd__buf_2
*I *839:Q O *D sky130_fd_sc_hd__dfrtp_1
*CAP
1 *777:A2 7.08649e-05
2 *713:B 0.000148051
3 *701:B 0
4 *907:A 0.000184133
5 *839:Q 0
6 *342:36 0.000457791
7 *342:23 0.000374995
8 *342:6 0.000320252
9 *713:B *701:A 0
10 *713:B *374:12 1.1561e-05
11 *713:B *374:20 2.06083e-05
12 *342:23 *701:A 4.99619e-05
13 *342:36 *701:A 0.000165373
14 acc[17] *907:A 1.83847e-05
15 *707:B *777:A2 4.17687e-05
16 *707:B *342:36 0
17 *714:A3 *713:B 5.08304e-06
18 *714:A3 *342:36 0.000109359
19 *714:B1 *713:B 0.000201393
20 *714:B1 *777:A2 8.53113e-06
21 *715:C1 *713:B 6.8665e-05
22 *839:RESET_B *907:A 0
23 *854:A *713:B 1.4389e-05
24 *854:A *907:A 0.000256304
25 *854:A *342:23 0.000132412
26 *188:8 *342:36 1.12578e-05
27 *188:15 *342:36 5.30673e-05
*RES
1 *839:Q *342:6 3.6 
2 *342:6 *907:A 7.65 
3 *342:6 *342:23 4.775 
4 *342:23 *701:B 1.6 
5 *342:23 *342:36 6.7325 
6 *342:36 *713:B 7.0875 
7 *342:36 *777:A2 4.8825 
*END

*D_NET *343 0.00661415
*CONN
*I *908:A I *D sky130_fd_sc_hd__buf_2
*I *712:C1 I *D sky130_fd_sc_hd__o211a_1
*I *702:B I *D sky130_fd_sc_hd__or2_1
*I *703:B I *D sky130_fd_sc_hd__nand2_1
*I *840:Q O *D sky130_fd_sc_hd__dfrtp_1
*CAP
1 *908:A 0.000415063
2 *712:C1 0.000258274
3 *702:B 2.54989e-05
4 *703:B 4.33473e-05
5 *840:Q 0.000179158
6 *343:40 0.000864215
7 *343:14 0.00050531
8 *343:6 0.0008065
9 *712:C1 *344:18 4.50251e-05
10 *908:A *909:A 0.00102747
11 *908:A *912:A 0
12 *908:A *344:10 5.23362e-05
13 *908:A *348:12 0
14 *908:A *370:62 0.00046962
15 *343:40 *344:10 0.000294428
16 *343:40 *344:14 1.91597e-05
17 *343:40 *344:18 5.83121e-06
18 *343:40 *346:21 5.83121e-06
19 *343:40 *370:47 8.08153e-06
20 acc[16] *343:14 4.13879e-05
21 *703:A *703:B 7.63204e-05
22 *703:A *343:14 4.43871e-06
23 *705:A *712:C1 0.000190633
24 *706:B *343:40 0.000114492
25 *712:A1 *712:C1 4.82863e-05
26 *715:C1 *343:40 0
27 *769:A *908:A 0
28 *778:A *343:6 2.49909e-05
29 *779:A1 *343:14 2.49909e-05
30 *779:A2 *343:14 9.91257e-05
31 *780:B *343:40 7.55391e-05
32 *840:D *343:6 2.11084e-05
33 *844:D *908:A 5.42473e-05
34 *854:A *702:B 4.82919e-05
35 *854:A *703:B 0.000140912
36 *854:A *343:14 2.14129e-05
37 *906:A *343:14 0.000122331
38 *189:12 *343:14 1.91597e-05
39 *192:8 *343:40 0.000305921
40 *250:14 *343:6 3.79854e-05
41 *250:14 *343:14 7.00889e-06
42 *307:8 *343:14 0.000110421
*RES
1 *840:Q *343:6 3.775 
2 *343:6 *343:14 9.86 
3 *343:14 *703:B 5.235 
4 *343:14 *702:B 4.05 
5 *343:6 *343:40 10 
6 *343:40 *712:C1 5.86 
7 *343:40 *908:A 18.2 
*END

*D_NET *344 0.00535141
*CONN
*I *909:A I *D sky130_fd_sc_hd__buf_2
*I *705:B I *D sky130_fd_sc_hd__xnor2_1
*I *712:A2 I *D sky130_fd_sc_hd__o211a_1
*I *715:A2 I *D sky130_fd_sc_hd__a211oi_1
*I *841:Q O *D sky130_fd_sc_hd__dfrtp_1
*CAP
1 *909:A 0.00045352
2 *705:B 0
3 *712:A2 0
4 *715:A2 8.01708e-05
5 *841:Q 0.00028457
6 *344:18 0.000232762
7 *344:14 0.000179308
8 *344:10 0.000764806
9 *909:A *721:B 0.0001249
10 *909:A *729:B 4.31106e-05
11 *909:A *346:21 0.00013994
12 *344:10 *346:21 8.53113e-06
13 *344:10 *370:31 9.91257e-05
14 *344:10 *370:47 0.00011964
15 acc[19] *909:A 4.82919e-05
16 *705:A *344:18 0.000201508
17 *712:A1 *344:18 4.82863e-05
18 *712:B1 *715:A2 0.000117832
19 *712:C1 *344:18 4.50251e-05
20 *715:B1 *344:10 0
21 *715:C1 *344:10 0
22 *722:A *909:A 0
23 *728:A *344:10 9.29751e-06
24 *780:A *344:10 4.66742e-05
25 *841:D *344:10 0.000502809
26 *843:D *909:A 0
27 *844:RESET_B *909:A 0.000226848
28 *908:A *909:A 0.00102747
29 *908:A *344:10 5.23362e-05
30 *191:10 *344:10 1.19928e-05
31 *208:10 *909:A 0
32 *209:16 *909:A 0
33 *244:10 *909:A 0
34 *245:10 *909:A 5.43211e-05
35 *307:8 *715:A2 3.25831e-05
36 *308:10 *344:10 0
37 *308:21 *715:A2 7.63282e-05
38 *308:21 *344:10 0
39 *343:40 *344:10 0.000294428
40 *343:40 *344:14 1.91597e-05
41 *343:40 *344:18 5.83121e-06
*RES
1 *841:Q *344:10 12.465 
2 *344:10 *344:14 2.45 
3 *344:14 *344:18 3.225 
4 *344:18 *715:A2 7.685 
5 *344:18 *712:A2 1.6 
6 *344:14 *705:B 1.6 
7 *344:10 *909:A 16.83 
*END

*D_NET *345 0.00325576
*CONN
*I *910:A I *D sky130_fd_sc_hd__buf_2
*I *654:B I *D sky130_fd_sc_hd__nor2_1
*I *652:B I *D sky130_fd_sc_hd__nand2_1
*I *823:Q O *D sky130_fd_sc_hd__dfrtp_1
*CAP
1 *910:A 0.000335763
2 *654:B 0
3 *652:B 0.000135606
4 *823:Q 0.000367192
5 *345:23 0.000440497
6 *345:8 0.000607532
7 *910:A *741:B 4.66108e-05
8 *910:A *359:8 5.33957e-05
9 *910:A *371:66 0
10 *652:A *652:B 0.000114746
11 *652:A *345:23 3.86607e-05
12 *654:A *910:A 5.53249e-06
13 *654:A *345:23 0.000121094
14 *656:A *910:A 1.07797e-05
15 *656:B *910:A 4.82919e-05
16 *741:A *910:A 4.66108e-05
17 *853:RESET_B *910:A 0.000181821
18 *899:A *910:A 3.60648e-06
19 *137:12 *652:B 9.91257e-05
20 *139:12 *652:B 0.000272679
21 *139:12 *345:23 0.000129735
22 *143:10 *910:A 6.02123e-05
23 *143:18 *910:A 1.34361e-05
24 *143:18 *345:23 7.36562e-05
25 *144:10 *652:B 0
26 *319:16 *910:A 3.77199e-05
27 *319:16 *345:23 4.24292e-06
28 *333:31 *910:A 7.21296e-06
*RES
1 *823:Q *345:8 7.5 
2 *345:8 *652:B 7.845 
3 *345:8 *345:23 3.42 
4 *345:23 *654:B 3.6 
5 *345:23 *910:A 9.825 
*END

*D_NET *346 0.00401508
*CONN
*I *729:B I *D sky130_fd_sc_hd__or2_1
*I *911:A I *D sky130_fd_sc_hd__buf_2
*I *728:B I *D sky130_fd_sc_hd__nand2_1
*I *842:Q O *D sky130_fd_sc_hd__dfrtp_1
*CAP
1 *729:B 1.6914e-05
2 *911:A 0.000245073
3 *728:B 0
4 *842:Q 0.000878927
5 *346:21 0.000452828
6 *346:8 0.00106977
7 *911:A *602:A 2.30292e-05
8 *911:A *370:47 0.000138324
9 *716:A *346:8 0.000272189
10 *716:A *346:21 0
11 *728:A *729:B 2.7881e-05
12 *728:A *346:21 0.000161128
13 *730:B *346:8 6.05513e-05
14 *842:CLK *346:8 6.04424e-05
15 *846:CLK *346:8 0.000119654
16 *870:A *911:A 4.91067e-05
17 *909:A *729:B 4.31106e-05
18 *909:A *346:21 0.00013994
19 *215:6 *346:8 3.52139e-06
20 *215:6 *346:21 3.00381e-05
21 *304:28 *346:8 9.92334e-05
22 *310:12 *911:A 0.000109058
23 *343:40 *346:21 5.83121e-06
24 *344:10 *346:21 8.53113e-06
*RES
1 *842:Q *346:8 13.015 
2 *346:8 *728:B 1.6 
3 *346:8 *346:21 6.17 
4 *346:21 *911:A 8.7 
5 *346:21 *729:B 4.215 
*END

*D_NET *347 0.00154074
*CONN
*I *912:A I *D sky130_fd_sc_hd__buf_2
*I *718:B I *D sky130_fd_sc_hd__or2_1
*I *717:B I *D sky130_fd_sc_hd__nand2_1
*I *843:Q O *D sky130_fd_sc_hd__dfrtp_1
*CAP
1 *912:A 0.000281349
2 *718:B 0
3 *717:B 9.59979e-05
4 *843:Q 0.000221474
5 *347:12 9.59979e-05
6 *347:10 0.000502823
7 *912:A *348:12 0
8 *912:A *370:62 0
9 *347:10 *370:62 0
10 acc[21] *912:A 0.000157372
11 acc[22] *912:A 0
12 *717:A *717:B 4.24643e-05
13 *769:A *912:A 0.000143266
14 *844:D *912:A 0
15 *871:A *912:A 0
16 *871:A *347:10 0
17 *908:A *912:A 0
18 *311:12 *912:A 0
*RES
1 *843:Q *347:10 6.375 
2 *347:10 *347:12 2 
3 *347:12 *717:B 3.46 
4 *347:12 *718:B 1.6 
5 *347:10 *912:A 9.57 
*END

*D_NET *348 0.00240021
*CONN
*I *720:B I *D sky130_fd_sc_hd__or2_1
*I *913:A I *D sky130_fd_sc_hd__buf_2
*I *721:B I *D sky130_fd_sc_hd__nand2_1
*I *844:Q O *D sky130_fd_sc_hd__dfrtp_1
*CAP
1 *720:B 0.000409722
2 *913:A 0
3 *721:B 0.000224094
4 *844:Q 0.000237192
5 *348:12 0.000322285
6 *348:6 0.000745105
7 acc[19] *721:B 0.000107415
8 *721:A *721:B 5.4155e-06
9 *722:B *721:B 5.4155e-06
10 *769:A *720:B 1.46022e-05
11 *769:A *348:6 1.54878e-05
12 *844:CLK *720:B 1.83756e-05
13 *844:D *720:B 9.32942e-05
14 *844:RESET_B *720:B 7.69078e-05
15 *908:A *348:12 0
16 *909:A *721:B 0.0001249
17 *912:A *348:12 0
*RES
1 *844:Q *348:6 4.12 
2 *348:6 *348:12 5.38 
3 *348:12 *721:B 5.53 
4 *348:12 *913:A 1.6 
5 *348:6 *720:B 6.805 
*END

*D_NET *349 0.000948344
*CONN
*I *723:B I *D sky130_fd_sc_hd__nand2_1
*I *914:A I *D sky130_fd_sc_hd__buf_2
*I *724:B I *D sky130_fd_sc_hd__or2_1
*I *845:Q O *D sky130_fd_sc_hd__dfrtp_1
*CAP
1 *723:B 7.6539e-05
2 *914:A 0
3 *724:B 4.98558e-05
4 *845:Q 4.62311e-05
5 *349:21 0.000225458
6 *349:8 0.000245006
7 *724:B *370:91 5.42217e-05
8 *349:21 *370:91 1.71013e-05
9 *724:A *724:B 7.56981e-05
10 *724:A *349:21 3.64532e-05
11 *735:A *349:8 9.60582e-07
12 *735:A *349:21 0.000116165
13 *762:B *349:21 0
14 *848:CLK *349:21 0
15 *873:A *723:B 4.65496e-06
16 *873:A *349:21 0
17 *315:12 *349:21 0
*RES
1 *845:Q *349:8 4.05 
2 *349:8 *724:B 5.235 
3 *349:8 *349:21 3.105 
4 *349:21 *914:A 3.6 
5 *349:21 *723:B 4.74 
*END

*D_NET *350 0.00284466
*CONN
*I *682:A I *D sky130_fd_sc_hd__nand2_1
*I *683:A I *D sky130_fd_sc_hd__or2_1
*I *894:X O *D sky130_fd_sc_hd__clkbuf_1
*CAP
1 *682:A 2.08101e-05
2 *683:A 0.000214371
3 *894:X 0.000354401
4 *350:12 0.000589582
5 *350:12 *688:A 8.52883e-05
6 *350:12 *361:8 9.32633e-05
7 *684:B *350:12 0.000428943
8 *783:A *350:12 8.23457e-05
9 *784:A1 *683:A 8.8266e-05
10 *784:A2 *683:A 0.000161204
11 *784:A2 *350:12 8.16944e-05
12 *784:B1_N *683:A 0.000124895
13 *859:A *350:12 7.27844e-05
14 *895:A *350:12 0.000420149
15 *170:6 *683:A 2.66586e-05
*RES
1 *894:X *350:12 11.755 
2 *350:12 *683:A 6.19 
3 *350:12 *682:A 1.96 
*END

*D_NET *351 0.00364771
*CONN
*I *915:A I *D sky130_fd_sc_hd__buf_2
*I *632:B I *D sky130_fd_sc_hd__or2_1
*I *631:B I *D sky130_fd_sc_hd__nand2_1
*I *846:Q O *D sky130_fd_sc_hd__dfrtp_1
*CAP
1 *915:A 0.000798863
2 *632:B 0
3 *631:B 5.25091e-05
4 *846:Q 0
5 *351:12 0.000225681
6 *351:4 0.000972034
7 *915:A *609:A 0.000132842
8 *915:A *353:34 4.82919e-05
9 *616:B *915:A 7.21296e-06
10 *632:A *631:B 0.00012657
11 *740:A *915:A 0.000356983
12 *740:B *351:12 0
13 *743:A_N *915:A 3.69766e-05
14 *743:B *915:A 1.79536e-05
15 *746:A *915:A 0.000112605
16 *747:A *915:A 9.13366e-05
17 *754:A *915:A 6.95717e-05
18 *850:D *915:A 1.33293e-05
19 *858:A *915:A 0
20 *882:A *915:A 4.00257e-05
21 *883:A *915:A 2.41099e-05
22 *117:12 *915:A 0.000192452
23 *118:10 *631:B 0.000119631
24 *118:10 *351:12 2.86623e-05
25 *316:20 *915:A 7.45042e-05
26 *316:33 *915:A 0.000105566
*RES
1 *846:Q *351:4 1.6 
2 *351:4 *351:12 6.43 
3 *351:12 *631:B 3.43 
4 *351:12 *632:B 1.6 
5 *351:4 *915:A 21.53 
*END

*D_NET *352 0.00177726
*CONN
*I *916:A I *D sky130_fd_sc_hd__buf_2
*I *618:B I *D sky130_fd_sc_hd__or2_1
*I *617:B I *D sky130_fd_sc_hd__nand2_1
*I *847:Q O *D sky130_fd_sc_hd__dfrtp_1
*CAP
1 *916:A 0.00011152
2 *618:B 2.04961e-05
3 *617:B 0.000181617
4 *847:Q 0.000212816
5 *352:25 0.000209896
6 *352:10 0.000472313
7 *617:B *370:77 9.53428e-06
8 *916:A *370:97 9.50342e-06
9 acc[25] *916:A 0
10 *618:A *617:B 0.000205076
11 *625:A *618:B 6.24871e-05
12 *625:A *916:A 2.05641e-05
13 *760:A2 *618:B 4.43871e-06
14 *760:A2 *352:10 5.76412e-05
15 *760:A2 *352:25 2.28331e-05
16 *762:B *617:B 8.57024e-05
17 *847:D *352:10 3.72916e-05
18 *847:RESET_B *352:10 0
19 *110:23 *916:A 0
20 *314:16 *916:A 4.6035e-05
21 *315:12 *617:B 7.49727e-06
22 *315:12 *916:A 0
23 *315:12 *352:10 0
*RES
1 *847:Q *352:10 6.8475 
2 *352:10 *617:B 7.3125 
3 *352:10 *352:25 1.14 
4 *352:25 *618:B 4.3425 
5 *352:25 *916:A 5.6175 
*END

*D_NET *353 0.00354752
*CONN
*I *917:A I *D sky130_fd_sc_hd__buf_2
*I *627:C1 I *D sky130_fd_sc_hd__o211a_1
*I *622:B I *D sky130_fd_sc_hd__or2_1
*I *621:B I *D sky130_fd_sc_hd__nand2_1
*I *848:Q O *D sky130_fd_sc_hd__dfrtp_1
*CAP
1 *917:A 0.000280666
2 *627:C1 0
3 *622:B 0
4 *621:B 0.000115729
5 *848:Q 0
6 *353:34 0.000519232
7 *353:21 0.000396504
8 *353:4 0.000273668
9 *353:34 *354:12 6.20952e-05
10 acc[26] *917:A 0.000315847
11 *620:A *917:A 0.000149274
12 *621:A *621:B 4.49498e-05
13 *621:A *353:21 3.23663e-05
14 *623:B *353:21 4.82919e-05
15 *628:B1 *917:A 0.000342778
16 *629:A *621:B 2.11084e-05
17 *746:A *621:B 0
18 *746:A *353:34 2.24089e-05
19 *748:A_N *917:A 0.000121437
20 *750:A *917:A 0.000212713
21 *752:A2 *917:A 4.35432e-05
22 *849:CLK *353:34 5.83121e-06
23 *849:D *353:34 8.08153e-06
24 *849:RESET_B *917:A 0.000193806
25 *915:A *353:34 4.82919e-05
26 *107:12 *917:A 5.48944e-05
27 *232:35 *917:A 1.56315e-05
28 *316:20 *353:34 5.53249e-06
29 *316:33 *353:21 2.59835e-05
30 *316:33 *353:34 0.000182418
31 *318:12 *621:B 4.43871e-06
*RES
1 *848:Q *353:4 1.6 
2 *353:4 *621:B 7.775 
3 *353:4 *353:21 2.19 
4 *353:21 *622:B 1.6 
5 *353:21 *353:34 8.5 
6 *353:34 *627:C1 1.6 
7 *353:34 *917:A 10.81 
*END

*D_NET *354 0.00325361
*CONN
*I *918:A I *D sky130_fd_sc_hd__buf_2
*I *620:B I *D sky130_fd_sc_hd__xnor2_1
*I *627:A2 I *D sky130_fd_sc_hd__o211a_1
*I *628:A2 I *D sky130_fd_sc_hd__a211o_1
*I *849:Q O *D sky130_fd_sc_hd__dfrtp_1
*CAP
1 *918:A 0.000179038
2 *620:B 0
3 *627:A2 2.20477e-05
4 *628:A2 0.000208629
5 *849:Q 0
6 *354:16 0.000338371
7 *354:12 0.000676432
8 *354:4 0.000747776
9 *918:A *742:B 2.49909e-05
10 *918:A *746:B 0
11 *620:A *627:A2 2.81017e-05
12 *620:A *628:A2 1.61831e-05
13 *620:A *354:16 0.000149015
14 *623:A *628:A2 0
15 *629:A *628:A2 1.08758e-05
16 *746:A *918:A 1.9415e-05
17 *746:A *354:12 5.99708e-05
18 *849:CLK *354:12 2.76356e-05
19 *849:D *354:12 0.000134509
20 *849:RESET_B *354:12 4.12081e-05
21 *228:14 *918:A 8.40269e-05
22 *228:14 *354:12 8.49205e-05
23 *316:20 *354:12 0
24 *318:18 *627:A2 3.26889e-05
25 *318:18 *628:A2 0.000305678
26 *353:34 *354:12 6.20952e-05
*RES
1 *849:Q *354:4 1.6 
2 *354:4 *354:12 11.605 
3 *354:12 *354:16 2.19 
4 *354:16 *628:A2 5.425 
5 *354:16 *627:A2 2.215 
6 *354:12 *620:B 1.6 
7 *354:4 *918:A 4.045 
*END

*D_NET *355 0.00485581
*CONN
*I *919:A I *D sky130_fd_sc_hd__buf_2
*I *615:B I *D sky130_fd_sc_hd__or2_1
*I *614:B I *D sky130_fd_sc_hd__nand2_1
*I *850:Q O *D sky130_fd_sc_hd__dfrtp_1
*CAP
1 *919:A 0.000464544
2 *615:B 0.000275546
3 *614:B 0
4 *850:Q 0.000289799
5 *355:12 0.000275546
6 *355:10 0.000754342
7 *615:B *747:B 4.35348e-05
8 *919:A *742:B 0.000174157
9 *355:10 *611:A 1.82476e-05
10 *614:A *615:B 4.82919e-05
11 *615:A *615:B 0.000733522
12 *616:B *615:B 0.000198945
13 *741:A *919:A 0.000128182
14 *741:A *355:10 0
15 *744:A *615:B 0.000162311
16 *748:A_N *919:A 8.49205e-05
17 *753:A1 *615:B 4.82863e-05
18 *753:A1 *919:A 7.23602e-05
19 *753:A2 *919:A 0.00011379
20 *753:A2 *355:10 9.50342e-06
21 *753:B1 *919:A 0.000181582
22 *755:A *355:10 5.48439e-05
23 *755:B *355:10 4.99619e-05
24 *849:RESET_B *919:A 0.00012182
25 *852:RESET_B *919:A 0
26 *853:D *355:10 5.35969e-06
27 *876:A *919:A 7.27402e-06
28 *101:6 *615:B 0.000265565
29 *231:12 *919:A 3.68999e-05
30 *231:27 *919:A 0.000184508
31 *319:16 *355:10 5.21627e-05
*RES
1 *850:Q *355:10 7.755 
2 *355:10 *355:12 2 
3 *355:12 *614:B 1.6 
4 *355:12 *615:B 10.825 
5 *355:10 *919:A 18.25 
*END

*D_NET *356 0.00388157
*CONN
*I *742:B I *D sky130_fd_sc_hd__nand2_1
*I *920:A I *D sky130_fd_sc_hd__buf_2
*I *741:B I *D sky130_fd_sc_hd__nor2_1
*I *851:Q O *D sky130_fd_sc_hd__dfrtp_1
*CAP
1 *742:B 0.000404977
2 *920:A 0
3 *741:B 0.000270641
4 *851:Q 0.000106762
5 *356:31 0.000448578
6 *356:8 0.000421003
7 *741:B *359:8 2.75145e-05
8 *741:B *371:66 0.000113821
9 *742:B *608:A 0
10 *741:A *741:B 1.86911e-05
11 *746:A *742:B 2.49909e-05
12 *751:A2 *742:B 6.52265e-05
13 *752:A1 *742:B 0.000122331
14 *752:A2 *742:B 4.66108e-05
15 *754:A *741:B 0.000193127
16 *851:RESET_B *356:8 2.10945e-05
17 *852:RESET_B *741:B 0.000171618
18 *852:RESET_B *356:31 7.19906e-05
19 *866:A *741:B 0.000237902
20 *876:A *742:B 0.000476404
21 *910:A *741:B 4.66108e-05
22 *918:A *742:B 2.49909e-05
23 *919:A *742:B 0.000174157
24 *227:10 *741:B 0.000203996
25 *227:10 *356:31 0.000140248
26 *231:27 *742:B 4.82863e-05
*RES
1 *851:Q *356:8 4.74 
2 *356:8 *741:B 11.895 
3 *356:8 *356:31 3.635 
4 *356:31 *920:A 1.6 
5 *356:31 *742:B 14.99 
*END

*D_NET *357 0.00359602
*CONN
*I *921:A I *D sky130_fd_sc_hd__buf_2
*I *651:B I *D sky130_fd_sc_hd__nor2_1
*I *650:B I *D sky130_fd_sc_hd__and2_1
*I *824:Q O *D sky130_fd_sc_hd__dfrtp_1
*CAP
1 *921:A 0.000137978
2 *651:B 0.000636509
3 *650:B 9.22349e-06
4 *824:Q 6.67864e-05
5 *357:10 0.000686906
6 *357:8 0.000245938
7 *651:B *360:14 1.92979e-05
8 acc[3] *651:B 0.000179682
9 *650:A *650:B 1.00941e-05
10 *650:A *921:A 4.20983e-05
11 *650:A *357:8 3.1835e-05
12 *650:A *357:10 5.59619e-05
13 *652:A *921:A 0
14 *665:A *651:B 1.09082e-05
15 *669:B *651:B 0.00090313
16 *806:A *651:B 1.03833e-05
17 *884:A *921:A 4.82919e-05
18 *886:A *651:B 3.55278e-05
19 *137:12 *921:A 0.000124532
20 *137:12 *357:10 4.05358e-05
21 *324:14 *650:B 6.63219e-06
22 *324:14 *357:10 8.77495e-06
23 *324:35 *651:B 0.000284992
*RES
1 *824:Q *357:8 4.395 
2 *357:8 *357:10 1.2525 
3 *357:10 *650:B 3.8325 
4 *357:10 *651:B 6.6185 
5 *357:8 *921:A 6.96 
*END

*D_NET *358 0.00562164
*CONN
*I *922:A I *D sky130_fd_sc_hd__buf_2
*I *747:B I *D sky130_fd_sc_hd__nand2_1
*I *746:B I *D sky130_fd_sc_hd__nor2_1
*I *852:Q O *D sky130_fd_sc_hd__dfrtp_1
*CAP
1 *922:A 0
2 *747:B 0.000584924
3 *746:B 0.000280118
4 *852:Q 0
5 *358:31 0.000901197
6 *358:6 0.000596391
7 *746:B *608:A 2.53191e-06
8 *747:B *609:A 0.000155491
9 *747:B *611:A 0.000227389
10 acc[28] *746:B 9.37731e-05
11 acc[29] *358:31 1.00941e-05
12 acc[30] *358:31 0.000392547
13 *614:A *747:B 3.74161e-05
14 *615:A *747:B 0.000847191
15 *615:B *747:B 4.35348e-05
16 *616:B *747:B 1.46828e-05
17 *738:A1 *747:B 2.93351e-05
18 *738:B1 *747:B 3.95724e-05
19 *746:A *746:B 5.4155e-06
20 *752:A2 *746:B 0
21 *753:A1 *747:B 9.80943e-06
22 *753:A2 *747:B 6.46363e-05
23 *850:RESET_B *747:B 0.00042195
24 *851:RESET_B *358:31 1.8279e-05
25 *879:A *358:31 0.000102798
26 *883:A *746:B 0.00011704
27 *883:A *358:31 8.61961e-05
28 *899:A *746:B 6.62421e-05
29 *918:A *746:B 0
30 *227:10 *358:31 0.000107571
31 *227:27 *746:B 5.07362e-05
32 *227:27 *358:31 6.83087e-05
33 *232:10 *747:B 0.000198186
34 *305:8 *747:B 4.82863e-05
*RES
1 *852:Q *358:6 3.6 
2 *358:6 *746:B 9.225 
3 *358:6 *358:31 10.265 
4 *358:31 *747:B 17.635 
5 *358:31 *922:A 1.6 
*END

*D_NET *359 0.00166537
*CONN
*I *754:B I *D sky130_fd_sc_hd__xnor2_1
*I *923:A I *D sky130_fd_sc_hd__buf_2
*I *853:Q O *D sky130_fd_sc_hd__dfrtp_1
*CAP
1 *754:B 0.000104001
2 *923:A 5.04005e-05
3 *853:Q 0.000157979
4 *359:8 0.000312381
5 *754:B *610:A 2.49909e-05
6 *656:B *359:8 2.75229e-05
7 *741:A *359:8 2.75145e-05
8 *741:B *359:8 2.75145e-05
9 *853:RESET_B *359:8 2.49909e-05
10 *866:A *754:B 0.000216657
11 *866:A *923:A 0.000162311
12 *879:A *923:A 5.42217e-05
13 *910:A *359:8 5.33957e-05
14 *143:10 *359:8 0.000118081
15 *227:10 *754:B 0.00022755
16 *227:10 *923:A 2.92496e-05
17 *227:10 *359:8 4.66108e-05
*RES
1 *853:Q *359:8 6.81 
2 *359:8 *923:A 5.49 
3 *359:8 *754:B 6.705 
*END

*D_NET *360 0.00383122
*CONN
*I *660:B I *D sky130_fd_sc_hd__xor2_1
*I *659:A2 I *D sky130_fd_sc_hd__a21o_1
*I *661:A2 I *D sky130_fd_sc_hd__o22ai_1
*I *924:A I *D sky130_fd_sc_hd__buf_2
*I *674:A2 I *D sky130_fd_sc_hd__o221ai_4
*I *825:Q O *D sky130_fd_sc_hd__dfrtp_4
*CAP
1 *660:B 0
2 *659:A2 0
3 *661:A2 0.00010296
4 *924:A 0.000232509
5 *674:A2 2.14552e-05
6 *825:Q 0.000113341
7 *360:30 0.000387461
8 *360:20 0.000340905
9 *360:14 0.000162945
10 *360:10 0.000171837
11 *924:A *815:A 0.00016115
12 *924:A *930:A 4.36573e-06
13 *360:20 *817:A 0
14 acc[3] *924:A 1.00941e-05
15 *651:A *360:10 0
16 *651:A *360:14 0
17 *651:B *360:14 1.92979e-05
18 *659:B1 *360:10 0
19 *659:B1 *360:20 6.76021e-05
20 *660:A *360:14 0.000116158
21 *660:A *360:20 1.83756e-05
22 *674:B1 *674:A2 0
23 *674:B1 *360:30 0.00018955
24 *674:C1 *360:30 5.83121e-06
25 *796:A *924:A 3.91132e-05
26 *796:B *924:A 5.05521e-05
27 *798:B *924:A 0.00019391
28 *804:B *360:30 9.0444e-05
29 *806:A *360:14 1.10631e-05
30 *811:A *360:10 0.00011852
31 *826:RESET_B *360:20 0.000119756
32 *826:RESET_B *360:30 9.33998e-05
33 *828:D *360:10 5.33085e-05
34 *828:D *360:14 0.000181443
35 *138:16 *360:30 0.000262702
36 *145:26 *360:10 0
37 *146:6 *661:A2 4.41506e-05
38 *148:14 *924:A 3.03684e-05
39 *148:14 *360:30 9.27255e-06
40 *324:14 *924:A 0.000386893
41 *324:48 *661:A2 2.19562e-06
42 *324:48 *360:20 1.82842e-05
43 *332:30 *360:10 0
*RES
1 *825:Q *360:10 5.94 
2 *360:10 *360:14 4.145 
3 *360:14 *360:20 2.46 
4 *360:20 *360:30 8.005 
5 *360:30 *674:A2 1.96 
6 *360:30 *924:A 11.99 
7 *360:20 *661:A2 2.74 
8 *360:14 *659:A2 1.6 
9 *360:10 *660:B 3.6 
*END

*D_NET *361 0.00278792
*CONN
*I *686:A I *D sky130_fd_sc_hd__nand2_1
*I *685:A I *D sky130_fd_sc_hd__or2_1
*I *895:X O *D sky130_fd_sc_hd__clkbuf_1
*CAP
1 *686:A 0.000111042
2 *685:A 0.000261648
3 *895:X 0.000201921
4 *361:8 0.000574612
5 *686:B *685:A 9.16941e-05
6 *686:B *686:A 0.000232082
7 *699:B1 *685:A 3.51667e-05
8 *699:B1 *686:A 6.32463e-05
9 *782:B1_N *686:A 7.00889e-06
10 *786:A1 *685:A 0.000157972
11 *859:A *361:8 0.000154981
12 *896:A *685:A 0
13 *171:22 *686:A 4.82919e-05
14 *178:14 *685:A 3.95269e-05
15 *179:10 *685:A 7.3091e-05
16 *252:12 *686:A 0.000114492
17 *302:34 *685:A 2.91986e-05
18 *338:19 *685:A 0.000498682
19 *350:12 *361:8 9.32633e-05
*RES
1 *895:X *361:8 6.12 
2 *361:8 *685:A 11.355 
3 *361:8 *686:A 6.96 
*END

*D_NET *362 0.00281822
*CONN
*I *670:B I *D sky130_fd_sc_hd__nand2_1
*I *671:B I *D sky130_fd_sc_hd__or2_1
*I *925:A I *D sky130_fd_sc_hd__buf_2
*I *826:Q O *D sky130_fd_sc_hd__dfrtp_1
*CAP
1 *670:B 0.000172888
2 *671:B 0
3 *925:A 0.000147124
4 *826:Q 0.000299055
5 *362:27 0.000264942
6 *362:8 0.000538233
7 *670:B *667:B 0.000104892
8 *925:A *928:A 4.94404e-05
9 *362:27 *667:B 8.40269e-05
10 *362:27 *928:A 0.000137187
11 acc[4] *925:A 1.52352e-05
12 acc[7] *670:B 1.47347e-05
13 *670:A *670:B 0
14 *800:C *925:A 1.68324e-05
15 *827:RESET_B *925:A 9.14049e-05
16 *827:RESET_B *362:27 0.000294858
17 *885:A *925:A 0.000145303
18 *886:A *670:B 7.45446e-05
19 *154:18 *925:A 0
20 *157:12 *670:B 0.000146372
21 *157:14 *670:B 4.82863e-05
22 *157:14 *362:27 1.46828e-05
23 *325:10 *925:A 0.000158175
*RES
1 *826:Q *362:8 6.465 
2 *362:8 *925:A 7.605 
3 *362:8 *362:27 5.705 
4 *362:27 *671:B 1.6 
5 *362:27 *670:B 9.77 
*END

*D_NET *363 0.00287578
*CONN
*I *667:B I *D sky130_fd_sc_hd__nand2_1
*I *668:B I *D sky130_fd_sc_hd__or2_1
*I *926:A I *D sky130_fd_sc_hd__buf_2
*I *827:Q O *D sky130_fd_sc_hd__dfrtp_1
*CAP
1 *667:B 0.000232744
2 *668:B 0
3 *926:A 0.000193668
4 *827:Q 6.64165e-05
5 *363:21 0.000283295
6 *363:8 0.000310635
7 *926:A *927:A 0
8 acc[5] *926:A 5.51815e-05
9 acc[7] *667:B 0.000309132
10 acc[7] *926:A 0.000120818
11 acc[7] *363:21 5.65627e-05
12 *668:A *667:B 0.000125244
13 *670:B *667:B 0.000104892
14 *672:A *363:8 4.66742e-05
15 *672:B *667:B 0.000265164
16 *672:B *926:A 7.33759e-05
17 *672:B *363:21 0.000151432
18 *827:RESET_B *667:B 9.96764e-05
19 *885:A *667:B 0.000221198
20 *885:A *363:21 5.4003e-05
21 *886:A *667:B 7.21296e-06
22 *325:10 *667:B 1.44259e-05
23 *362:27 *667:B 8.40269e-05
*RES
1 *827:Q *363:8 4.395 
2 *363:8 *926:A 7.74 
3 *363:8 *363:21 1.89 
4 *363:21 *668:B 3.6 
5 *363:21 *667:B 11.88 
*END

*D_NET *364 0.0055207
*CONN
*I *675:A2 I *D sky130_fd_sc_hd__a21oi_1
*I *805:A2 I *D sky130_fd_sc_hd__a21oi_1
*I *927:A I *D sky130_fd_sc_hd__buf_2
*I *662:B I *D sky130_fd_sc_hd__xnor2_1
*I *828:Q O *D sky130_fd_sc_hd__dfrtp_1
*CAP
1 *675:A2 0
2 *805:A2 9.12344e-05
3 *927:A 0.000324154
4 *662:B 0.000118035
5 *828:Q 0.000316859
6 *364:35 0.000517934
7 *364:27 0.000913697
8 *364:6 0.00124605
9 *927:A *365:10 0
10 acc[11] *364:35 8.37434e-05
11 acc[5] *927:A 4.10827e-05
12 acc[6] *927:A 0
13 acc[6] *364:27 6.21583e-05
14 acc[7] *927:A 0
15 acc[8] *662:B 8.88799e-05
16 *662:A *662:B 0.000122337
17 *663:A *364:27 2.75097e-05
18 *672:A *927:A 0.000180668
19 *672:B *927:A 0
20 *675:A1 *364:27 8.7152e-06
21 *675:B1 *364:27 7.13898e-05
22 *805:B1 *805:A2 2.30292e-05
23 *805:B1 *364:35 0.000249884
24 *806:B *927:A 1.92979e-05
25 *827:RESET_B *927:A 0.000201012
26 *829:CLK *364:27 2.16917e-05
27 *829:D *364:27 0.00011577
28 *829:RESET_B *364:27 2.67503e-05
29 *833:RESET_B *662:B 0
30 *885:A *927:A 4.66108e-05
31 *901:A *364:27 2.99518e-06
32 *926:A *927:A 0
33 *303:37 *364:6 0.000220038
34 *303:37 *364:27 0.000155444
35 *325:10 *927:A 2.49909e-05
36 *327:10 *662:B 0.00011215
37 *330:12 *364:6 8.65961e-05
*RES
1 *828:Q *364:6 5.845 
2 *364:6 *662:B 8.465 
3 *364:6 *364:27 14.71 
4 *364:27 *364:35 3.345 
5 *364:35 *927:A 12.53 
6 *364:35 *805:A2 3.085 
7 *364:27 *675:A2 1.6 
*END

*D_NET *365 0.0038595
*CONN
*I *663:B I *D sky130_fd_sc_hd__and2_1
*I *928:A I *D sky130_fd_sc_hd__buf_2
*I *664:B I *D sky130_fd_sc_hd__nor2_1
*I *829:Q O *D sky130_fd_sc_hd__dfrtp_1
*CAP
1 *663:B 5.3987e-05
2 *928:A 0.000203087
3 *664:B 0.000786267
4 *829:Q 3.7184e-05
5 *365:10 0.00113038
6 *365:6 0.000232192
7 *664:B *369:6 2.67275e-05
8 *928:A *930:A 0.000107936
9 acc[6] *664:B 5.06331e-06
10 acc[6] *928:A 0
11 acc[6] *365:10 0
12 *663:A *663:B 4.04522e-05
13 *664:A *664:B 3.293e-05
14 *666:B *664:B 2.75229e-05
15 *666:C *664:B 6.9385e-05
16 *669:B *928:A 1.81461e-05
17 *675:B1 *663:B 0
18 *675:B1 *365:6 1.16578e-05
19 *803:B *664:B 4.82919e-05
20 *804:B *664:B 4.82863e-05
21 *826:D *928:A 0.00018305
22 *827:CLK *664:B 0.000127118
23 *827:RESET_B *928:A 4.00472e-05
24 *827:RESET_B *365:10 3.46842e-05
25 *863:A *664:B 8.23457e-05
26 *925:A *928:A 4.94404e-05
27 *927:A *365:10 0
28 *149:12 *664:B 2.34711e-05
29 *150:6 *663:B 5.83121e-06
30 *150:6 *365:6 4.35348e-05
31 *150:35 *928:A 4.36573e-06
32 *150:35 *365:10 0.000110643
33 *153:10 *664:B 2.49909e-05
34 *159:10 *664:B 2.92786e-05
35 *159:10 *928:A 0
36 *327:10 *664:B 8.40213e-05
37 *362:27 *928:A 0.000137187
*RES
1 *829:Q *365:6 2.395 
2 *365:6 *365:10 4.91 
3 *365:10 *664:B 15.45 
4 *365:10 *928:A 9.315 
5 *365:6 *663:B 2.755 
*END

*D_NET *366 0.00431181
*CONN
*I *647:B I *D sky130_fd_sc_hd__nand2_1
*I *648:B I *D sky130_fd_sc_hd__or2_1
*I *929:A I *D sky130_fd_sc_hd__buf_2
*I *830:Q O *D sky130_fd_sc_hd__dfrtp_1
*CAP
1 *647:B 0
2 *648:B 8.15165e-05
3 *929:A 0.000825843
4 *830:Q 0.000235252
5 *366:41 0.000111652
6 *366:10 0.00109123
7 *929:A *815:A 9.58678e-06
8 *929:A *367:12 1.56428e-05
9 *929:A *368:77 5.54727e-05
10 *929:A *369:23 0.000116853
11 *366:10 *815:A 0.000176947
12 *366:10 *369:23 8.53113e-06
13 *366:10 *369:32 0.00015212
14 *366:10 *369:47 0.000316893
15 acc[11] *929:A 8.65905e-05
16 acc[8] *929:A 3.1835e-05
17 *647:A *648:B 4.82863e-05
18 *665:B *929:A 4.44927e-05
19 *666:A *929:A 7.20795e-06
20 *666:B *929:A 1.88904e-05
21 *666:C *929:A 1.92979e-05
22 *669:A *929:A 6.63012e-05
23 *669:B *366:10 3.64998e-06
24 *677:B1 *929:A 9.00909e-05
25 *679:A1 *366:10 3.82741e-05
26 *806:A *929:A 0
27 *829:RESET_B *929:A 7.97491e-05
28 *863:A *929:A 3.72952e-05
29 *887:A *929:A 2.35651e-05
30 *134:6 *648:B 8.73389e-06
31 *149:8 *929:A 0.000169429
32 *151:35 *929:A 0.000153844
33 *153:10 *929:A 8.82739e-05
34 *303:20 *648:B 4.82863e-05
35 *303:73 *366:10 3.68967e-05
36 *329:10 *929:A 1.32843e-05
*RES
1 *830:Q *366:10 9.765 
2 *366:10 *929:A 22.12 
3 *366:10 *366:41 2.45 
4 *366:41 *648:B 3.1 
5 *366:41 *647:B 1.6 
*END

*D_NET *367 0.00645362
*CONN
*I *930:A I *D sky130_fd_sc_hd__buf_2
*I *642:B I *D sky130_fd_sc_hd__or2_1
*I *641:B I *D sky130_fd_sc_hd__nand2_1
*I *831:Q O *D sky130_fd_sc_hd__dfrtp_1
*CAP
1 *930:A 0.00121931
2 *642:B 0
3 *641:B 3.01555e-05
4 *831:Q 2.4724e-05
5 *367:22 0.000634537
6 *367:12 0.00184841
7 *930:A *815:A 3.79595e-05
8 *367:22 *368:73 0.000226635
9 acc[9] *930:A 1.81592e-05
10 *642:A *641:B 0.000120655
11 *642:A *367:22 8.49205e-05
12 *643:A *641:B 4.66108e-05
13 *643:A *367:22 0.00010978
14 *666:B *930:A 5.66528e-05
15 *669:A *367:12 4.82863e-05
16 *680:B1 *367:22 3.96088e-05
17 *792:A1 *367:22 1.91597e-05
18 *798:A *930:A 5.4155e-06
19 *800:C *930:A 0.000102001
20 *806:A *367:12 1.7635e-05
21 *826:D *930:A 0.000284995
22 *863:A *930:A 5.46998e-05
23 *863:A *367:22 1.13796e-05
24 *924:A *930:A 4.36573e-06
25 *928:A *930:A 0.000107936
26 *929:A *367:12 1.56428e-05
27 *128:15 *641:B 8.49205e-05
28 *150:35 *930:A 0.000348743
29 *151:14 *930:A 1.36856e-05
30 *159:10 *930:A 0
31 *259:12 *930:A 0.000143228
32 *303:22 *367:22 0
33 *324:14 *930:A 0.000194694
34 *326:14 *930:A 4.92733e-05
35 *332:20 *367:22 0.000430581
36 *332:30 *367:12 1.88656e-05
*RES
1 *831:Q *367:12 4.7825 
2 *367:12 *367:22 5.68043 
3 *367:22 *641:B 2.74 
4 *367:22 *642:B 1.6 
5 *367:12 *930:A 15.7572 
*END

*D_NET *368 0.0137222
*CONN
*I *594:A I *D sky130_fd_sc_hd__inv_2
*I *598:A I *D sky130_fd_sc_hd__inv_2
*I *596:A I *D sky130_fd_sc_hd__inv_2
*I *597:A I *D sky130_fd_sc_hd__inv_2
*I *815:A I *D sky130_fd_sc_hd__inv_2
*I *590:A I *D sky130_fd_sc_hd__inv_2
*I *592:A I *D sky130_fd_sc_hd__inv_2
*I *593:A I *D sky130_fd_sc_hd__inv_2
*I *595:A I *D sky130_fd_sc_hd__inv_2
*I *591:A I *D sky130_fd_sc_hd__inv_2
*I *862:X O *D sky130_fd_sc_hd__buf_4
*CAP
1 *594:A 0
2 *598:A 4.59582e-05
3 *596:A 0
4 *597:A 0.000557085
5 *815:A 0.00108628
6 *590:A 0
7 *592:A 1.45361e-05
8 *593:A 0
9 *595:A 0
10 *591:A 4.51882e-05
11 *862:X 0
12 *368:132 0.000415242
13 *368:77 0.000167465
14 *368:73 0.00176138
15 *368:65 0.00108935
16 *368:56 0.000340419
17 *368:37 0.00049796
18 *368:31 0.000213928
19 *368:18 0.000691294
20 *368:6 0.000969096
21 *591:A *690:A 1.15104e-05
22 *591:A *372:27 8.46717e-05
23 *592:A *819:A 4.82919e-05
24 *368:18 *372:6 0.000122699
25 *368:18 *372:27 0.000196045
26 *368:77 *369:23 2.64017e-05
27 acc[9] *815:A 0.000152662
28 *638:B *597:A 0
29 *638:B *368:56 0
30 *640:A *368:18 7.79767e-06
31 *640:A *368:31 3.11592e-05
32 *640:A *368:37 3.84842e-05
33 *640:B *368:37 6.48585e-05
34 *640:B *368:56 4.66108e-05
35 *644:B *597:A 0
36 *644:B *368:56 9.34488e-05
37 *644:B *368:65 3.74161e-05
38 *669:B *815:A 0.000382615
39 *679:A1 *815:A 9.87085e-05
40 *679:A1 *368:73 0
41 *680:A1 *368:73 7.47205e-05
42 *680:B1 *597:A 0.000172151
43 *680:B1 *368:56 0.000161907
44 *680:B1 *368:73 1.88904e-05
45 *682:B *368:132 2.37234e-05
46 *786:A1 *368:18 0.00013106
47 *786:B1_N *368:18 8.29392e-05
48 *790:A *597:A 1.52776e-05
49 *790:B *597:A 0
50 *792:A2 *368:56 8.49205e-05
51 *792:A2 *368:65 4.66108e-05
52 *792:B1_N *368:56 0.000133555
53 *795:A *368:56 5.05521e-05
54 *795:B *368:56 8.40269e-05
55 *825:CLK *597:A 0.00013264
56 *830:D *597:A 0
57 *831:RESET_B *368:77 0.000160162
58 *832:RESET_B *591:A 1.31227e-05
59 *834:RESET_B *597:A 6.57032e-05
60 *835:D *368:132 6.55328e-05
61 *835:RESET_B *368:132 0
62 *837:RESET_B *591:A 3.64998e-06
63 *837:RESET_B *368:31 1.35324e-05
64 *839:CLK *368:132 0.000141592
65 *862:A *368:18 5.27539e-05
66 *862:A *368:132 8.12462e-06
67 *881:A *815:A 0.000133715
68 *886:A *815:A 0.000114731
69 *889:A *368:77 0.000175086
70 *893:A *368:37 0
71 *893:A *368:56 1.91597e-05
72 *902:A *598:A 0.00012657
73 *902:A *368:132 4.36241e-05
74 *924:A *815:A 0.00016115
75 *929:A *815:A 9.58678e-06
76 *929:A *368:77 5.54727e-05
77 *930:A *815:A 3.79595e-05
78 *127:10 *368:56 0.000166414
79 *130:10 *597:A 2.0851e-06
80 *130:10 *368:73 4.61701e-06
81 *134:18 *597:A 3.59997e-05
82 *165:10 *597:A 0
83 *169:21 *368:132 1.7635e-05
84 *171:22 *597:A 5.16418e-05
85 *171:22 *368:132 2.13396e-05
86 *173:10 *368:18 5.5345e-05
87 *173:10 *368:132 0.000304704
88 *174:20 *368:18 1.72419e-05
89 *256:12 *597:A 0
90 *303:10 *815:A 5.16348e-05
91 *303:20 *815:A 0.0002045
92 *303:20 *368:77 3.79555e-05
93 *303:73 *815:A 0.000145081
94 *326:14 *815:A 2.24999e-05
95 *327:10 *592:A 2.49909e-05
96 *330:12 *368:77 0
97 *336:30 *368:132 6.20192e-05
98 *339:22 *368:56 0.000102288
99 *340:50 *591:A 3.7837e-05
100 *340:50 *368:37 0
101 *366:10 *815:A 0.000176947
102 *367:22 *368:73 0.000226635
*RES
1 *862:X *368:6 3.6 
2 *368:6 *368:18 11.375 
3 *368:18 *591:A 3.1 
4 *368:18 *368:31 1.155 
5 *368:31 *368:37 2.895 
6 *368:37 *595:A 1.6 
7 *368:37 *368:56 12.4 
8 *368:56 *593:A 1.6 
9 *368:56 *368:65 2.45 
10 *368:65 *368:73 2.3193 
11 *368:73 *368:77 6.0575 
12 *368:77 *592:A 2.05 
13 *368:77 *590:A 1.6 
14 *368:73 *815:A 14.4716 
15 *368:65 *597:A 14.61 
16 *368:31 *596:A 1.6 
17 *368:6 *368:132 9.815 
18 *368:132 *598:A 2.74 
19 *368:132 *594:A 1.6 
*END

*D_NET *369 0.00533052
*CONN
*I *816:A I *D sky130_fd_sc_hd__inv_2
*I *821:A I *D sky130_fd_sc_hd__inv_2
*I *817:A I *D sky130_fd_sc_hd__inv_2
*I *818:A I *D sky130_fd_sc_hd__inv_2
*I *820:A I *D sky130_fd_sc_hd__inv_2
*I *819:A I *D sky130_fd_sc_hd__inv_2
*I *863:X O *D sky130_fd_sc_hd__buf_2
*CAP
1 *816:A 0
2 *821:A 0.000215835
3 *817:A 0.000112664
4 *818:A 0.000159874
5 *820:A 0
6 *819:A 0.000216249
7 *863:X 0.000135947
8 *369:66 0.000375776
9 *369:47 0.000396338
10 *369:32 0.000332486
11 *369:23 0.000240551
12 *369:6 0.000543867
13 *592:A *819:A 4.82919e-05
14 *649:B *818:A 2.75229e-05
15 *663:A *369:23 1.0183e-05
16 *664:A *819:A 1.62913e-05
17 *664:A *369:6 0.000123225
18 *664:B *369:6 2.67275e-05
19 *669:A *369:23 0.000114468
20 *669:A *369:32 8.97408e-05
21 *669:A *369:47 3.76596e-05
22 *669:B *817:A 1.08758e-05
23 *669:B *369:66 4.01535e-05
24 *684:A *818:A 0
25 *827:RESET_B *818:A 0.000380194
26 *830:RESET_B *369:66 0
27 *831:RESET_B *369:23 8.69005e-05
28 *833:RESET_B *819:A 8.40213e-05
29 *833:RESET_B *369:23 2.97004e-06
30 *855:A *818:A 0.000168081
31 *929:A *369:23 0.000116853
32 *151:14 *369:23 2.05641e-05
33 *156:14 *817:A 4.41506e-05
34 *301:12 *369:47 0.000286664
35 *301:12 *369:66 0.000203344
36 *303:73 *369:47 0
37 *303:73 *369:66 0
38 *327:10 *819:A 0.000112464
39 *329:10 *369:23 4.56414e-05
40 *332:30 *369:23 0
41 *360:20 *817:A 0
42 *366:10 *369:23 8.53113e-06
43 *366:10 *369:32 0.00015212
44 *366:10 *369:47 0.000316893
45 *368:77 *369:23 2.64017e-05
*RES
1 *863:X *369:6 3.43 
2 *369:6 *819:A 5.635 
3 *369:6 *369:23 6.695 
4 *369:23 *820:A 3.6 
5 *369:23 *369:32 1.89 
6 *369:32 *818:A 8.22 
7 *369:32 *369:47 4.185 
8 *369:47 *817:A 5.46 
9 *369:47 *369:66 5.195 
10 *369:66 *821:A 4.81 
11 *369:66 *816:A 1.6 
*END

*D_NET *370 0.0183581
*CONN
*I *605:A I *D sky130_fd_sc_hd__inv_2
*I *601:A I *D sky130_fd_sc_hd__inv_2
*I *600:A I *D sky130_fd_sc_hd__inv_2
*I *606:A I *D sky130_fd_sc_hd__inv_2
*I *607:A I *D sky130_fd_sc_hd__inv_2
*I *608:A I *D sky130_fd_sc_hd__inv_2
*I *604:A I *D sky130_fd_sc_hd__inv_2
*I *603:A I *D sky130_fd_sc_hd__inv_2
*I *602:A I *D sky130_fd_sc_hd__inv_2
*I *599:A I *D sky130_fd_sc_hd__inv_2
*I *864:X O *D sky130_fd_sc_hd__buf_4
*CAP
1 *605:A 0.000365516
2 *601:A 2.08101e-05
3 *600:A 0
4 *606:A 0
5 *607:A 0
6 *608:A 0.00180897
7 *604:A 0.000879011
8 *603:A 3.38389e-05
9 *602:A 8.00779e-06
10 *599:A 0.000174175
11 *864:X 0.000391364
12 *370:148 0.000894448
13 *370:97 0.00284584
14 *370:91 0.000507864
15 *370:77 0.00113344
16 *370:62 0.00114086
17 *370:47 0.000838814
18 *370:31 0.000547633
19 *370:27 0.000713072
20 *370:12 0.000730072
21 acc[0] *608:A 2.66935e-05
22 acc[23] *604:A 0
23 acc[25] *370:91 8.65961e-05
24 acc[25] *370:97 0
25 acc[28] *608:A 5.05521e-05
26 *617:B *370:77 9.53428e-06
27 *623:A *370:91 0
28 *706:B *370:47 2.97004e-06
29 *716:B *370:47 0
30 *724:B *370:91 5.42217e-05
31 *725:A *604:A 5.39961e-05
32 *728:A *370:47 0.000183738
33 *730:B *370:47 0
34 *731:A2 *370:148 5.97833e-05
35 *733:A_N *370:77 0.00057431
36 *733:B *370:77 6.24524e-05
37 *735:C *370:77 8.49205e-05
38 *742:B *608:A 0
39 *746:B *608:A 2.53191e-06
40 *757:A *605:A 4.99619e-05
41 *760:A2 *370:77 0
42 *762:A *370:91 0.000253782
43 *762:B *370:91 5.20968e-05
44 *769:B *370:62 4.29107e-05
45 *769:B *370:77 1.83756e-05
46 *770:A2 *603:A 4.00541e-06
47 *770:A2 *370:77 2.59926e-05
48 *770:B1_N *370:77 4.99619e-05
49 *840:CLK *370:12 2.20014e-05
50 *840:D *370:12 0.000177694
51 *840:RESET_B *599:A 0
52 *840:RESET_B *370:27 0
53 *841:D *370:31 1.34503e-05
54 *841:RESET_B *370:31 0.000163199
55 *842:RESET_B *605:A 7.00889e-06
56 *842:RESET_B *370:148 1.61831e-05
57 *843:RESET_B *370:62 5.39718e-05
58 *846:D *605:A 5.34747e-05
59 *846:RESET_B *605:A 3.00381e-05
60 *847:RESET_B *370:77 4.82863e-05
61 *848:D *370:97 3.39151e-05
62 *848:RESET_B *370:97 3.42142e-05
63 *849:RESET_B *608:A 8.8266e-05
64 *854:A *599:A 7.05373e-05
65 *864:A *370:12 8.64421e-05
66 *871:A *370:62 2.49909e-05
67 *873:A *604:A 0
68 *874:A *370:91 0
69 *875:A *370:97 0.000141897
70 *876:A *608:A 0.000568632
71 *899:A *608:A 0.000147355
72 *908:A *370:62 0.00046962
73 *911:A *602:A 2.30292e-05
74 *911:A *370:47 0.000138324
75 *912:A *370:62 0
76 *916:A *370:97 9.50342e-06
77 *110:23 *370:97 0
78 *192:8 *370:47 0.000137024
79 *198:16 *599:A 0
80 *198:16 *370:27 0
81 *198:16 *370:148 0.000198614
82 *211:6 *370:77 0.000148554
83 *212:18 *370:77 2.64061e-05
84 *218:14 *370:148 1.06688e-05
85 *231:12 *608:A 9.44791e-05
86 *231:27 *608:A 7.21296e-06
87 *250:14 *599:A 0
88 *250:14 *370:27 0
89 *310:12 *602:A 4.82863e-05
90 *310:12 *370:47 0.000114157
91 *311:12 *370:62 9.30787e-05
92 *315:12 *370:91 3.04982e-05
93 *343:40 *370:47 8.08153e-06
94 *344:10 *370:31 9.91257e-05
95 *344:10 *370:47 0.00011964
96 *347:10 *370:62 0
97 *349:21 *370:91 1.71013e-05
*RES
1 *864:X *370:12 9.255 
2 *370:12 *599:A 6.48 
3 *370:12 *370:27 2.655 
4 *370:27 *370:31 3.83 
5 *370:31 *370:47 15.145 
6 *370:47 *602:A 2.05 
7 *370:47 *370:62 10.945 
8 *370:62 *603:A 2.215 
9 *370:62 *370:77 12.315 
10 *370:77 *370:91 11.305 
11 *370:91 *370:97 7.42 
12 *370:97 *604:A 15.62 
13 *370:97 *608:A 29.24 
14 *370:91 *607:A 1.6 
15 *370:77 *606:A 1.6 
16 *370:31 *600:A 1.6 
17 *370:27 *370:148 10.565 
18 *370:148 *601:A 1.96 
19 *370:148 *605:A 7.93 
*END

*D_NET *371 0.00696158
*CONN
*I *610:A I *D sky130_fd_sc_hd__inv_2
*I *611:A I *D sky130_fd_sc_hd__inv_2
*I *612:A I *D sky130_fd_sc_hd__inv_2
*I *814:A I *D sky130_fd_sc_hd__inv_2
*I *609:A I *D sky130_fd_sc_hd__inv_2
*I *613:A I *D sky130_fd_sc_hd__inv_2
*I *865:X O *D sky130_fd_sc_hd__buf_2
*CAP
1 *610:A 0.000123746
2 *611:A 0.000254405
3 *612:A 0
4 *814:A 3.55506e-05
5 *609:A 0.000509842
6 *613:A 0
7 *865:X 0
8 *371:66 0.000557349
9 *371:51 0.000303081
10 *371:38 0.000880637
11 *371:10 0.000800144
12 *371:4 0.00101151
13 acc[31] *371:51 0
14 *616:B *609:A 6.18292e-05
15 *654:A *371:51 4.70343e-05
16 *657:B1 *371:38 2.05056e-05
17 *740:A *609:A 3.76596e-05
18 *741:A *611:A 0.000121167
19 *741:A *371:66 0.000113821
20 *741:B *371:66 0.000113821
21 *747:B *609:A 0.000155491
22 *747:B *611:A 0.000227389
23 *753:A2 *611:A 8.35106e-05
24 *754:A *610:A 4.77719e-05
25 *754:A *611:A 1.14169e-05
26 *754:B *610:A 2.49909e-05
27 *755:A *611:A 0.000139252
28 *755:B *611:A 3.64998e-06
29 *807:B *371:38 7.52678e-05
30 *850:RESET_B *609:A 0
31 *864:A *371:10 9.2741e-05
32 *865:A *371:10 5.05521e-05
33 *866:A *371:66 0.000108939
34 *869:A *814:A 0
35 *879:A *371:51 0
36 *910:A *371:66 0
37 *915:A *609:A 0.000132842
38 *143:18 *371:38 0.000235568
39 *301:28 *609:A 0.000296025
40 *301:28 *371:10 0.00011852
41 *305:51 *609:A 0
42 *319:16 *611:A 0
43 *319:16 *371:38 5.49126e-05
44 *319:16 *371:51 3.23663e-05
45 *333:31 *371:66 6.00334e-05
46 *355:10 *611:A 1.82476e-05
*RES
1 *865:X *371:4 1.6 
2 *371:4 *371:10 6.245 
3 *371:10 *613:A 3.6 
4 *371:10 *609:A 17.155 
5 *371:4 *371:38 8.73 
6 *371:38 *814:A 2.215 
7 *371:38 *371:51 4.175 
8 *371:51 *612:A 3.6 
9 *371:51 *371:66 6.485 
10 *371:66 *611:A 11.33 
11 *371:66 *610:A 3.445 
*END

*D_NET *372 0.00215621
*CONN
*I *689:A I *D sky130_fd_sc_hd__nor2_1
*I *688:A I *D sky130_fd_sc_hd__nand2_1
*I *690:A I *D sky130_fd_sc_hd__or2_1
*I *896:X O *D sky130_fd_sc_hd__buf_1
*CAP
1 *689:A 0
2 *688:A 0.000259876
3 *690:A 3.23308e-05
4 *896:X 3.57506e-05
5 *372:27 0.000468097
6 *372:6 0.000276302
7 *591:A *690:A 1.15104e-05
8 *591:A *372:27 8.46717e-05
9 *684:A *688:A 1.89041e-05
10 *688:B *688:A 5.92482e-05
11 *698:B2 *688:A 7.28764e-05
12 *698:B2 *372:27 4.77719e-05
13 *832:D *688:A 4.89295e-05
14 *832:D *372:27 3.6355e-05
15 *859:A *688:A 8.52883e-05
16 *895:A *372:27 0
17 *180:10 *688:A 0
18 *340:33 *372:6 1.56428e-05
19 *340:50 *688:A 8.7152e-06
20 *340:50 *372:6 3.30017e-05
21 *340:50 *372:27 0.000156906
22 *350:12 *688:A 8.52883e-05
23 *368:18 *372:6 0.000122699
24 *368:18 *372:27 0.000196045
*RES
1 *896:X *372:6 2.74 
2 *372:6 *690:A 2.215 
3 *372:6 *372:27 8.725 
4 *372:27 *688:A 9.875 
5 *372:27 *689:A 1.6 
*END

*D_NET *373 0.00263394
*CONN
*I *708:A I *D sky130_fd_sc_hd__nand2_1
*I *709:A I *D sky130_fd_sc_hd__or2_1
*I *714:A1 I *D sky130_fd_sc_hd__a31o_1
*I *897:X O *D sky130_fd_sc_hd__buf_1
*CAP
1 *708:A 0.000119568
2 *709:A 9.4784e-05
3 *714:A1 1.55346e-05
4 *897:X 8.87607e-05
5 *373:19 0.000422004
6 *373:8 0.000311947
7 *708:A *374:12 2.05056e-05
8 *373:8 *374:20 4.82919e-05
9 *373:19 *777:A1 3.66286e-05
10 *373:19 *374:20 0.000121437
11 *708:B *708:A 4.99619e-05
12 *710:A *373:19 8.49205e-05
13 *710:B *709:A 0.000138551
14 *714:B1 *373:19 4.66108e-05
15 *715:C1 *373:8 8.40269e-05
16 *776:A *708:A 7.63282e-05
17 *776:A *709:A 1.1561e-05
18 *776:A *373:19 1.91597e-05
19 *776:B *708:A 0.000130721
20 *776:B *709:A 0.000155928
21 *777:B1 *714:A1 0
22 *777:B1 *373:19 5.74791e-05
23 *839:D *708:A 0.00012657
24 *854:A *708:A 6.01793e-05
25 *897:A *714:A1 0
26 *897:A *373:8 5.4155e-06
27 *898:A *709:A 0
28 *906:A *373:8 0.000122331
29 *197:12 *709:A 0
30 *248:10 *709:A 3.05712e-05
31 *250:14 *708:A 0
32 *250:14 *373:19 4.66108e-05
33 *341:14 *714:A1 9.53428e-06
34 *341:14 *373:8 2.05056e-05
35 *341:14 *373:19 7.75097e-05
*RES
1 *897:X *373:8 3.79 
2 *373:8 *714:A1 1.96 
3 *373:8 *373:19 6.245 
4 *373:19 *709:A 6.255 
5 *373:19 *708:A 7.335 
*END

*D_NET *374 0.00331787
*CONN
*I *777:A1 I *D sky130_fd_sc_hd__a21o_1
*I *713:A I *D sky130_fd_sc_hd__and3_1
*I *701:A I *D sky130_fd_sc_hd__xnor2_1
*I *898:X O *D sky130_fd_sc_hd__buf_1
*CAP
1 *777:A1 3.43202e-05
2 *713:A 6.58059e-05
3 *701:A 0.000187751
4 *898:X 0.000417184
5 *374:20 0.000450123
6 *374:12 0.000648071
7 *706:B *374:12 9.10587e-05
8 *707:B *374:12 7.06865e-05
9 *708:A *374:12 2.05056e-05
10 *713:B *701:A 0
11 *713:B *374:12 1.1561e-05
12 *713:B *374:20 2.06083e-05
13 *714:A3 *701:A 0.000120186
14 *714:B1 *374:12 0.000159957
15 *715:C1 *713:A 9.37731e-05
16 *715:C1 *374:20 8.53113e-06
17 *776:A *374:12 1.83756e-05
18 *839:D *701:A 0
19 *839:D *374:12 0.000210395
20 *854:A *701:A 0
21 *854:A *713:A 4.66108e-05
22 *854:A *374:12 5.37577e-05
23 *906:A *701:A 1.88904e-05
24 *906:A *713:A 0.000117986
25 *188:8 *701:A 3.00381e-05
26 *342:23 *701:A 4.99619e-05
27 *342:36 *701:A 0.000165373
28 *373:8 *374:20 4.82919e-05
29 *373:19 *777:A1 3.66286e-05
30 *373:19 *374:20 0.000121437
*RES
1 *898:X *374:12 12.335 
2 *374:12 *374:20 4.7675 
3 *374:20 *701:A 7.9575 
4 *374:20 *713:A 5.5575 
5 *374:12 *777:A1 2.05 
*END
