*SPEF "ieee 1481-1999"
*DESIGN "acc32"
*DATE "16:17:31 Saturday September 19, 2026"
*VENDOR "The OpenROAD Project"
*PROGRAM "OpenROAD"
*VERSION "edf00dff99f6c40d67a30c0e22a8191c5d2ed9d6"
*DESIGN_FLOW "NAME_SCOPE LOCAL" "PIN_CAP NONE"
*DIVIDER /
*DELIMITER :
*BUS_DELIMITER []
*T_UNIT 1 NS
*C_UNIT 1 PF
*R_UNIT 1 OHM
*L_UNIT 1 HENRY

*NAME_MAP
*3 acc[0]
*4 acc[10]
*5 acc[11]
*6 acc[12]
*7 acc[13]
*8 acc[14]
*9 acc[15]
*10 acc[16]
*11 acc[17]
*12 acc[18]
*13 acc[19]
*14 acc[1]
*15 acc[20]
*16 acc[21]
*17 acc[22]
*18 acc[23]
*19 acc[24]
*20 acc[25]
*21 acc[26]
*22 acc[27]
*23 acc[28]
*24 acc[29]
*25 acc[2]
*26 acc[30]
*27 acc[31]
*28 acc[3]
*29 acc[4]
*30 acc[5]
*31 acc[6]
*32 acc[7]
*33 acc[8]
*34 acc[9]
*35 clk
*36 data_in[0]
*37 data_in[10]
*38 data_in[11]
*39 data_in[12]
*40 data_in[13]
*41 data_in[14]
*42 data_in[15]
*43 data_in[16]
*44 data_in[17]
*45 data_in[18]
*46 data_in[19]
*47 data_in[1]
*48 data_in[20]
*49 data_in[21]
*50 data_in[22]
*51 data_in[23]
*52 data_in[24]
*53 data_in[25]
*54 data_in[26]
*55 data_in[27]
*56 data_in[28]
*57 data_in[29]
*58 data_in[2]
*59 data_in[30]
*60 data_in[31]
*61 data_in[3]
*62 data_in[4]
*63 data_in[5]
*64 data_in[6]
*65 data_in[7]
*66 data_in[8]
*67 data_in[9]
*68 rst
*69 _000_
*70 _001_
*71 _002_
*72 _003_
*73 _004_
*74 _005_
*75 _006_
*76 _007_
*77 _008_
*78 _009_
*79 _010_
*80 _011_
*81 _012_
*82 _013_
*83 _014_
*84 _015_
*85 _016_
*86 _017_
*87 _018_
*88 _019_
*89 _020_
*90 _021_
*91 _022_
*92 _023_
*93 _024_
*94 _025_
*95 _026_
*96 _027_
*97 _028_
*98 _029_
*99 _030_
*100 _031_
*101 _032_
*102 _033_
*103 _034_
*104 _035_
*105 _036_
*106 _037_
*107 _038_
*108 _039_
*109 _040_
*110 _041_
*111 _042_
*112 _043_
*113 _044_
*114 _045_
*115 _046_
*116 _047_
*117 _048_
*118 _049_
*119 _050_
*120 _051_
*121 _052_
*122 _053_
*123 _054_
*124 _055_
*125 _056_
*126 _057_
*127 _058_
*128 _059_
*129 _060_
*130 _061_
*131 _062_
*132 _063_
*133 _064_
*134 _065_
*135 _066_
*136 _067_
*137 _068_
*138 _069_
*139 _070_
*140 _071_
*141 _072_
*142 _073_
*143 _074_
*144 _075_
*145 _076_
*146 _077_
*147 _078_
*148 _079_
*149 _080_
*150 _081_
*151 _082_
*152 _083_
*153 _084_
*154 _085_
*155 _086_
*156 _087_
*157 _088_
*158 _089_
*159 _090_
*160 _091_
*161 _092_
*162 _093_
*163 _094_
*164 _095_
*165 _096_
*166 _097_
*167 _098_
*168 _099_
*169 _100_
*170 _101_
*171 _102_
*172 _103_
*173 _104_
*174 _105_
*175 _106_
*176 _107_
*177 _108_
*178 _109_
*179 _110_
*180 _111_
*181 _112_
*182 _113_
*183 _114_
*184 _115_
*185 _116_
*186 _117_
*187 _118_
*188 _119_
*189 _120_
*190 _121_
*191 _122_
*192 _123_
*193 _124_
*194 _125_
*195 _126_
*196 _127_
*197 _128_
*198 _129_
*199 _130_
*200 _131_
*201 _132_
*202 _133_
*203 _134_
*204 _135_
*205 _136_
*206 _137_
*207 _138_
*208 _139_
*209 _140_
*210 _141_
*211 _142_
*212 _143_
*213 _144_
*214 _145_
*215 _146_
*216 _147_
*217 _148_
*218 _149_
*219 _150_
*220 _151_
*221 _152_
*222 _153_
*223 _154_
*224 _155_
*225 _156_
*226 _157_
*227 _158_
*228 _159_
*229 _160_
*230 _161_
*231 _162_
*232 _163_
*233 _164_
*234 _165_
*235 _166_
*236 _167_
*237 _168_
*238 _169_
*239 _170_
*240 _171_
*241 _172_
*242 _173_
*243 _174_
*244 _175_
*245 _176_
*246 _177_
*247 _178_
*248 _179_
*249 _180_
*250 _181_
*251 _182_
*252 _183_
*253 _184_
*254 _185_
*255 _186_
*256 _187_
*257 _188_
*258 _189_
*259 _190_
*260 _191_
*261 _192_
*262 _193_
*263 _194_
*264 _195_
*265 _196_
*266 _197_
*267 _198_
*268 _199_
*269 adder\.cla_blocks\[0\]\.block\.p\[0\]
*270 adder\.cla_blocks\[0\]\.block\.sum\[1\]
*271 adder\.cla_blocks\[0\]\.block\.sum\[2\]
*272 adder\.cla_blocks\[0\]\.block\.sum\[3\]
*273 adder\.cla_blocks\[1\]\.block\.sum\[0\]
*274 adder\.cla_blocks\[1\]\.block\.sum\[1\]
*275 adder\.cla_blocks\[1\]\.block\.sum\[2\]
*276 adder\.cla_blocks\[1\]\.block\.sum\[3\]
*277 adder\.cla_blocks\[2\]\.block\.sum\[0\]
*278 adder\.cla_blocks\[2\]\.block\.sum\[1\]
*279 adder\.cla_blocks\[2\]\.block\.sum\[2\]
*280 adder\.cla_blocks\[2\]\.block\.sum\[3\]
*281 adder\.cla_blocks\[3\]\.block\.sum\[0\]
*282 adder\.cla_blocks\[3\]\.block\.sum\[1\]
*283 adder\.cla_blocks\[3\]\.block\.sum\[2\]
*284 adder\.cla_blocks\[3\]\.block\.sum\[3\]
*285 adder\.cla_blocks\[4\]\.block\.sum\[0\]
*286 adder\.cla_blocks\[4\]\.block\.sum\[1\]
*287 adder\.cla_blocks\[4\]\.block\.sum\[2\]
*288 adder\.cla_blocks\[4\]\.block\.sum\[3\]
*289 adder\.cla_blocks\[5\]\.block\.sum\[0\]
*290 adder\.cla_blocks\[5\]\.block\.sum\[1\]
*291 adder\.cla_blocks\[5\]\.block\.sum\[2\]
*292 adder\.cla_blocks\[5\]\.block\.sum\[3\]
*293 adder\.cla_blocks\[6\]\.block\.sum\[0\]
*294 adder\.cla_blocks\[6\]\.block\.sum\[1\]
*295 adder\.cla_blocks\[6\]\.block\.sum\[2\]
*296 adder\.cla_blocks\[6\]\.block\.sum\[3\]
*297 adder\.cla_blocks\[7\]\.block\.sum\[0\]
*298 adder\.cla_blocks\[7\]\.block\.sum\[1\]
*299 adder\.cla_blocks\[7\]\.block\.sum\[2\]
*300 adder\.cla_blocks\[7\]\.block\.sum\[3\]
*301 clknet_0_clk
*302 clknet_2_0__leaf_clk
*303 clknet_2_1__leaf_clk
*304 clknet_2_2__leaf_clk
*305 clknet_2_3__leaf_clk
*306 net1
*307 net10
*308 net11
*309 net12
*310 net13
*311 net14
*312 net15
*313 net16
*314 net17
*315 net18
*316 net19
*317 net2
*318 net20
*319 net21
*320 net22
*321 net23
*322 net24
*323 net25
*324 net26
*325 net27
*326 net28
*327 net29
*328 net3
*329 net30
*330 net31
*331 net32
*332 net33
*333 net34
*334 net35
*335 net36
*336 net37
*337 net38
*338 net39
*339 net4
*340 net40
*341 net41
*342 net42
*343 net43
*344 net44
*345 net45
*346 net46
*347 net47
*348 net48
*349 net49
*350 net5
*351 net50
*352 net51
*353 net52
*354 net53
*355 net54
*356 net55
*357 net56
*358 net57
*359 net58
*360 net59
*361 net6
*362 net60
*363 net61
*364 net62
*365 net63
*366 net64
*367 net65
*368 net66
*369 net67
*370 net68
*371 net69
*372 net7
*373 net8
*374 net9
*375 FILLER_0_111
*376 FILLER_0_117
*377 FILLER_0_122
*378 FILLER_0_29
*379 FILLER_0_57
*380 FILLER_0_83
*381 FILLER_0_85
*382 FILLER_0_98
*383 FILLER_10_101
*384 FILLER_10_123
*385 FILLER_10_19
*386 FILLER_10_27
*387 FILLER_10_3
*388 FILLER_10_32
*389 FILLER_10_36
*390 FILLER_10_48
*391 FILLER_10_56
*392 FILLER_10_77
*393 FILLER_10_83
*394 FILLER_10_9
*395 FILLER_10_92
*396 FILLER_11_111
*397 FILLER_11_113
*398 FILLER_11_120
*399 FILLER_11_48
*400 FILLER_11_57
*401 FILLER_11_69
*402 FILLER_11_81
*403 FILLER_11_91
*404 FILLER_12_110
*405 FILLER_12_18
*406 FILLER_12_24
*407 FILLER_12_49
*408 FILLER_12_6
*409 FILLER_12_61
*410 FILLER_12_73
*411 FILLER_13_116
*412 FILLER_13_13
*413 FILLER_13_25
*414 FILLER_13_38
*415 FILLER_13_49
*416 FILLER_13_57
*417 FILLER_13_6
*418 FILLER_13_68
*419 FILLER_13_80
*420 FILLER_13_86
*421 FILLER_14_112
*422 FILLER_14_18
*423 FILLER_14_23
*424 FILLER_14_29
*425 FILLER_14_74
*426 FILLER_14_82
*427 FILLER_15_13
*428 FILLER_15_29
*429 FILLER_15_42
*430 FILLER_15_54
*431 FILLER_15_62
*432 FILLER_15_72
*433 FILLER_16_103
*434 FILLER_16_23
*435 FILLER_16_60
*436 FILLER_16_67
*437 FILLER_16_83
*438 FILLER_16_85
*439 FILLER_17_119
*440 FILLER_17_34
*441 FILLER_17_72
*442 FILLER_18_18
*443 FILLER_18_3
*444 FILLER_18_41
*445 FILLER_18_67
*446 FILLER_18_92
*447 FILLER_19_111
*448 FILLER_19_28
*449 FILLER_19_57
*450 FILLER_19_97
*451 FILLER_1_122
*452 FILLER_1_55
*453 FILLER_1_57
*454 FILLER_1_67
*455 FILLER_20_22
*456 FILLER_20_26
*457 FILLER_20_32
*458 FILLER_20_52
*459 FILLER_20_82
*460 FILLER_2_13
*461 FILLER_2_52
*462 FILLER_2_89
*463 FILLER_3_117
*464 FILLER_3_123
*465 FILLER_3_24
*466 FILLER_3_38
*467 FILLER_3_51
*468 FILLER_3_55
*469 FILLER_3_88
*470 FILLER_4_3
*471 FILLER_4_80
*472 FILLER_4_85
*473 FILLER_4_97
*474 FILLER_5_111
*475 FILLER_5_122
*476 FILLER_5_23
*477 FILLER_5_55
*478 FILLER_5_69
*479 FILLER_6_11
*480 FILLER_6_18
*481 FILLER_6_62
*482 FILLER_6_85
*483 FILLER_7_104
*484 FILLER_7_122
*485 FILLER_7_27
*486 FILLER_7_54
*487 FILLER_7_57
*488 FILLER_7_80
*489 FILLER_8_10
*490 FILLER_8_122
*491 FILLER_8_17
*492 FILLER_8_29
*493 FILLER_8_45
*494 FILLER_8_57
*495 FILLER_8_69
*496 FILLER_8_73
*497 FILLER_8_82
*498 FILLER_8_92
*499 FILLER_9_22
*500 FILLER_9_60
*501 FILLER_9_68
*502 PHY_EDGE_ROW_0_Left_21
*503 PHY_EDGE_ROW_0_Right_0
*504 PHY_EDGE_ROW_10_Left_31
*505 PHY_EDGE_ROW_10_Right_10
*506 PHY_EDGE_ROW_11_Left_32
*507 PHY_EDGE_ROW_11_Right_11
*508 PHY_EDGE_ROW_12_Left_33
*509 PHY_EDGE_ROW_12_Right_12
*510 PHY_EDGE_ROW_13_Left_34
*511 PHY_EDGE_ROW_13_Right_13
*512 PHY_EDGE_ROW_14_Left_35
*513 PHY_EDGE_ROW_14_Right_14
*514 PHY_EDGE_ROW_15_Left_36
*515 PHY_EDGE_ROW_15_Right_15
*516 PHY_EDGE_ROW_16_Left_37
*517 PHY_EDGE_ROW_16_Right_16
*518 PHY_EDGE_ROW_17_Left_38
*519 PHY_EDGE_ROW_17_Right_17
*520 PHY_EDGE_ROW_18_Left_39
*521 PHY_EDGE_ROW_18_Right_18
*522 PHY_EDGE_ROW_19_Left_40
*523 PHY_EDGE_ROW_19_Right_19
*524 PHY_EDGE_ROW_1_Left_22
*525 PHY_EDGE_ROW_1_Right_1
*526 PHY_EDGE_ROW_20_Left_41
*527 PHY_EDGE_ROW_20_Right_20
*528 PHY_EDGE_ROW_2_Left_23
*529 PHY_EDGE_ROW_2_Right_2
*530 PHY_EDGE_ROW_3_Left_24
*531 PHY_EDGE_ROW_3_Right_3
*532 PHY_EDGE_ROW_4_Left_25
*533 PHY_EDGE_ROW_4_Right_4
*534 PHY_EDGE_ROW_5_Left_26
*535 PHY_EDGE_ROW_5_Right_5
*536 PHY_EDGE_ROW_6_Left_27
*537 PHY_EDGE_ROW_6_Right_6
*538 PHY_EDGE_ROW_7_Left_28
*539 PHY_EDGE_ROW_7_Right_7
*540 PHY_EDGE_ROW_8_Left_29
*541 PHY_EDGE_ROW_8_Right_8
*542 PHY_EDGE_ROW_9_Left_30
*543 PHY_EDGE_ROW_9_Right_9
*544 TAP_TAPCELL_ROW_0_42
*545 TAP_TAPCELL_ROW_0_43
*546 TAP_TAPCELL_ROW_0_44
*547 TAP_TAPCELL_ROW_0_45
*548 TAP_TAPCELL_ROW_10_64
*549 TAP_TAPCELL_ROW_10_65
*550 TAP_TAPCELL_ROW_11_66
*551 TAP_TAPCELL_ROW_11_67
*552 TAP_TAPCELL_ROW_12_68
*553 TAP_TAPCELL_ROW_12_69
*554 TAP_TAPCELL_ROW_13_70
*555 TAP_TAPCELL_ROW_13_71
*556 TAP_TAPCELL_ROW_14_72
*557 TAP_TAPCELL_ROW_14_73
*558 TAP_TAPCELL_ROW_15_74
*559 TAP_TAPCELL_ROW_15_75
*560 TAP_TAPCELL_ROW_16_76
*561 TAP_TAPCELL_ROW_16_77
*562 TAP_TAPCELL_ROW_17_78
*563 TAP_TAPCELL_ROW_17_79
*564 TAP_TAPCELL_ROW_18_80
*565 TAP_TAPCELL_ROW_18_81
*566 TAP_TAPCELL_ROW_19_82
*567 TAP_TAPCELL_ROW_19_83
*568 TAP_TAPCELL_ROW_1_46
*569 TAP_TAPCELL_ROW_1_47
*570 TAP_TAPCELL_ROW_20_84
*571 TAP_TAPCELL_ROW_20_85
*572 TAP_TAPCELL_ROW_20_86
*573 TAP_TAPCELL_ROW_20_87
*574 TAP_TAPCELL_ROW_2_48
*575 TAP_TAPCELL_ROW_2_49
*576 TAP_TAPCELL_ROW_3_50
*577 TAP_TAPCELL_ROW_3_51
*578 TAP_TAPCELL_ROW_4_52
*579 TAP_TAPCELL_ROW_4_53
*580 TAP_TAPCELL_ROW_5_54
*581 TAP_TAPCELL_ROW_5_55
*582 TAP_TAPCELL_ROW_6_56
*583 TAP_TAPCELL_ROW_6_57
*584 TAP_TAPCELL_ROW_7_58
*585 TAP_TAPCELL_ROW_7_59
*586 TAP_TAPCELL_ROW_8_60
*587 TAP_TAPCELL_ROW_8_61
*588 TAP_TAPCELL_ROW_9_62
*589 TAP_TAPCELL_ROW_9_63
*590 _200_
*591 _201_
*592 _202_
*593 _203_
*594 _204_
*595 _205_
*596 _206_
*597 _207_
*598 _208_
*599 _209_
*600 _210_
*601 _211_
*602 _212_
*603 _213_
*604 _214_
*605 _215_
*606 _216_
*607 _217_
*608 _218_
*609 _219_
*610 _220_
*611 _221_
*612 _222_
*613 _223_
*614 _224_
*615 _225_
*616 _226_
*617 _227_
*618 _228_
*619 _229_
*620 _230_
*621 _231_
*622 _232_
*623 _233_
*624 _234_
*625 _235_
*626 _236_
*627 _237_
*628 _238_
*629 _239_
*630 _240_
*631 _241_
*632 _242_
*633 _243_
*634 _244_
*635 _245_
*636 _246_
*637 _247_
*638 _248_
*639 _249_
*640 _250_
*641 _251_
*642 _252_
*643 _253_
*644 _254_
*645 _255_
*646 _256_
*647 _257_
*648 _258_
*649 _259_
*650 _260_
*651 _261_
*652 _262_
*653 _263_
*654 _264_
*655 _265_
*656 _266_
*657 _267_
*658 _268_
*659 _269_
*660 _270_
*661 _271_
*662 _272_
*663 _273_
*664 _274_
*665 _275_
*666 _276_
*667 _277_
*668 _278_
*669 _279_
*670 _280_
*671 _281_
*672 _282_
*673 _283_
*674 _284_
*675 _285_
*676 _286_
*677 _287_
*678 _288_
*679 _289_
*680 _290_
*681 _291_
*682 _292_
*683 _293_
*684 _294_
*685 _295_
*686 _296_
*687 _297_
*688 _298_
*689 _299_
*690 _300_
*691 _301_
*692 _302_
*693 _303_
*694 _304_
*695 _305_
*696 _306_
*697 _307_
*698 _308_
*699 _309_
*700 _310_
*701 _311_
*702 _312_
*703 _313_
*704 _314_
*705 _315_
*706 _316_
*707 _317_
*708 _318_
*709 _319_
*710 _320_
*711 _321_
*712 _322_
*713 _323_
*714 _324_
*715 _325_
*716 _326_
*717 _327_
*718 _328_
*719 _329_
*720 _330_
*721 _331_
*722 _332_
*723 _333_
*724 _334_
*725 _335_
*726 _336_
*727 _337_
*728 _338_
*729 _339_
*730 _340_
*731 _341_
*732 _342_
*733 _343_
*734 _344_
*735 _345_
*736 _346_
*737 _347_
*738 _348_
*739 _349_
*740 _350_
*741 _351_
*742 _352_
*743 _353_
*744 _354_
*745 _355_
*746 _356_
*747 _357_
*748 _358_
*749 _359_
*750 _360_
*751 _361_
*752 _362_
*753 _363_
*754 _364_
*755 _365_
*756 _366_
*757 _367_
*758 _368_
*759 _369_
*760 _370_
*761 _371_
*762 _372_
*763 _373_
*764 _374_
*765 _375_
*766 _376_
*767 _377_
*768 _378_
*769 _379_
*770 _380_
*771 _381_
*772 _382_
*773 _383_
*774 _384_
*775 _385_
*776 _386_
*777 _387_
*778 _388_
*779 _389_
*780 _390_
*781 _391_
*782 _392_
*783 _393_
*784 _394_
*785 _395_
*786 _396_
*787 _397_
*788 _398_
*789 _399_
*790 _400_
*791 _401_
*792 _402_
*793 _403_
*794 _404_
*795 _405_
*796 _406_
*797 _407_
*798 _408_
*799 _409_
*800 _410_
*801 _411_
*802 _412_
*803 _413_
*804 _414_
*805 _415_
*806 _416_
*807 _417_
*808 _418_
*809 _419_
*810 _420_
*811 _421_
*812 _422_
*813 _423_
*814 _424_
*815 _425_
*816 _426_
*817 _427_
*818 _428_
*819 _429_
*820 _430_
*821 _431_
*822 _432_
*823 _433_
*824 _434_
*825 _435_
*826 _436_
*827 _437_
*828 _438_
*829 _439_
*830 _440_
*831 _441_
*832 _442_
*833 _443_
*834 _444_
*835 _445_
*836 _446_
*837 _447_
*838 _448_
*839 _449_
*840 _450_
*841 _451_
*842 _452_
*843 _453_
*844 _454_
*845 _455_
*846 _456_
*847 _457_
*848 _458_
*849 _459_
*850 _460_
*851 _461_
*852 _462_
*853 _463_
*854 clkbuf_0_clk
*855 clkbuf_2_0__f_clk
*856 clkbuf_2_1__f_clk
*857 clkbuf_2_2__f_clk
*858 clkbuf_2_3__f_clk
*859 clkload0
*860 clkload1
*861 clkload2
*862 fanout66
*863 fanout67
*864 fanout68
*865 fanout69
*866 input1
*867 input10
*868 input11
*869 input12
*870 input13
*871 input14
*872 input15
*873 input16
*874 input17
*875 input18
*876 input19
*877 input2
*878 input20
*879 input21
*880 input22
*881 input23
*882 input24
*883 input25
*884 input26
*885 input27
*886 input28
*887 input29
*888 input3
*889 input30
*890 input31
*891 input32
*892 input33
*893 input4
*894 input5
*895 input6
*896 input7
*897 input8
*898 input9
*899 output34
*900 output35
*901 output36
*902 output37
*903 output38
*904 output39
*905 output40
*906 output41
*907 output42
*908 output43
*909 output44
*910 output45
*911 output46
*912 output47
*913 output48
*914 output49
*915 output50
*916 output51
*917 output52
*918 output53
*919 output54
*920 output55
*921 output56
*922 output57
*923 output58
*924 output59
*925 output60
*926 output61
*927 output62
*928 output63
*929 output64
*930 output65

*PORTS
acc[0] O
acc[10] O
acc[11] O
acc[12] O
acc[13] O
acc[14] O
acc[15] O
acc[16] O
acc[17] O
acc[18] O
acc[19] O
acc[1] O
acc[20] O
acc[21] O
acc[22] O
acc[23] O
acc[24] O
acc[25] O
acc[26] O
acc[27] O
acc[28] O
acc[29] O
acc[2] O
acc[30] O
acc[31] O
acc[3] O
acc[4] O
acc[5] O
acc[6] O
acc[7] O
acc[8] O
acc[9] O
clk I
data_in[0] I
data_in[10] I
data_in[11] I
data_in[12] I
data_in[13] I
data_in[14] I
data_in[15] I
data_in[16] I
data_in[17] I
data_in[18] I
data_in[19] I
data_in[1] I
data_in[20] I
data_in[21] I
data_in[22] I
data_in[23] I
data_in[24] I
data_in[25] I
data_in[26] I
data_in[27] I
data_in[28] I
data_in[29] I
data_in[2] I
data_in[30] I
data_in[31] I
data_in[3] I
data_in[4] I
data_in[5] I
data_in[6] I
data_in[7] I
data_in[8] I
data_in[9] I
rst I

*D_NET *3 0.00151685
*CONN
*P acc[0] O
*I *899:X O *D sky130_fd_sc_hd__buf_2
*CAP
1 acc[0] 0.00061911
2 *899:X 0.00061911
3 acc[0] acc[28] 6.76337e-05
4 acc[0] *608:A 2.56601e-05
5 acc[0] *880:A 4.43067e-05
6 acc[0] *883:A 0.000141029
*RES
1 *899:X acc[0] 27.8371 
*END

*D_NET *4 0.0019302
*CONN
*P acc[10] O
*I *900:X O *D sky130_fd_sc_hd__buf_2
*CAP
1 acc[10] 0.000592053
2 *900:X 0.000592053
3 acc[10] *877:A 0
4 acc[10] *891:A 0.00039899
5 acc[10] *896:A 0
6 acc[10] *41:21 0.000347103
*RES
1 *900:X acc[10] 25.175 
*END

*D_NET *5 0.00318248
*CONN
*P acc[11] O
*I *901:X O *D sky130_fd_sc_hd__buf_2
*CAP
1 acc[11] 0.000830566
2 *901:X 0.000830566
3 acc[11] acc[8] 6.05148e-05
4 acc[11] *662:A 0.000139907
5 acc[11] *675:B1 2.59355e-05
6 acc[11] *676:B1 0.000317756
7 acc[11] *805:B1 2.71447e-05
8 acc[11] *806:B 7.48033e-05
9 acc[11] *829:D 1.02504e-05
10 acc[11] *887:A 0
11 acc[11] *929:A 9.90367e-05
12 acc[11] *152:16 0.000676685
13 acc[11] *364:35 8.93141e-05
*RES
1 *901:X acc[11] 43.1929 
*END

*D_NET *6 0.000739611
*CONN
*P acc[12] O
*I *902:X O *D sky130_fd_sc_hd__buf_2
*CAP
1 acc[12] 0.000307019
2 *902:X 0.000307019
3 acc[12] acc[13] 6.37275e-05
4 acc[12] acc[17] 6.18446e-05
5 acc[12] *894:A 0
6 acc[12] *898:A 0
*RES
1 *902:X acc[12] 18.4832 
*END

*D_NET *7 0.00119563
*CONN
*P acc[13] O
*I *903:X O *D sky130_fd_sc_hd__buf_2
*CAP
1 acc[13] 0.000292802
2 *903:X 0.000292802
3 acc[13] acc[14] 0.00014183
4 acc[13] *894:A 6.37275e-05
5 acc[13] *903:A 3.18676e-05
6 acc[13] *35:15 0.00030887
7 acc[12] acc[13] 6.37275e-05
*RES
1 *903:X acc[13] 22.9787 
*END

*D_NET *8 0.00119262
*CONN
*P acc[14] O
*I *904:X O *D sky130_fd_sc_hd__buf_2
*CAP
1 acc[14] 0.000470792
2 *904:X 0.000470792
3 acc[14] *893:A 3.71658e-05
4 acc[14] *894:A 3.71658e-05
5 acc[14] *903:A 3.48705e-05
6 acc[14] *35:15 0
7 acc[13] acc[14] 0.00014183
*RES
1 *904:X acc[14] 23.8161 
*END

*D_NET *9 0.00122581
*CONN
*P acc[15] O
*I *905:X O *D sky130_fd_sc_hd__buf_2
*CAP
1 acc[15] 0.000327611
2 *905:X 0.000327611
3 acc[15] *896:A 0.000471823
4 acc[15] *41:21 0
5 acc[15] *178:14 9.87672e-05
*RES
1 *905:X acc[15] 21.6393 
*END

*D_NET *10 0.000598378
*CONN
*P acc[16] O
*I *906:X O *D sky130_fd_sc_hd__buf_2
*CAP
1 acc[16] 0.000228492
2 *906:X 0.000228492
3 acc[16] *868:A 2.25951e-05
4 acc[16] *897:A 2.87684e-05
5 acc[16] *898:A 0
6 acc[16] *307:8 4.50149e-05
7 acc[16] *343:14 4.50149e-05
*RES
1 *906:X acc[16] 18.4985 
*END

*D_NET *11 0.000831804
*CONN
*P acc[17] O
*I *907:X O *D sky130_fd_sc_hd__buf_2
*CAP
1 acc[17] 0.000286646
2 *907:X 0.000286646
3 acc[17] *898:A 6.37275e-05
4 acc[17] *907:A 1.92905e-05
5 acc[17] *35:15 0.00011365
6 acc[12] acc[17] 6.18446e-05
*RES
1 *907:X acc[17] 20.5501 
*END

*D_NET *12 0.00176862
*CONN
*P acc[18] O
*I *908:X O *D sky130_fd_sc_hd__buf_2
*CAP
1 acc[18] 0.000633916
2 *908:X 0.000633916
3 acc[18] acc[19] 0.000224579
4 acc[18] acc[22] 0.000276211
*RES
1 *908:X acc[18] 25.9258 
*END

*D_NET *13 0.00165
*CONN
*P acc[19] O
*I *909:X O *D sky130_fd_sc_hd__buf_2
*CAP
1 acc[19] 0.000444958
2 *909:X 0.000444958
3 acc[19] acc[21] 0
4 acc[19] acc[22] 0.000367204
5 acc[19] *721:A 0
6 acc[19] *721:B 0.000113073
7 acc[19] *909:A 5.52302e-05
8 acc[18] acc[19] 0.000224579
*RES
1 *909:X acc[19] 25.9073 
*END

*D_NET *14 0.000598154
*CONN
*P acc[1] O
*I *910:X O *D sky130_fd_sc_hd__buf_2
*CAP
1 acc[1] 0.000147582
2 *910:X 0.000147582
3 acc[1] acc[31] 8.00391e-05
4 acc[1] *866:A 8.00391e-05
5 acc[1] *879:A 7.04278e-05
6 acc[1] *227:10 7.24849e-05
*RES
1 *910:X acc[1] 18.73 
*END

*D_NET *15 0.00068503
*CONN
*P acc[20] O
*I *911:X O *D sky130_fd_sc_hd__buf_2
*CAP
1 acc[20] 0.000285261
2 *911:X 0.000285261
3 acc[20] acc[21] 0
4 acc[20] *843:RESET_B 0
5 acc[20] *870:A 7.73426e-05
6 acc[20] *871:A 3.71658e-05
*RES
1 *911:X acc[20] 19.6044 
*END

*D_NET *16 0.000955519
*CONN
*P acc[21] O
*I *912:X O *D sky130_fd_sc_hd__buf_2
*CAP
1 acc[21] 0.000360755
2 *912:X 0.000360755
3 acc[21] acc[22] 3.71658e-05
4 acc[21] *871:A 3.45861e-05
5 acc[21] *912:A 0.000162258
6 acc[19] acc[21] 0
7 acc[20] acc[21] 0
*RES
1 *912:X acc[21] 21.8378 
*END

*D_NET *17 0.00125353
*CONN
*P acc[22] O
*I *913:X O *D sky130_fd_sc_hd__buf_2
*CAP
1 acc[22] 0.000286477
2 *913:X 0.000286477
3 acc[22] *912:A 0
4 acc[18] acc[22] 0.000276211
5 acc[19] acc[22] 0.000367204
6 acc[21] acc[22] 3.71658e-05
*RES
1 *913:X acc[22] 23.8161 
*END

*D_NET *18 0.00107587
*CONN
*P acc[23] O
*I *914:X O *D sky130_fd_sc_hd__buf_2
*CAP
1 acc[23] 0.000484189
2 *914:X 0.000484189
3 acc[23] *604:A 0
4 acc[23] *725:A 9.83388e-05
5 acc[23] *873:A 9.14771e-06
*RES
1 *914:X acc[23] 22.8536 
*END

*D_NET *19 0.00162853
*CONN
*P acc[24] O
*I *915:X O *D sky130_fd_sc_hd__buf_2
*CAP
1 acc[24] 0.00064976
2 *915:X 0.00064976
3 acc[24] *621:A 7.43578e-06
4 acc[24] *746:A 0.000274294
5 acc[24] *874:A 0
6 acc[24] *876:A 0
7 acc[24] *316:33 4.72818e-05
*RES
1 *915:X acc[24] 25.3179 
*END

*D_NET *20 0.00156971
*CONN
*P acc[25] O
*I *916:X O *D sky130_fd_sc_hd__buf_2
*CAP
1 acc[25] 0.000631279
2 *916:X 0.000631279
3 acc[25] *848:CLK 0.00015799
4 acc[25] *848:D 5.01213e-05
5 acc[25] *873:A 0
6 acc[25] *875:A 0
7 acc[25] *916:A 0
8 acc[25] *315:12 0
9 acc[25] *370:91 9.90431e-05
10 acc[25] *370:97 0
*RES
1 *916:X acc[25] 26.4964 
*END

*D_NET *21 0.00262852
*CONN
*P acc[26] O
*I *917:X O *D sky130_fd_sc_hd__buf_2
*CAP
1 acc[26] 0.00102181
2 *917:X 0.00102181
3 acc[26] acc[27] 0
4 acc[26] *628:B1 4.46186e-06
5 acc[26] *748:A_N 0.000226507
6 acc[26] *849:RESET_B 0
7 acc[26] *878:A 0
8 acc[26] *917:A 0.000353922
9 acc[26] *228:14 0
*RES
1 *917:X acc[26] 30.6214 
*END

*D_NET *22 0.00167557
*CONN
*P acc[27] O
*I *918:X O *D sky130_fd_sc_hd__buf_2
*CAP
1 acc[27] 0.000657336
2 *918:X 0.000657336
3 acc[27] *746:A 0.000360894
4 acc[27] *876:A 0
5 acc[26] acc[27] 0
*RES
1 *918:X acc[27] 25.3179 
*END

*D_NET *23 0.00139536
*CONN
*P acc[28] O
*I *919:X O *D sky130_fd_sc_hd__buf_2
*CAP
1 acc[28] 0.000391213
2 *919:X 0.000391213
3 acc[28] acc[30] 5.08977e-05
4 acc[28] *608:A 5.33433e-05
5 acc[28] *746:B 0.000101545
6 acc[28] *849:RESET_B 1.39726e-05
7 acc[28] *883:A 0.000316431
8 acc[28] *899:A 9.11365e-06
9 acc[0] acc[28] 6.76337e-05
*RES
1 *919:X acc[28] 22.8544 
*END

*D_NET *24 0.000675468
*CONN
*P acc[29] O
*I *920:X O *D sky130_fd_sc_hd__buf_2
*CAP
1 acc[29] 0.000164479
2 *920:X 0.000164479
3 acc[29] *879:A 6.47283e-05
4 acc[29] *880:A 0.000208349
5 acc[29] *882:A 4.05445e-05
6 acc[29] *227:10 2.26973e-05
7 acc[29] *358:31 1.01912e-05
*RES
1 *920:X acc[29] 18.1229 
*END

*D_NET *25 0.000454732
*CONN
*P acc[2] O
*I *921:X O *D sky130_fd_sc_hd__buf_2
*CAP
1 acc[2] 0.000157489
2 *921:X 0.000157489
3 acc[2] acc[31] 0
4 acc[2] acc[3] 0
5 acc[2] *869:A 6.63071e-05
6 acc[2] *884:A 7.3448e-05
*RES
1 *921:X acc[2] 18.1229 
*END

*D_NET *26 0.00235018
*CONN
*P acc[30] O
*I *922:X O *D sky130_fd_sc_hd__buf_2
*CAP
1 acc[30] 0.000520494
2 *922:X 0.000520494
3 acc[30] *880:A 0.00044059
4 acc[30] *882:A 5.08977e-05
5 acc[30] *883:A 0.000347429
6 acc[30] *358:31 0.00041938
7 acc[28] acc[30] 5.08977e-05
*RES
1 *922:X acc[30] 28.9781 
*END

*D_NET *27 0.000513452
*CONN
*P acc[31] O
*I *923:X O *D sky130_fd_sc_hd__buf_2
*CAP
1 acc[31] 0.000164106
2 *923:X 0.000164106
3 acc[31] *869:A 5.96679e-05
4 acc[31] *879:A 4.5534e-05
5 acc[31] *371:51 0
6 acc[1] acc[31] 8.00391e-05
7 acc[2] acc[31] 0
*RES
1 *923:X acc[31] 18.4264 
*END

*D_NET *28 0.00123973
*CONN
*P acc[3] O
*I *924:X O *D sky130_fd_sc_hd__buf_2
*CAP
1 acc[3] 0.000196939
2 *924:X 0.000196939
3 acc[3] *651:B 0.000211829
4 acc[3] *881:A 4.72478e-05
5 acc[3] *884:A 7.60209e-05
6 acc[3] *886:A 0.000479422
7 acc[3] *924:A 1.01912e-05
8 acc[3] *324:14 2.11419e-05
9 acc[2] acc[3] 0
*RES
1 *924:X acc[3] 18.6273 
*END

*D_NET *29 0.00356014
*CONN
*P acc[4] O
*I *925:X O *D sky130_fd_sc_hd__buf_2
*CAP
1 acc[4] 0.000949797
2 *925:X 0.000949797
3 acc[4] acc[6] 9.80173e-05
4 acc[4] acc[7] 0.00072168
5 acc[4] *669:B 0.000135028
6 acc[4] *800:C 2.18269e-05
7 acc[4] *802:A2 7.43578e-06
8 acc[4] *805:B1 5.52238e-05
9 acc[4] *885:A 0.000605392
10 acc[4] *925:A 1.59373e-05
*RES
1 *925:X acc[4] 37.0674 
*END

*D_NET *30 0.000822211
*CONN
*P acc[5] O
*I *926:X O *D sky130_fd_sc_hd__buf_2
*CAP
1 acc[5] 0.00029236
2 *926:X 0.00029236
3 acc[5] *885:A 0
4 acc[5] *886:A 5.40205e-05
5 acc[5] *889:A 8.77276e-05
6 acc[5] *926:A 5.59511e-05
7 acc[5] *927:A 3.97925e-05
*RES
1 *926:X acc[5] 19.4813 
*END

*D_NET *31 0.00264041
*CONN
*P acc[6] O
*I *927:X O *D sky130_fd_sc_hd__buf_2
*CAP
1 acc[6] 0.000907902
2 *927:X 0.000907902
3 acc[6] acc[9] 0
4 acc[6] *664:B 5.37332e-06
5 acc[6] *675:A1 2.11419e-05
6 acc[6] *805:B1 0.000557578
7 acc[6] *901:A 0
8 acc[6] *927:A 0
9 acc[6] *928:A 0
10 acc[6] *150:35 8.0253e-05
11 acc[6] *364:27 6.22421e-05
12 acc[6] *365:10 0
13 acc[4] acc[6] 9.80173e-05
*RES
1 *927:X acc[6] 31.3536 
*END

*D_NET *32 0.00355415
*CONN
*P acc[7] O
*I *928:X O *D sky130_fd_sc_hd__buf_2
*CAP
1 acc[7] 0.00069532
2 *928:X 0.00069532
3 acc[7] *667:B 0.000348545
4 acc[7] *668:A 0.000219711
5 acc[7] *670:B 1.56e-05
6 acc[7] *885:A 0.000284953
7 acc[7] *886:A 0.000331614
8 acc[7] *889:A 6.06115e-05
9 acc[7] *926:A 0.000123343
10 acc[7] *927:A 0
11 acc[7] *363:21 5.74562e-05
12 acc[4] acc[7] 0.00072168
*RES
1 *928:X acc[7] 34.8537 
*END

*D_NET *33 0.0022758
*CONN
*P acc[8] O
*I *929:X O *D sky130_fd_sc_hd__buf_2
*CAP
1 acc[8] 0.000973237
2 *929:X 0.000973237
3 acc[8] *662:A 1.74352e-05
4 acc[8] *662:B 9.31209e-05
5 acc[8] *833:RESET_B 8.49318e-05
6 acc[8] *890:A 0
7 acc[8] *901:A 2.56601e-05
8 acc[8] *929:A 3.32631e-05
9 acc[8] *152:16 0
10 acc[8] *327:10 0
11 acc[8] *327:16 0
12 acc[8] *335:6 1.44042e-05
13 acc[11] acc[8] 6.05148e-05
*RES
1 *929:X acc[8] 29.3179 
*END

*D_NET *34 0.00545807
*CONN
*P acc[9] O
*I *930:X O *D sky130_fd_sc_hd__buf_2
*CAP
1 acc[9] 0.00228177
2 *930:X 0.00228177
3 acc[9] *665:A 0
4 acc[9] *669:B 0.000342131
5 acc[9] *670:A 6.05161e-06
6 acc[9] *798:A 9.90431e-05
7 acc[9] *815:A 0.000180487
8 acc[9] *826:D 9.54798e-06
9 acc[9] *881:A 0.000216093
10 acc[9] *886:A 1.00609e-05
11 acc[9] *887:A 0
12 acc[9] *930:A 1.78625e-05
13 acc[9] *324:14 1.32552e-05
14 acc[9] *327:16 0
15 acc[6] acc[9] 0
*RES
1 *930:X acc[9] 37.5876 
*END

*D_NET *35 0.00815427
*CONN
*P clk I
*I *854:A I *D sky130_fd_sc_hd__clkbuf_16
*CAP
1 clk 0.00160424
2 *854:A 0.00112673
3 *35:15 0.00273098
4 *854:A *599:A 7.49251e-05
5 *854:A *706:B 5.52302e-05
6 *854:A *708:A 6.28253e-05
7 *854:A *708:B 5.71472e-05
8 *854:A *713:B 1.40306e-05
9 *854:A *713:C 0.000165433
10 *854:A *776:A 5.52238e-05
11 *854:A *839:D 2.42516e-05
12 *854:A *840:RESET_B 5.02408e-05
13 *854:A *374:12 5.30154e-05
14 *35:15 *701:A 0
15 *35:15 *702:A 5.52302e-05
16 *35:15 *702:B 5.52302e-05
17 *35:15 *703:B 0.00015234
18 *35:15 *713:A 5.33005e-05
19 *35:15 *892:A 0.000576824
20 *35:15 *897:A 0
21 *35:15 *903:A 0.000176751
22 *35:15 *907:A 0.000276802
23 *35:15 *253:8 0
24 *35:15 *337:8 0.000144512
25 *35:15 *342:23 0.000143307
26 *35:15 *343:14 2.31791e-05
27 acc[13] *35:15 0.00030887
28 acc[14] *35:15 0
29 acc[17] *35:15 0.00011365
*RES
1 clk *35:15 41.9472 
2 *35:15 *854:A 27.9071 
*END

*D_NET *36 0.00176027
*CONN
*P data_in[0] I
*I *866:A I *D sky130_fd_sc_hd__clkbuf_1
*CAP
1 data_in[0] 0.000398591
2 *866:A 0.000398591
3 *866:A *741:B 0.000257296
4 *866:A *754:B 0.000234392
5 *866:A *879:A 7.3448e-05
6 *866:A *923:A 0.000175505
7 *866:A *227:10 3.01823e-05
8 *866:A *371:66 0.000112222
9 acc[1] *866:A 8.00391e-05
*RES
1 data_in[0] *866:A 24.1069 
*END

*D_NET *37 0.0052434
*CONN
*P data_in[10] I
*I *877:A I *D sky130_fd_sc_hd__clkbuf_1
*CAP
1 data_in[10] 0.00207454
2 *877:A 0.00207454
3 *877:A *681:B 0.000228622
4 *877:A *891:A 0
5 *877:A *125:10 0.000184059
6 *877:A *339:22 0.000681653
7 acc[10] *877:A 0
*RES
1 data_in[10] *877:A 36.7063 
*END

*D_NET *38 0.00194992
*CONN
*P data_in[11] I
*I *888:A I *D sky130_fd_sc_hd__clkbuf_1
*CAP
1 data_in[11] 0.000591687
2 *888:A 0.000591687
3 *888:A *634:A 6.05161e-06
4 *888:A *634:B 9.32014e-05
5 *888:A *636:A 4.98872e-05
6 *888:A *833:CLK 1.31516e-05
7 *888:A *833:D 0.000136233
8 *888:A *890:A 0
9 *888:A *891:A 0
10 *888:A *124:21 3.14163e-05
11 *888:A *303:22 0.000172056
12 *888:A *328:19 4.58194e-05
13 *888:A *335:25 0.000218734
*RES
1 data_in[11] *888:A 27.7643 
*END

*D_NET *39 0.00507999
*CONN
*P data_in[12] I
*I *893:A I *D sky130_fd_sc_hd__buf_1
*CAP
1 data_in[12] 0.0021264
2 *893:A 0.0021264
3 *893:A *637:B 0
4 *893:A *638:B 0.000123295
5 *893:A *680:B1 0
6 *893:A *687:B 9.09539e-05
7 *893:A *795:A 0
8 *893:A *795:B 9.60939e-05
9 *893:A *892:A 8.00323e-05
10 *893:A *894:A 0
11 *893:A *900:A 6.8194e-05
12 *893:A *332:20 0.000212418
13 *893:A *339:22 9.91399e-05
14 *893:A *368:37 0
15 *893:A *368:56 1.98839e-05
16 acc[14] *893:A 3.71658e-05
*RES
1 data_in[12] *893:A 25.9095 
*END

*D_NET *40 0.0048402
*CONN
*P data_in[13] I
*I *894:A I *D sky130_fd_sc_hd__clkbuf_1
*CAP
1 data_in[13] 0.00156172
2 *894:A 0.00156172
3 *894:A *639:A 2.82057e-05
4 *894:A *687:B 0.000256773
5 *894:A *688:B 0.000283955
6 *894:A *125:10 0.000165157
7 *894:A *169:21 0.000298721
8 *894:A *173:27 0.000326244
9 *894:A *257:8 0.000115369
10 *894:A *332:20 0.000134863
11 *894:A *339:22 6.58294e-06
12 acc[12] *894:A 0
13 acc[13] *894:A 6.37275e-05
14 acc[14] *894:A 3.71658e-05
15 *893:A *894:A 0
*RES
1 data_in[13] *894:A 23.1873 
*END

*D_NET *41 0.00486821
*CONN
*P data_in[14] I
*I *895:A I *D sky130_fd_sc_hd__clkbuf_1
*CAP
1 data_in[14] 0.00156124
2 *895:A 0
3 *41:21 0.00156124
4 *41:21 *680:C1 0.000125593
5 *41:21 *684:A 0
6 *41:21 *698:B2 0
7 *41:21 *794:B1_N 0.000122012
8 *41:21 *832:RESET_B 0
9 *41:21 *836:RESET_B 0.0002719
10 *41:21 *859:A 5.65955e-05
11 *41:21 *896:A 3.82667e-05
12 *41:21 *125:10 9.18727e-05
13 *41:21 *125:18 0.000208155
14 *41:21 *340:50 0
15 *41:21 *350:12 0.000484233
16 *41:21 *372:27 0
17 acc[10] *41:21 0.000347103
18 acc[15] *41:21 0
*RES
1 data_in[14] *41:21 45.7143 
2 *41:21 *895:A 9.3 
*END

*D_NET *42 0.00238247
*CONN
*P data_in[15] I
*I *896:A I *D sky130_fd_sc_hd__buf_1
*CAP
1 data_in[15] 0.000628781
2 *896:A 0.000628781
3 *896:A *685:A 0
4 *896:A *691:A 0.000358531
5 *896:A *786:A1 5.93671e-05
6 *896:A *836:RESET_B 0
7 *896:A *905:A 0
8 *896:A *178:14 0
9 *896:A *302:34 0.00019692
10 acc[10] *896:A 0
11 acc[15] *896:A 0.000471823
12 *41:21 *896:A 3.82667e-05
*RES
1 data_in[15] *896:A 38.6929 
*END

*D_NET *43 0.00096175
*CONN
*P data_in[16] I
*I *897:A I *D sky130_fd_sc_hd__buf_1
*CAP
1 data_in[16] 0.000424695
2 *897:A 0.000424695
3 *897:A *714:A1 0
4 *897:A *898:A 2.25951e-05
5 *897:A *190:10 5.52302e-05
6 *897:A *341:14 0
7 *897:A *373:8 5.7661e-06
8 acc[16] *897:A 2.87684e-05
9 *35:15 *897:A 0
*RES
1 data_in[16] *897:A 23.0517 
*END

*D_NET *44 0.00322242
*CONN
*P data_in[17] I
*I *898:A I *D sky130_fd_sc_hd__buf_1
*CAP
1 data_in[17] 0.0014878
2 *898:A 0.0014878
3 *898:A *709:A 0
4 *898:A *710:B 0
5 *898:A *776:A 0
6 *898:A *197:12 0.000160489
7 *898:A *198:16 0
8 *898:A *339:26 0
9 acc[12] *898:A 0
10 acc[16] *898:A 0
11 acc[17] *898:A 6.37275e-05
12 *897:A *898:A 2.25951e-05
*RES
1 data_in[17] *898:A 24.3907 
*END

*D_NET *45 0.000620948
*CONN
*P data_in[18] I
*I *867:A I *D sky130_fd_sc_hd__buf_1
*CAP
1 data_in[18] 0.000282832
2 *867:A 0.000282832
3 *867:A *868:A 3.37077e-05
4 *867:A *870:A 2.15768e-05
*RES
1 data_in[18] *867:A 20.7838 
*END

*D_NET *46 0.000617449
*CONN
*P data_in[19] I
*I *868:A I *D sky130_fd_sc_hd__buf_1
*CAP
1 data_in[19] 0.000280573
2 *868:A 0.000280573
3 acc[16] *868:A 2.25951e-05
4 *867:A *868:A 3.37077e-05
*RES
1 data_in[19] *868:A 20.7838 
*END

*D_NET *47 0.000793339
*CONN
*P data_in[1] I
*I *869:A I *D sky130_fd_sc_hd__clkbuf_1
*CAP
1 data_in[1] 0.000281204
2 *869:A 0.000281204
3 *869:A *814:A 0
4 *869:A *319:16 0.000104956
5 acc[2] *869:A 6.63071e-05
6 acc[31] *869:A 5.96679e-05
*RES
1 data_in[1] *869:A 21.193 
*END

*D_NET *48 0.000867777
*CONN
*P data_in[20] I
*I *870:A I *D sky130_fd_sc_hd__clkbuf_1
*CAP
1 data_in[20] 0.000358072
2 *870:A 0.000358072
3 *870:A *911:A 5.2714e-05
4 acc[20] *870:A 7.73426e-05
5 *867:A *870:A 2.15768e-05
*RES
1 data_in[20] *870:A 23.2268 
*END

*D_NET *49 0.00152385
*CONN
*P data_in[21] I
*I *871:A I *D sky130_fd_sc_hd__clkbuf_1
*CAP
1 data_in[21] 0.000575937
2 *871:A 0.000575937
3 *871:A *769:B 0.000274288
4 *871:A *912:A 0
5 *871:A *347:10 0
6 *871:A *370:62 2.59355e-05
7 acc[20] *871:A 3.71658e-05
8 acc[21] *871:A 3.45861e-05
*RES
1 data_in[21] *871:A 27.1375 
*END

*D_NET *50 0.00148652
*CONN
*P data_in[22] I
*I *872:A I *D sky130_fd_sc_hd__clkbuf_1
*CAP
1 data_in[22] 0.000615245
2 *872:A 0.000615245
3 *872:A *720:A 1.76039e-05
4 *872:A *721:A 7.31029e-05
5 *872:A *722:A 5.33005e-05
6 *872:A *722:B 7.43578e-06
7 *872:A *209:10 8.43535e-06
8 *872:A *312:6 9.61553e-05
*RES
1 data_in[22] *872:A 26.4786 
*END

*D_NET *51 0.00160553
*CONN
*P data_in[23] I
*I *873:A I *D sky130_fd_sc_hd__clkbuf_1
*CAP
1 data_in[23] 0.000678408
2 *873:A 0.000678408
3 *873:A *604:A 0
4 *873:A *723:A 5.68722e-05
5 *873:A *723:B 4.65828e-06
6 *873:A *725:A 9.93955e-05
7 *873:A *735:A 5.66157e-05
8 *873:A *313:6 2.20226e-05
9 *873:A *349:21 0
10 acc[23] *873:A 9.14771e-06
11 acc[25] *873:A 0
*RES
1 data_in[23] *873:A 28.6036 
*END

*D_NET *52 0.00162562
*CONN
*P data_in[24] I
*I *874:A I *D sky130_fd_sc_hd__clkbuf_1
*CAP
1 data_in[24] 0.00061844
2 *874:A 0.00061844
3 *874:A *621:A 0.000165667
4 *874:A *623:A 8.37187e-05
5 *874:A *623:B 7.83587e-05
6 *874:A *746:A 0
7 *874:A *762:A 1.82029e-05
8 *874:A *848:RESET_B 0
9 *874:A *875:A 0
10 *874:A *110:6 4.27935e-05
11 *874:A *370:91 0
12 acc[24] *874:A 0
*RES
1 data_in[24] *874:A 26.9607 
*END

*D_NET *53 0.00193302
*CONN
*P data_in[25] I
*I *875:A I *D sky130_fd_sc_hd__clkbuf_1
*CAP
1 data_in[25] 0.000874642
2 *875:A 0.000874642
3 *875:A *723:A 0
4 *875:A *848:RESET_B 3.34366e-05
5 *875:A *370:97 0.000150294
6 acc[25] *875:A 0
7 *874:A *875:A 0
*RES
1 data_in[25] *875:A 28.6393 
*END

*D_NET *54 0.00364037
*CONN
*P data_in[26] I
*I *876:A I *D sky130_fd_sc_hd__buf_1
*CAP
1 data_in[26] 0.0011145
2 *876:A 0.0011145
3 *876:A *608:A 0.000601651
4 *876:A *742:A 0.000255006
5 *876:A *742:B 0.00051675
6 *876:A *753:A2 3.10819e-05
7 *876:A *878:A 0
8 *876:A *919:A 6.87975e-06
9 acc[24] *876:A 0
10 acc[27] *876:A 0
*RES
1 data_in[26] *876:A 49.3179 
*END

*D_NET *55 0.00435388
*CONN
*P data_in[27] I
*I *878:A I *D sky130_fd_sc_hd__buf_1
*CAP
1 data_in[27] 0.00123554
2 *878:A 0.00123554
3 *878:A *624:B 0
4 *878:A *628:B1 0
5 *878:A *629:A 0.000161015
6 *878:A *630:A2 7.39797e-05
7 *878:A *749:A2 6.25005e-05
8 *878:A *763:A 9.15186e-06
9 *878:A *763:C 6.5185e-05
10 *878:A *849:CLK 0.000418823
11 *878:A *882:A 0.000525599
12 *878:A *883:A 0.000560504
13 *878:A *318:12 6.05161e-06
14 acc[26] *878:A 0
15 *876:A *878:A 0
*RES
1 data_in[27] *878:A 39.6963 
*END

*D_NET *56 0.00199423
*CONN
*P data_in[28] I
*I *879:A I *D sky130_fd_sc_hd__clkbuf_1
*CAP
1 data_in[28] 0.000596083
2 *879:A 0.000596083
3 *879:A *654:A 0
4 *879:A *851:RESET_B 0.000254298
5 *879:A *923:A 5.29461e-05
6 *879:A *227:10 0.000129335
7 *879:A *358:31 0.000111348
8 *879:A *371:51 0
9 acc[1] *879:A 7.04278e-05
10 acc[29] *879:A 6.47283e-05
11 acc[31] *879:A 4.5534e-05
12 *866:A *879:A 7.3448e-05
*RES
1 data_in[28] *879:A 28.9794 
*END

*D_NET *57 0.00515753
*CONN
*P data_in[29] I
*I *880:A I *D sky130_fd_sc_hd__clkbuf_1
*CAP
1 data_in[29] 0.00151861
2 *880:A 0.00151861
3 *880:A *743:A_N 2.21972e-05
4 *880:A *753:A1 0.000105361
5 *880:A *754:A 0.000138702
6 *880:A *849:CLK 2.06112e-05
7 *880:A *882:A 2.02078e-05
8 *880:A *883:A 0.00111999
9 acc[0] *880:A 4.43067e-05
10 acc[29] *880:A 0.000208349
11 acc[30] *880:A 0.00044059
*RES
1 data_in[29] *880:A 41.9203 
*END

*D_NET *58 0.00357946
*CONN
*P data_in[2] I
*I *881:A I *D sky130_fd_sc_hd__clkbuf_1
*CAP
1 data_in[2] 0.00117781
2 *881:A 0.00117781
3 *881:A *674:B1 1.7606e-05
4 *881:A *797:A 0.00027193
5 *881:A *804:A 0
6 *881:A *804:B 0
7 *881:A *815:A 0.00015313
8 *881:A *824:CLK 1.58163e-05
9 *881:A *824:RESET_B 0
10 *881:A *885:A 6.72025e-05
11 *881:A *886:A 0.000127097
12 *881:A *138:16 0.000258458
13 *881:A *148:14 2.62836e-05
14 *881:A *159:29 2.30116e-06
15 *881:A *324:35 2.0668e-05
16 acc[3] *881:A 4.72478e-05
17 acc[9] *881:A 0.000216093
*RES
1 data_in[2] *881:A 25.6892 
*END

*D_NET *59 0.0040285
*CONN
*P data_in[30] I
*I *882:A I *D sky130_fd_sc_hd__clkbuf_1
*CAP
1 data_in[30] 0.00128954
2 *882:A 0.00128954
3 *882:A *746:A 1.88336e-05
4 *882:A *883:A 0.000703133
5 *882:A *899:A 4.64191e-05
6 *882:A *915:A 4.37992e-05
7 acc[29] *882:A 4.05445e-05
8 acc[30] *882:A 5.08977e-05
9 *878:A *882:A 0.000525599
10 *880:A *882:A 2.02078e-05
*RES
1 data_in[30] *882:A 21.237 
*END

*D_NET *60 0.00637128
*CONN
*P data_in[31] I
*I *883:A I *D sky130_fd_sc_hd__clkbuf_1
*CAP
1 data_in[31] 0.00125463
2 *883:A 0.00125463
3 *883:A *630:A2 3.20852e-05
4 *883:A *743:A_N 9.99952e-06
5 *883:A *743:B 0.000127068
6 *883:A *746:A 5.32956e-05
7 *883:A *746:B 0.000120702
8 *883:A *747:A 2.22043e-05
9 *883:A *754:A 9.60875e-05
10 *883:A *764:B 9.46929e-05
11 *883:A *915:A 2.37838e-05
12 *883:A *358:31 9.35984e-05
13 acc[0] *883:A 0.000141029
14 acc[28] *883:A 0.000316431
15 acc[30] *883:A 0.000347429
16 *878:A *883:A 0.000560504
17 *880:A *883:A 0.00111999
18 *882:A *883:A 0.000703133
*RES
1 data_in[31] *883:A 40.6939 
*END

*D_NET *61 0.000999899
*CONN
*P data_in[3] I
*I *884:A I *D sky130_fd_sc_hd__clkbuf_2
*CAP
1 data_in[3] 0.0003976
2 *884:A 0.0003976
3 *884:A *652:A 0
4 *884:A *921:A 5.52302e-05
5 acc[2] *884:A 7.3448e-05
6 acc[3] *884:A 7.60209e-05
*RES
1 data_in[3] *884:A 22.6579 
*END

*D_NET *62 0.00239968
*CONN
*P data_in[4] I
*I *885:A I *D sky130_fd_sc_hd__clkbuf_1
*CAP
1 data_in[4] 0.000422699
2 *885:A 0.000422699
3 *885:A *667:B 0.000238961
4 *885:A *886:A 5.40205e-05
5 *885:A *925:A 0.000154109
6 *885:A *927:A 5.33005e-05
7 *885:A *154:18 0
8 *885:A *325:10 3.80079e-05
9 *885:A *363:21 5.83304e-05
10 acc[4] *885:A 0.000605392
11 acc[5] *885:A 0
12 acc[7] *885:A 0.000284953
13 *881:A *885:A 6.72025e-05
*RES
1 data_in[4] *885:A 27.6936 
*END

*D_NET *63 0.00343507
*CONN
*P data_in[5] I
*I *886:A I *D sky130_fd_sc_hd__clkbuf_1
*CAP
1 data_in[5] 0.000854352
2 *886:A 0.000854352
3 *886:A *651:B 4.04355e-05
4 *886:A *667:B 6.8646e-06
5 *886:A *669:B 0.000266949
6 *886:A *670:A 0
7 *886:A *670:B 7.62687e-05
8 *886:A *797:B 9.87983e-06
9 *886:A *798:B 0.000117429
10 *886:A *815:A 0.000131658
11 *886:A *324:14 0
12 *886:A *324:35 2.06441e-05
13 *886:A *325:10 0
14 acc[3] *886:A 0.000479422
15 acc[5] *886:A 5.40205e-05
16 acc[7] *886:A 0.000331614
17 acc[9] *886:A 1.00609e-05
18 *881:A *886:A 0.000127097
19 *885:A *886:A 5.40205e-05
*RES
1 data_in[5] *886:A 36.1423 
*END

*D_NET *64 0.00387854
*CONN
*P data_in[6] I
*I *887:A I *D sky130_fd_sc_hd__buf_1
*CAP
1 data_in[6] 0.00122858
2 *887:A 0.00122858
3 *887:A *636:A 4.34472e-05
4 *887:A *666:B 0
5 *887:A *676:B1 2.92068e-05
6 *887:A *828:RESET_B 0
7 *887:A *829:D 0
8 *887:A *889:A 0.000785258
9 *887:A *890:A 1.08601e-05
10 *887:A *929:A 2.4227e-05
11 *887:A *149:8 0.000132292
12 *887:A *151:14 0.000133464
13 *887:A *152:16 0
14 *887:A *303:22 2.49484e-05
15 *887:A *328:19 0.000126439
16 *887:A *330:12 0
17 *887:A *332:20 0.000111236
18 acc[11] *887:A 0
19 acc[9] *887:A 0
*RES
1 data_in[6] *887:A 35.6115 
*END

*D_NET *65 0.00623267
*CONN
*P data_in[7] I
*I *889:A I *D sky130_fd_sc_hd__clkbuf_1
*CAP
1 data_in[7] 0.00175262
2 *889:A 0.00175262
3 *889:A *643:A 3.51393e-05
4 *889:A *645:A 0.0001399
5 *889:A *666:B 0
6 *889:A *805:A1 3.27026e-05
7 *889:A *806:B 0.000413402
8 *889:A *831:CLK 5.33005e-05
9 *889:A *831:D 9.45735e-05
10 *889:A *833:RESET_B 0.000204732
11 *889:A *890:A 0
12 *889:A *150:35 0
13 *889:A *327:16 0.000291403
14 *889:A *329:10 0.00021081
15 *889:A *330:12 0.00012773
16 *889:A *368:77 0.000190134
17 acc[5] *889:A 8.77276e-05
18 acc[7] *889:A 6.06115e-05
19 *887:A *889:A 0.000785258
*RES
1 data_in[7] *889:A 32.3123 
*END

*D_NET *66 0.001394
*CONN
*P data_in[8] I
*I *890:A I *D sky130_fd_sc_hd__clkbuf_1
*CAP
1 data_in[8] 0.000610067
2 *890:A 0.000610067
3 *890:A *636:A 0
4 *890:A *833:CLK 0
5 *890:A *833:RESET_B 0
6 *890:A *303:37 0.000140933
7 *890:A *330:12 2.20678e-05
8 *890:A *335:25 0
9 acc[8] *890:A 0
10 *887:A *890:A 1.08601e-05
11 *888:A *890:A 0
12 *889:A *890:A 0
*RES
1 data_in[8] *890:A 25.3893 
*END

*D_NET *67 0.00204482
*CONN
*P data_in[9] I
*I *891:A I *D sky130_fd_sc_hd__clkbuf_1
*CAP
1 data_in[9] 0.000709051
2 *891:A 0.000709051
3 *891:A *637:B 2.51343e-06
4 *891:A *687:A 3.99614e-06
5 *891:A *794:A1 0.000100684
6 *891:A *795:B 1.20417e-05
7 *891:A *900:A 5.71472e-05
8 *891:A *331:22 5.1346e-05
9 acc[10] *891:A 0.00039899
10 *877:A *891:A 0
11 *888:A *891:A 0
*RES
1 data_in[9] *891:A 28.5321 
*END

*D_NET *68 0.00142014
*CONN
*P rst I
*I *892:A I *D sky130_fd_sc_hd__dlymetal6s2s_1
*CAP
1 rst 0.000351445
2 *892:A 0.000351445
3 *892:A *785:A 0
4 *892:A *785:B 0
5 *892:A *836:CLK 0
6 *892:A *836:D 6.03908e-05
7 *893:A *892:A 8.00323e-05
8 *35:15 *892:A 0.000576824
*RES
1 rst *892:A 24.1943 
*END

*D_NET *69 0.000368057
*CONN
*I *822:RESET_B I *D sky130_fd_sc_hd__dfrtp_1
*I *613:Y O *D sky130_fd_sc_hd__inv_2
*CAP
1 *822:RESET_B 0.000145522
2 *613:Y 0.000145522
3 *822:RESET_B *333:6 5.62995e-05
4 *822:RESET_B *333:31 2.0714e-05
*RES
1 *613:Y *822:RESET_B 11.8268 
*END

*D_NET *70 0.000560241
*CONN
*I *823:RESET_B I *D sky130_fd_sc_hd__dfrtp_1
*I *814:Y O *D sky130_fd_sc_hd__inv_2
*CAP
1 *823:RESET_B 0.00012042
2 *814:Y 0.00012042
3 *823:RESET_B *652:A 0.000175505
4 *823:RESET_B *654:A 3.34366e-05
5 *823:RESET_B *309:8 5.52302e-05
6 *823:RESET_B *319:16 5.52302e-05
*RES
1 *814:Y *823:RESET_B 21.3893 
*END

*D_NET *71 0.000173624
*CONN
*I *824:RESET_B I *D sky130_fd_sc_hd__dfrtp_1
*I *815:Y O *D sky130_fd_sc_hd__inv_2
*CAP
1 *824:RESET_B 8.45809e-05
2 *815:Y 8.45809e-05
3 *824:RESET_B *798:B 4.46186e-06
4 *824:RESET_B *138:16 0
5 *824:RESET_B *324:14 0
6 *881:A *824:RESET_B 0
*RES
1 *815:Y *824:RESET_B 19.6393 
*END

*D_NET *72 0.000342103
*CONN
*I *825:RESET_B I *D sky130_fd_sc_hd__dfrtp_4
*I *816:Y O *D sky130_fd_sc_hd__inv_2
*CAP
1 *825:RESET_B 0.000107947
2 *816:Y 0.000107947
3 *825:RESET_B *825:D 0
4 *825:RESET_B *301:12 0.000126209
*RES
1 *816:Y *825:RESET_B 21.1571 
*END

*D_NET *73 0.00365765
*CONN
*I *826:RESET_B I *D sky130_fd_sc_hd__dfrtp_1
*I *817:Y O *D sky130_fd_sc_hd__inv_2
*CAP
1 *826:RESET_B 0.000815437
2 *817:Y 0.000815437
3 *826:RESET_B *651:A 2.89016e-05
4 *826:RESET_B *660:A 1.32552e-05
5 *826:RESET_B *665:B 0.000569288
6 *826:RESET_B *673:C 0.000188628
7 *826:RESET_B *674:C1 0.000317594
8 *826:RESET_B *677:A3 3.97677e-05
9 *826:RESET_B *804:B 0.00010838
10 *826:RESET_B *826:CLK 0.000353713
11 *826:RESET_B *826:D 0.000115651
12 *826:RESET_B *827:D 5.33005e-05
13 *826:RESET_B *360:20 0.000136951
14 *826:RESET_B *360:30 0.000101346
*RES
1 *817:Y *826:RESET_B 37.2375 
*END

*D_NET *74 0.00565043
*CONN
*I *827:RESET_B I *D sky130_fd_sc_hd__dfrtp_1
*I *818:Y O *D sky130_fd_sc_hd__inv_2
*CAP
1 *827:RESET_B 0.00134626
2 *818:Y 0.00134626
3 *827:RESET_B *667:B 0.000103977
4 *827:RESET_B *668:A 1.16111e-05
5 *827:RESET_B *669:B 4.11173e-05
6 *827:RESET_B *672:A 0.000203832
7 *827:RESET_B *799:B1 0.000312209
8 *827:RESET_B *802:A2 2.60984e-05
9 *827:RESET_B *818:A 0.000434813
10 *827:RESET_B *826:D 0
11 *827:RESET_B *855:A 1.15281e-05
12 *827:RESET_B *925:A 9.91086e-05
13 *827:RESET_B *927:A 0.000217406
14 *827:RESET_B *928:A 3.85608e-05
15 *827:RESET_B *154:12 1.90111e-05
16 *827:RESET_B *157:14 0.000423571
17 *827:RESET_B *157:20 0.000315165
18 *827:RESET_B *303:8 0.000288904
19 *827:RESET_B *326:14 5.49489e-05
20 *827:RESET_B *362:27 0.000321815
21 *827:RESET_B *365:10 3.42457e-05
*RES
1 *818:Y *827:RESET_B 46.3893 
*END

*D_NET *75 0.000367479
*CONN
*I *828:RESET_B I *D sky130_fd_sc_hd__dfrtp_1
*I *819:Y O *D sky130_fd_sc_hd__inv_2
*CAP
1 *828:RESET_B 0.000108084
2 *819:Y 0.000108084
3 *828:RESET_B *303:37 4.80435e-05
4 *828:RESET_B *330:12 0.000103267
5 *887:A *828:RESET_B 0
*RES
1 *819:Y *828:RESET_B 20.5232 
*END

*D_NET *76 0.0027699
*CONN
*I *829:RESET_B I *D sky130_fd_sc_hd__dfrtp_1
*I *820:Y O *D sky130_fd_sc_hd__inv_2
*CAP
1 *829:RESET_B 0.000557336
2 *820:Y 0.000557336
3 *829:RESET_B *663:A 0.000477857
4 *829:RESET_B *677:A1 5.33005e-05
5 *829:RESET_B *828:D 0.000469836
6 *829:RESET_B *829:CLK 2.89114e-05
7 *829:RESET_B *829:D 0.000119065
8 *829:RESET_B *863:A 4.04359e-05
9 *829:RESET_B *929:A 8.09297e-05
10 *829:RESET_B *153:10 0.000149047
11 *829:RESET_B *153:21 0.000115467
12 *829:RESET_B *156:14 4.13001e-05
13 *829:RESET_B *303:37 5.33334e-05
14 *829:RESET_B *364:27 2.57487e-05
*RES
1 *820:Y *829:RESET_B 32.0768 
*END

*D_NET *77 0.000174235
*CONN
*I *830:RESET_B I *D sky130_fd_sc_hd__dfrtp_1
*I *821:Y O *D sky130_fd_sc_hd__inv_2
*CAP
1 *830:RESET_B 8.71177e-05
2 *821:Y 8.71177e-05
3 *830:RESET_B *825:CLK 0
4 *830:RESET_B *303:73 0
5 *830:RESET_B *369:66 0
*RES
1 *821:Y *830:RESET_B 19.6393 
*END

*D_NET *78 0.000388874
*CONN
*I *831:RESET_B I *D sky130_fd_sc_hd__dfrtp_1
*I *590:Y O *D sky130_fd_sc_hd__inv_2
*CAP
1 *831:RESET_B 6.30803e-05
2 *590:Y 6.30803e-05
3 *831:RESET_B *368:77 0.00017382
4 *831:RESET_B *369:23 8.88938e-05
*RES
1 *590:Y *831:RESET_B 20.55 
*END

*D_NET *79 0.000350407
*CONN
*I *832:RESET_B I *D sky130_fd_sc_hd__dfrtp_1
*I *591:Y O *D sky130_fd_sc_hd__inv_2
*CAP
1 *832:RESET_B 0.00010142
2 *591:Y 0.00010142
3 *832:RESET_B *591:A 1.34548e-05
4 *832:RESET_B *691:B 4.42631e-05
5 *832:RESET_B *837:RESET_B 7.6644e-05
6 *832:RESET_B *340:50 1.32056e-05
7 *41:21 *832:RESET_B 0
*RES
1 *591:Y *832:RESET_B 20.175 
*END

*D_NET *80 0.000937809
*CONN
*I *833:RESET_B I *D sky130_fd_sc_hd__dfrtp_1
*I *592:Y O *D sky130_fd_sc_hd__inv_2
*CAP
1 *833:RESET_B 0.000274616
2 *592:Y 0.000274616
3 *833:RESET_B *662:B 0
4 *833:RESET_B *663:A 0
5 *833:RESET_B *819:A 9.60875e-05
6 *833:RESET_B *327:10 0
7 *833:RESET_B *369:23 2.8266e-06
8 acc[8] *833:RESET_B 8.49318e-05
9 *889:A *833:RESET_B 0.000204732
10 *890:A *833:RESET_B 0
*RES
1 *592:Y *833:RESET_B 23.6214 
*END

*D_NET *81 0.000664746
*CONN
*I *834:RESET_B I *D sky130_fd_sc_hd__dfrtp_1
*I *593:Y O *D sky130_fd_sc_hd__inv_2
*CAP
1 *834:RESET_B 0.000241085
2 *593:Y 0.000241085
3 *834:RESET_B *597:A 6.35117e-05
4 *834:RESET_B *638:B 0
5 *834:RESET_B *680:B1 6.19181e-05
6 *834:RESET_B *684:B 5.71472e-05
*RES
1 *593:Y *834:RESET_B 22.9071 
*END

*D_NET *82 0.000295316
*CONN
*I *835:RESET_B I *D sky130_fd_sc_hd__dfrtp_1
*I *594:Y O *D sky130_fd_sc_hd__inv_2
*CAP
1 *835:RESET_B 0.000133394
2 *594:Y 0.000133394
3 *835:RESET_B *682:B 2.85276e-05
4 *835:RESET_B *368:132 0
*RES
1 *594:Y *835:RESET_B 20.5232 
*END

*D_NET *83 0.00331668
*CONN
*I *836:RESET_B I *D sky130_fd_sc_hd__dfrtp_1
*I *595:Y O *D sky130_fd_sc_hd__inv_2
*CAP
1 *836:RESET_B 0.00129735
2 *595:Y 0.00129735
3 *836:RESET_B *794:A1 1.00375e-05
4 *836:RESET_B *794:A2 0.00020273
5 *836:RESET_B *125:18 0.000151984
6 *836:RESET_B *178:14 4.46186e-06
7 *836:RESET_B *331:22 7.83659e-05
8 *836:RESET_B *338:6 2.51343e-06
9 *896:A *836:RESET_B 0
10 *41:21 *836:RESET_B 0.0002719
*RES
1 *595:Y *836:RESET_B 46.2196 
*END

*D_NET *84 0.00141936
*CONN
*I *837:RESET_B I *D sky130_fd_sc_hd__dfrtp_1
*I *596:Y O *D sky130_fd_sc_hd__inv_2
*CAP
1 *837:RESET_B 0.000519386
2 *596:Y 0.000519386
3 *837:RESET_B *591:A 3.69047e-06
4 *837:RESET_B *832:CLK 4.58194e-05
5 *837:RESET_B *174:20 0.00010132
6 *837:RESET_B *302:36 4.50675e-05
7 *837:RESET_B *340:8 9.41642e-05
8 *837:RESET_B *368:31 1.38796e-05
9 *832:RESET_B *837:RESET_B 7.6644e-05
*RES
1 *596:Y *837:RESET_B 26.2375 
*END

*D_NET *85 0.000331015
*CONN
*I *838:RESET_B I *D sky130_fd_sc_hd__dfrtp_1
*I *597:Y O *D sky130_fd_sc_hd__inv_2
*CAP
1 *838:RESET_B 0.000144616
2 *597:Y 0.000144616
3 *838:RESET_B *341:6 4.17828e-05
*RES
1 *597:Y *838:RESET_B 11.8268 
*END

*D_NET *86 0.000250467
*CONN
*I *839:RESET_B I *D sky130_fd_sc_hd__dfrtp_1
*I *598:Y O *D sky130_fd_sc_hd__inv_2
*CAP
1 *839:RESET_B 0.000125234
2 *598:Y 0.000125234
3 *839:RESET_B *774:B1 0
4 *839:RESET_B *839:CLK 0
5 *839:RESET_B *839:D 0
6 *839:RESET_B *907:A 0
*RES
1 *598:Y *839:RESET_B 20.55 
*END

*D_NET *87 0.00102731
*CONN
*I *840:RESET_B I *D sky130_fd_sc_hd__dfrtp_1
*I *599:Y O *D sky130_fd_sc_hd__inv_2
*CAP
1 *840:RESET_B 0.000343118
2 *599:Y 0.000343118
3 *840:RESET_B *599:A 0
4 *840:RESET_B *840:D 0.000119459
5 *840:RESET_B *198:16 0.000171375
6 *840:RESET_B *370:27 0
7 *854:A *840:RESET_B 5.02408e-05
*RES
1 *599:Y *840:RESET_B 24.4339 
*END

*D_NET *88 0.000458374
*CONN
*I *841:RESET_B I *D sky130_fd_sc_hd__dfrtp_1
*I *600:Y O *D sky130_fd_sc_hd__inv_2
*CAP
1 *841:RESET_B 0.000124939
2 *600:Y 0.000124939
3 *841:RESET_B *841:D 2.18327e-05
4 *841:RESET_B *370:31 0.000186662
*RES
1 *600:Y *841:RESET_B 11.8268 
*END

*D_NET *89 0.000306916
*CONN
*I *842:RESET_B I *D sky130_fd_sc_hd__dfrtp_1
*I *601:Y O *D sky130_fd_sc_hd__inv_2
*CAP
1 *842:RESET_B 0.000126376
2 *601:Y 0.000126376
3 *842:RESET_B *605:A 7.43578e-06
4 *842:RESET_B *757:A 0
5 *842:RESET_B *304:32 2.92927e-05
6 *842:RESET_B *370:148 1.74352e-05
*RES
1 *601:Y *842:RESET_B 20.6036 
*END

*D_NET *90 0.000181324
*CONN
*I *843:RESET_B I *D sky130_fd_sc_hd__dfrtp_1
*I *602:Y O *D sky130_fd_sc_hd__inv_2
*CAP
1 *843:RESET_B 6.28147e-05
2 *602:Y 6.28147e-05
3 *843:RESET_B *370:62 5.56943e-05
4 acc[20] *843:RESET_B 0
*RES
1 *602:Y *843:RESET_B 19.6393 
*END

*D_NET *91 0.000712622
*CONN
*I *844:RESET_B I *D sky130_fd_sc_hd__dfrtp_1
*I *603:Y O *D sky130_fd_sc_hd__inv_2
*CAP
1 *844:RESET_B 0.000159465
2 *603:Y 0.000159465
3 *844:RESET_B *720:B 8.79458e-05
4 *844:RESET_B *844:D 4.27935e-05
5 *844:RESET_B *909:A 0.000245349
6 *844:RESET_B *208:10 0
7 *844:RESET_B *245:10 1.76039e-05
*RES
1 *603:Y *844:RESET_B 22.3446 
*END

*D_NET *92 0.000238486
*CONN
*I *845:RESET_B I *D sky130_fd_sc_hd__dfrtp_1
*I *604:Y O *D sky130_fd_sc_hd__inv_2
*CAP
1 *845:RESET_B 5.143e-05
2 *604:Y 5.143e-05
3 *845:RESET_B *735:A 3.35727e-05
4 *845:RESET_B *212:18 0.000102053
*RES
1 *604:Y *845:RESET_B 19.6393 
*END

*D_NET *93 0.000336993
*CONN
*I *846:RESET_B I *D sky130_fd_sc_hd__dfrtp_1
*I *605:Y O *D sky130_fd_sc_hd__inv_2
*CAP
1 *846:RESET_B 0.000152563
2 *605:Y 0.000152563
3 *846:RESET_B *605:A 3.18676e-05
4 *846:RESET_B *757:B 0
5 *846:RESET_B *846:D 0
*RES
1 *605:Y *846:RESET_B 20.8893 
*END

*D_NET *94 0.000303885
*CONN
*I *847:RESET_B I *D sky130_fd_sc_hd__dfrtp_1
*I *606:Y O *D sky130_fd_sc_hd__inv_2
*CAP
1 *847:RESET_B 0.000124331
2 *606:Y 0.000124331
3 *847:RESET_B *352:10 0
4 *847:RESET_B *370:77 5.52238e-05
*RES
1 *606:Y *847:RESET_B 20.175 
*END

*D_NET *95 0.000333567
*CONN
*I *848:RESET_B I *D sky130_fd_sc_hd__dfrtp_1
*I *607:Y O *D sky130_fd_sc_hd__inv_2
*CAP
1 *848:RESET_B 0.000102671
2 *607:Y 0.000102671
3 *848:RESET_B *623:B 0
4 *848:RESET_B *762:A 5.71472e-05
5 *848:RESET_B *110:23 2.8266e-06
6 *848:RESET_B *370:97 3.48139e-05
7 *874:A *848:RESET_B 0
8 *875:A *848:RESET_B 3.34366e-05
*RES
1 *607:Y *848:RESET_B 20.175 
*END

*D_NET *96 0.00205082
*CONN
*I *849:RESET_B I *D sky130_fd_sc_hd__dfrtp_1
*I *608:Y O *D sky130_fd_sc_hd__inv_2
*CAP
1 *849:RESET_B 0.000315423
2 *608:Y 0.000315423
3 *849:RESET_B *608:A 0.00010096
4 *849:RESET_B *742:A 0.000191403
5 *849:RESET_B *746:A 9.84792e-05
6 *849:RESET_B *748:A_N 1.54142e-05
7 *849:RESET_B *752:A2 0.000391
8 *849:RESET_B *917:A 0.000221641
9 *849:RESET_B *919:A 0.000139637
10 *849:RESET_B *228:14 0.000179739
11 *849:RESET_B *231:12 2.41665e-05
12 *849:RESET_B *354:12 4.35639e-05
13 acc[26] *849:RESET_B 0
14 acc[28] *849:RESET_B 1.39726e-05
*RES
1 *608:Y *849:RESET_B 28.4339 
*END

*D_NET *97 0.00156182
*CONN
*I *850:RESET_B I *D sky130_fd_sc_hd__dfrtp_1
*I *609:Y O *D sky130_fd_sc_hd__inv_2
*CAP
1 *850:RESET_B 0.000199335
2 *609:Y 0.000199335
3 *850:RESET_B *609:A 0
4 *850:RESET_B *747:B 0.000482588
5 *850:RESET_B *232:10 0.000482588
6 *850:RESET_B *305:51 5.83233e-05
7 *850:RESET_B *305:66 0.000139653
*RES
1 *609:Y *850:RESET_B 25.4964 
*END

*D_NET *98 0.000891371
*CONN
*I *851:RESET_B I *D sky130_fd_sc_hd__dfrtp_1
*I *610:Y O *D sky130_fd_sc_hd__inv_2
*CAP
1 *851:RESET_B 0.0001528
2 *610:Y 0.0001528
3 *851:RESET_B *227:10 0.000292353
4 *851:RESET_B *356:8 2.0272e-05
5 *851:RESET_B *358:31 1.88482e-05
6 *879:A *851:RESET_B 0.000254298
*RES
1 *610:Y *851:RESET_B 22.9518 
*END

*D_NET *99 0.00100618
*CONN
*I *852:RESET_B I *D sky130_fd_sc_hd__dfrtp_1
*I *611:Y O *D sky130_fd_sc_hd__inv_2
*CAP
1 *852:RESET_B 0.000227029
2 *611:Y 0.000227029
3 *852:RESET_B *741:A 4.66604e-05
4 *852:RESET_B *741:B 0.000185078
5 *852:RESET_B *752:A2 0.000142316
6 *852:RESET_B *754:A 6.56976e-05
7 *852:RESET_B *919:A 0
8 *852:RESET_B *227:10 1.08175e-05
9 *852:RESET_B *227:27 2.74561e-05
10 *852:RESET_B *356:31 7.40975e-05
*RES
1 *611:Y *852:RESET_B 24.4964 
*END

*D_NET *100 0.00111682
*CONN
*I *853:RESET_B I *D sky130_fd_sc_hd__dfrtp_1
*I *612:Y O *D sky130_fd_sc_hd__inv_2
*CAP
1 *853:RESET_B 0.000280952
2 *612:Y 0.000280952
3 *853:RESET_B *656:A 0.000146474
4 *853:RESET_B *812:A 5.52238e-05
5 *853:RESET_B *813:B 1.84523e-06
6 *853:RESET_B *910:A 0.000199775
7 *853:RESET_B *143:10 2.95726e-05
8 *853:RESET_B *306:6 9.60939e-05
9 *853:RESET_B *359:8 2.59355e-05
*RES
1 *612:Y *853:RESET_B 23.7196 
*END

*D_NET *101 0.00400241
*CONN
*I *616:A I *D sky130_fd_sc_hd__nand2_1
*I *751:C1 I *D sky130_fd_sc_hd__o211a_1
*I *749:A1 I *D sky130_fd_sc_hd__a31o_1
*I *744:A I *D sky130_fd_sc_hd__nand2_1
*I *614:Y O *D sky130_fd_sc_hd__nand2_1
*CAP
1 *616:A 0
2 *751:C1 0
3 *749:A1 0.000214793
4 *744:A 0.000343571
5 *614:Y 0.000202908
6 *101:31 0.000375936
7 *101:25 0.000245844
8 *101:6 0.00063118
9 *744:A *615:B 0.000185643
10 *744:A *858:A 6.05161e-06
11 *744:A *861:A 0.000186662
12 *744:A *102:32 7.69776e-06
13 *744:A *103:16 0.000446597
14 *744:A *232:10 0.000121003
15 *744:A *305:66 0
16 *749:A1 *743:B 2.89114e-05
17 *749:A1 *749:A2 5.36099e-05
18 *749:A1 *749:A3 0.000120267
19 *749:A1 *751:B1 9.41642e-05
20 *749:A1 *228:20 6.57815e-05
21 *749:A1 *232:35 1.21432e-05
22 *749:A1 *316:20 4.72818e-05
23 *101:6 *615:B 0.000303747
24 *101:25 *102:32 4.9611e-05
25 *101:25 *232:10 2.30116e-06
26 *101:25 *305:96 5.97411e-05
27 *101:31 *753:A1 2.04825e-05
28 *101:31 *852:CLK 4.70703e-05
29 *101:31 *102:32 9.54798e-06
30 *101:31 *232:10 8.23347e-05
31 *101:31 *232:35 3.06466e-05
32 *101:31 *305:96 6.87834e-06
*RES
1 *614:Y *101:6 12.3 
2 *101:6 *744:A 25.9429 
3 *101:6 *101:25 6.14286 
4 *101:25 *101:31 7.89286 
5 *101:31 *749:A1 22.8536 
6 *101:31 *751:C1 9.3 
7 *101:25 *616:A 13.8 
*END

*D_NET *102 0.00224667
*CONN
*I *616:B I *D sky130_fd_sc_hd__nand2_1
*I *615:X O *D sky130_fd_sc_hd__or2_1
*CAP
1 *616:B 0
2 *615:X 0.000747251
3 *102:32 0.000747251
4 *102:32 *609:A 6.85983e-05
5 *102:32 *615:A 5.52238e-05
6 *102:32 *615:B 0.000227539
7 *102:32 *747:B 1.5424e-05
8 *102:32 *754:A 0.000109339
9 *102:32 *858:A 5.28612e-05
10 *102:32 *915:A 6.8646e-06
11 *102:32 *232:10 0.000112186
12 *102:32 *305:66 3.72716e-05
13 *744:A *102:32 7.69776e-06
14 *101:25 *102:32 4.9611e-05
15 *101:31 *102:32 9.54798e-06
*RES
1 *615:X *102:32 43.2946 
2 *102:32 *616:B 9.3 
*END

*D_NET *103 0.0035241
*CONN
*I *740:A I *D sky130_fd_sc_hd__xnor2_1
*I *739:C1 I *D sky130_fd_sc_hd__a311o_1
*I *616:Y O *D sky130_fd_sc_hd__nand2_1
*CAP
1 *740:A 0.000226699
2 *739:C1 3.86849e-05
3 *616:Y 0.000297424
4 *103:16 0.000562808
5 *739:C1 *739:B1 1.04232e-05
6 *739:C1 *744:B 0
7 *739:C1 *857:A 1.24368e-05
8 *739:C1 *858:A 5.33005e-05
9 *739:C1 *117:12 2.89016e-05
10 *740:A *609:A 3.90513e-05
11 *740:A *747:A 1.31516e-05
12 *740:A *850:D 9.80173e-05
13 *740:A *915:A 0.000384837
14 *740:A *301:28 0.000333486
15 *103:16 *744:B 3.51393e-05
16 *103:16 *753:A1 0.000344617
17 *103:16 *858:A 0.000181565
18 *103:16 *117:12 4.87953e-05
19 *103:16 *226:8 9.22103e-06
20 *103:16 *226:17 0.000334517
21 *103:16 *320:14 2.44318e-05
22 *744:A *103:16 0.000446597
*RES
1 *616:Y *103:16 20.1929 
2 *103:16 *739:C1 10.2643 
3 *103:16 *740:A 25.5679 
*END

*D_NET *104 0.00239602
*CONN
*I *625:A I *D sky130_fd_sc_hd__or2_1
*I *619:A I *D sky130_fd_sc_hd__nand2_1
*I *760:B1_N I *D sky130_fd_sc_hd__a21bo_1
*I *617:Y O *D sky130_fd_sc_hd__nand2_1
*CAP
1 *625:A 0.00028622
2 *619:A 0.000141519
3 *760:B1_N 0
4 *617:Y 0.000238072
5 *104:15 0.000497297
6 *104:6 0.00030763
7 *619:A *619:B 0.000125724
8 *619:A *759:A 7.3237e-05
9 *619:A *760:A2 0.000142818
10 *619:A *240:8 1.02504e-05
11 *619:A *314:16 1.18064e-05
12 *625:A *618:A 5.52302e-05
13 *625:A *618:B 6.76337e-05
14 *625:A *619:B 9.25014e-06
15 *625:A *760:A2 4.038e-06
16 *625:A *916:A 2.22043e-05
17 *625:A *105:6 2.95726e-05
18 *625:A *314:16 4.33438e-05
19 *104:6 *618:A 5.8868e-05
20 *104:6 *760:A1 2.28598e-05
21 *104:6 *760:A2 0.000183713
22 *104:6 *315:12 9.56029e-06
23 *104:15 *760:A1 5.51706e-05
*RES
1 *617:Y *104:6 12.7107 
2 *104:6 *760:B1_N 9.3 
3 *104:6 *104:15 5.44643 
4 *104:15 *619:A 17.5321 
5 *104:15 *625:A 18.9964 
*END

*D_NET *105 0.00127051
*CONN
*I *619:B I *D sky130_fd_sc_hd__nand2_1
*I *760:A1 I *D sky130_fd_sc_hd__a21bo_1
*I *618:X O *D sky130_fd_sc_hd__or2_1
*CAP
1 *619:B 6.67982e-05
2 *760:A1 0.000106928
3 *618:X 5.20103e-05
4 *105:6 0.000225737
5 *619:B *314:16 0.000127446
6 *760:A1 *618:A 0.000301679
7 *760:A1 *760:A2 0.0001399
8 *105:6 *618:A 7.43578e-06
9 *619:A *619:B 0.000125724
10 *625:A *619:B 9.25014e-06
11 *625:A *105:6 2.95726e-05
12 *104:6 *760:A1 2.28598e-05
13 *104:15 *760:A1 5.51706e-05
*RES
1 *618:X *105:6 10.2464 
2 *105:6 *760:A1 12.8536 
3 *105:6 *619:B 20.3714 
*END

*D_NET *106 0.000716282
*CONN
*I *624:A I *D sky130_fd_sc_hd__or2_1
*I *759:A I *D sky130_fd_sc_hd__xnor2_1
*I *619:Y O *D sky130_fd_sc_hd__nand2_1
*CAP
1 *624:A 0.000118158
2 *759:A 0.000175752
3 *619:Y 0
4 *106:4 0.00029391
5 *624:A *624:B 5.52238e-05
6 *619:A *759:A 7.3237e-05
*RES
1 *619:Y *106:4 9.3 
2 *106:4 *759:A 12.3357 
3 *106:4 *624:A 11.0857 
*END

*D_NET *107 0.00329703
*CONN
*I *626:A I *D sky130_fd_sc_hd__nor2_1
*I *630:A1 I *D sky130_fd_sc_hd__o21a_1
*I *764:A I *D sky130_fd_sc_hd__xor2_1
*I *620:Y O *D sky130_fd_sc_hd__xnor2_1
*CAP
1 *626:A 2.24711e-05
2 *630:A1 0.000109954
3 *764:A 0.000243019
4 *620:Y 0.000252548
5 *107:16 0.000663848
6 *107:12 0.000585895
7 *626:A *852:D 7.43578e-06
8 *626:A *227:27 1.39841e-05
9 *630:A1 *745:A 7.02611e-05
10 *630:A1 *749:A2 0.000140597
11 *630:A1 *849:CLK 0.000140597
12 *630:A1 *316:20 0.000139913
13 *764:A *626:B 0.000184387
14 *764:A *754:A 0
15 *764:A *764:B 1.46699e-05
16 *107:12 *750:A 2.14757e-05
17 *107:12 *852:CLK 4.46186e-06
18 *107:12 *852:D 0.000101346
19 *107:12 *917:A 5.72753e-05
20 *107:12 *228:14 0
21 *107:12 *232:35 0.00013635
22 *107:16 *626:B 0.000382924
23 *107:16 *227:27 3.61629e-06
*RES
1 *620:Y *107:12 23.1393 
2 *107:12 *107:16 4.55357 
3 *107:16 *764:A 12.6527 
4 *107:16 *630:A1 21.6036 
5 *107:12 *626:A 9.83571 
*END

*D_NET *108 0.000665805
*CONN
*I *623:A I *D sky130_fd_sc_hd__nand2_1
*I *763:A I *D sky130_fd_sc_hd__and3_1
*I *621:Y O *D sky130_fd_sc_hd__nand2_1
*CAP
1 *623:A 0.000126761
2 *763:A 0.000131133
3 *621:Y 0
4 *108:4 0.000257894
5 *623:A *621:A 5.71472e-05
6 *623:A *628:A2 0
7 *623:A *370:91 0
8 *763:A *624:B 0
9 *763:A *629:A 0
10 *763:A *110:23 0
11 *874:A *623:A 8.37187e-05
12 *878:A *763:A 9.15186e-06
*RES
1 *621:Y *108:4 9.3 
2 *108:4 *763:A 20.55 
3 *108:4 *623:A 12.2286 
*END

*D_NET *109 0.000798525
*CONN
*I *623:B I *D sky130_fd_sc_hd__nand2_1
*I *622:X O *D sky130_fd_sc_hd__or2_1
*CAP
1 *623:B 0.000263238
2 *622:X 0.000263238
3 *623:B *621:A 0.000119664
4 *623:B *110:23 1.87955e-05
5 *623:B *353:21 5.52302e-05
6 *848:RESET_B *623:B 0
7 *874:A *623:B 7.83587e-05
*RES
1 *622:X *623:B 32.3857 
*END

*D_NET *110 0.00232922
*CONN
*I *625:B I *D sky130_fd_sc_hd__or2_1
*I *624:B I *D sky130_fd_sc_hd__or2_1
*I *762:A I *D sky130_fd_sc_hd__xnor2_1
*I *623:Y O *D sky130_fd_sc_hd__nand2_1
*CAP
1 *625:B 0
2 *624:B 0.000125252
3 *762:A 0.000380091
4 *623:Y 3.72435e-05
5 *110:23 0.000348636
6 *110:6 0.000640719
7 *624:B *763:C 0
8 *624:B *314:16 5.26277e-05
9 *762:A *848:D 0.000226507
10 *762:A *314:16 2.72967e-05
11 *762:A *370:91 0.000267436
12 *110:23 *916:A 0
13 *110:23 *314:16 2.84251e-05
14 *110:23 *318:12 0
15 *110:23 *370:97 0
16 *623:B *110:23 1.87955e-05
17 *624:A *624:B 5.52238e-05
18 *763:A *624:B 0
19 *763:A *110:23 0
20 *848:RESET_B *762:A 5.71472e-05
21 *848:RESET_B *110:23 2.8266e-06
22 *874:A *762:A 1.82029e-05
23 *874:A *110:6 4.27935e-05
24 *878:A *624:B 0
*RES
1 *623:Y *110:6 9.83571 
2 *110:6 *762:A 17.3893 
3 *110:6 *110:23 7.96429 
4 *110:23 *624:B 16.2821 
5 *110:23 *625:B 13.8 
*END

*D_NET *111 0.00197532
*CONN
*I *630:A2 I *D sky130_fd_sc_hd__o21a_1
*I *761:B1 I *D sky130_fd_sc_hd__a21o_1
*I *624:X O *D sky130_fd_sc_hd__or2_1
*CAP
1 *630:A2 0.000427682
2 *761:B1 0.000129652
3 *624:X 0
4 *111:6 0.000557334
5 *630:A2 *743:A_N 0.000314849
6 *630:A2 *743:B 0.000247317
7 *630:A2 *763:C 6.27272e-06
8 *630:A2 *314:16 0
9 *630:A2 *316:20 9.60337e-06
10 *761:B1 *633:B 0
11 *761:B1 *739:A2 2.84494e-05
12 *761:B1 *763:C 3.57177e-05
13 *761:B1 *857:A 5.71472e-05
14 *761:B1 *116:10 0
15 *761:B1 *224:32 5.52302e-05
16 *761:B1 *314:16 0
17 *878:A *630:A2 7.39797e-05
18 *883:A *630:A2 3.20852e-05
*RES
1 *624:X *111:6 13.8 
2 *111:6 *761:B1 16.5857 
3 *111:6 *630:A2 22.5178 
*END

*D_NET *112 0.00299672
*CONN
*I *626:B I *D sky130_fd_sc_hd__nor2_1
*I *763:B I *D sky130_fd_sc_hd__and3_1
*I *625:X O *D sky130_fd_sc_hd__or2_1
*CAP
1 *626:B 0.000672763
2 *763:B 0
3 *625:X 0.000120756
4 *112:6 0.000793519
5 *626:B *628:B1 2.95841e-05
6 *626:B *743:A_N 0.00014451
7 *626:B *749:A2 4.43256e-05
8 *626:B *749:B1 5.52238e-05
9 *626:B *750:B 2.89016e-05
10 *626:B *763:C 9.04073e-07
11 *626:B *764:B 0.000478632
12 *626:B *849:CLK 0
13 *626:B *849:D 2.8266e-06
14 *626:B *227:27 5.74499e-06
15 *626:B *316:20 4.63203e-05
16 *112:6 *763:C 5.39629e-06
17 *764:A *626:B 0.000184387
18 *107:16 *626:B 0.000382924
*RES
1 *625:X *112:6 10.6571 
2 *112:6 *763:B 9.3 
3 *112:6 *626:B 30.9964 
*END

*D_NET *113 0.00257112
*CONN
*I *628:B1 I *D sky130_fd_sc_hd__a211o_1
*I *626:Y O *D sky130_fd_sc_hd__nor2_1
*CAP
1 *628:B1 0.000769567
2 *626:Y 0.000769567
3 *628:B1 *620:A 0.000153959
4 *628:B1 *628:C1 4.86809e-05
5 *628:B1 *749:A2 2.83284e-06
6 *628:B1 *750:B 0.000200433
7 *628:B1 *917:A 0.000392019
8 *628:B1 *227:27 0.000136958
9 *628:B1 *228:14 0
10 *628:B1 *318:18 6.3056e-05
11 acc[26] *628:B1 4.46186e-06
12 *626:B *628:B1 2.95841e-05
13 *878:A *628:B1 0
*RES
1 *626:Y *628:B1 40.0643 
*END

*D_NET *114 0.00016429
*CONN
*I *628:C1 I *D sky130_fd_sc_hd__a211o_1
*I *627:X O *D sky130_fd_sc_hd__o211a_1
*CAP
1 *628:C1 2.33389e-05
2 *627:X 2.33389e-05
3 *628:C1 *620:A 9.7049e-06
4 *628:C1 *318:18 5.92264e-05
5 *628:B1 *628:C1 4.86809e-05
*RES
1 *627:X *628:C1 19.5643 
*END

*D_NET *115 0.000903241
*CONN
*I *629:A I *D sky130_fd_sc_hd__inv_2
*I *628:X O *D sky130_fd_sc_hd__a211o_1
*CAP
1 *629:A 0.000220118
2 *628:X 0.000220118
3 *629:A *621:B 2.27416e-05
4 *629:A *628:A2 1.24368e-05
5 *629:A *747:A 0
6 *629:A *116:10 4.1331e-06
7 *629:A *318:12 0.000262678
8 *763:A *629:A 0
9 *878:A *629:A 0.000161015
*RES
1 *628:X *629:A 32.6179 
*END

*D_NET *116 0.0023715
*CONN
*I *630:B1 I *D sky130_fd_sc_hd__o21a_1
*I *739:A1 I *D sky130_fd_sc_hd__a311o_1
*I *738:A1 I *D sky130_fd_sc_hd__a31oi_1
*I *629:Y O *D sky130_fd_sc_hd__inv_2
*CAP
1 *630:B1 0.000317907
2 *739:A1 2.04425e-05
3 *738:A1 0.000243128
4 *629:Y 5.51217e-05
5 *116:10 0.00039134
6 *116:6 0.000500798
7 *630:B1 *743:A_N 3.99592e-05
8 *630:B1 *743:B 6.26774e-06
9 *630:B1 *745:A 4.23491e-05
10 *738:A1 *738:B1 0.000233882
11 *738:A1 *740:B 8.93179e-06
12 *738:A1 *747:A 9.91086e-05
13 *738:A1 *747:B 3.14386e-05
14 *739:A1 *738:B1 2.59355e-05
15 *739:A1 *857:A 5.33005e-05
16 *116:6 *318:12 7.43578e-06
17 *116:10 *738:B1 4.73656e-05
18 *116:10 *747:A 0.000242657
19 *116:10 *763:C 0
20 *629:A *116:10 4.1331e-06
21 *761:B1 *116:10 0
*RES
1 *629:Y *116:6 10.2464 
2 *116:6 *116:10 7.66071 
3 *116:10 *738:A1 18.4786 
4 *116:10 *739:A1 14.3357 
5 *116:6 *630:B1 14.0143 
*END

*D_NET *117 0.00188291
*CONN
*I *739:B1 I *D sky130_fd_sc_hd__a311o_1
*I *738:B1 I *D sky130_fd_sc_hd__a31oi_1
*I *630:X O *D sky130_fd_sc_hd__o21a_1
*CAP
1 *739:B1 1.39026e-05
2 *738:B1 0.000217654
3 *630:X 0.000187454
4 *117:12 0.000419011
5 *738:B1 *738:A3 0
6 *738:B1 *740:B 4.0342e-06
7 *738:B1 *747:A 1.08359e-05
8 *738:B1 *747:B 4.22908e-05
9 *738:B1 *857:A 1.21258e-05
10 *738:B1 *226:8 4.58194e-05
11 *739:B1 *739:A2 1.3701e-05
12 *739:B1 *744:B 0
13 *117:12 *754:A 0.000208825
14 *117:12 *857:A 8.43535e-06
15 *117:12 *915:A 0.000208825
16 *117:12 *226:8 9.46929e-05
17 *738:A1 *738:B1 0.000233882
18 *739:A1 *738:B1 2.59355e-05
19 *739:C1 *739:B1 1.04232e-05
20 *739:C1 *117:12 2.89016e-05
21 *103:16 *117:12 4.87953e-05
22 *116:10 *738:B1 4.73656e-05
*RES
1 *630:X *117:12 22.925 
2 *117:12 *738:B1 22.8714 
3 *117:12 *739:B1 9.72857 
*END

*D_NET *118 0.00303691
*CONN
*I *739:A2 I *D sky130_fd_sc_hd__a311o_1
*I *761:A1 I *D sky130_fd_sc_hd__a21o_1
*I *633:A I *D sky130_fd_sc_hd__nand2_1
*I *758:A I *D sky130_fd_sc_hd__nand2_1
*I *738:A2 I *D sky130_fd_sc_hd__a31oi_1
*I *631:Y O *D sky130_fd_sc_hd__nand2_1
*CAP
1 *739:A2 0.000141958
2 *761:A1 0
3 *633:A 0
4 *758:A 1.1624e-05
5 *738:A2 4.70928e-05
6 *631:Y 0.000246042
7 *118:33 0.000218044
8 *118:25 0.000291719
9 *118:21 0.000275869
10 *118:10 0.000341747
11 *738:A2 *738:A3 2.59355e-05
12 *739:A2 *633:B 0
13 *739:A2 *738:A3 7.90803e-05
14 *739:A2 *739:A3 0.000178593
15 *739:A2 *857:A 1.74352e-05
16 *739:A2 *224:32 5.33005e-05
17 *739:A2 *226:8 0.000144773
18 *758:A *857:A 5.52238e-05
19 *758:A *120:14 5.52238e-05
20 *118:10 *631:A 7.43578e-06
21 *118:10 *631:B 0.000126629
22 *118:10 *632:A 1.21289e-05
23 *118:10 *738:A3 6.26673e-05
24 *118:10 *301:28 0
25 *118:10 *314:16 0
26 *118:10 *351:12 2.94103e-05
27 *118:21 *738:A3 7.6644e-05
28 *118:25 *857:A 0.00014285
29 *118:33 *857:A 0.000268396
30 *118:33 *120:14 3.07555e-05
31 *118:33 *314:16 5.41794e-05
32 *739:B1 *739:A2 1.3701e-05
33 *761:B1 *739:A2 2.84494e-05
*RES
1 *631:Y *118:10 18.55 
2 *118:10 *738:A2 14.3357 
3 *118:10 *118:21 1.03571 
4 *118:21 *118:25 5.85714 
5 *118:25 *118:33 12.3214 
6 *118:33 *758:A 9.83571 
7 *118:33 *633:A 9.3 
8 *118:25 *761:A1 9.3 
9 *118:21 *739:A2 18.05 
*END

*D_NET *119 0.000410186
*CONN
*I *633:B I *D sky130_fd_sc_hd__nand2_1
*I *632:X O *D sky130_fd_sc_hd__or2_1
*CAP
1 *633:B 0.000114015
2 *632:X 0.000114015
3 *633:B *632:A 5.71472e-05
4 *633:B *314:16 0.00012501
5 *739:A2 *633:B 0
6 *761:B1 *633:B 0
*RES
1 *632:X *633:B 29.7786 
*END

*D_NET *120 0.00174387
*CONN
*I *756:A I *D sky130_fd_sc_hd__and3_1
*I *736:B1 I *D sky130_fd_sc_hd__a21oi_1
*I *737:B1 I *D sky130_fd_sc_hd__a21o_1
*I *633:Y O *D sky130_fd_sc_hd__nand2_1
*CAP
1 *756:A 0
2 *736:B1 4.77789e-05
3 *737:B1 0
4 *633:Y 0.000193844
5 *120:18 0.000175797
6 *120:14 0.000321863
7 *736:B1 *737:A1 5.7661e-06
8 *736:B1 *737:A2 5.71472e-05
9 *736:B1 *756:B 2.95641e-05
10 *736:B1 *756:C 0.000188586
11 *736:B1 *218:23 2.44318e-05
12 *120:14 *857:A 4.13595e-05
13 *120:14 *224:12 0
14 *120:14 *224:23 0.000140933
15 *120:14 *314:16 3.9381e-05
16 *120:18 *632:A 0
17 *120:18 *756:B 0.000202891
18 *120:18 *756:C 0.00018855
19 *758:A *120:14 5.52238e-05
20 *118:33 *120:14 3.07555e-05
*RES
1 *633:Y *120:14 22.4429 
2 *120:14 *120:18 4.66071 
3 *120:18 *737:B1 9.3 
4 *120:18 *736:B1 11.4964 
5 *120:14 *756:A 9.3 
*END

*D_NET *121 0.000760709
*CONN
*I *637:A I *D sky130_fd_sc_hd__nand2_1
*I *646:B1 I *D sky130_fd_sc_hd__o21a_1
*I *634:Y O *D sky130_fd_sc_hd__nand2_1
*CAP
1 *637:A 0
2 *646:B1 0.000100527
3 *634:Y 5.9345e-05
4 *121:8 0.000159872
5 *646:B1 *637:B 9.57064e-05
6 *646:B1 *646:A2 5.33433e-05
7 *646:B1 *833:D 0.000177948
8 *121:8 *634:A 2.2549e-05
9 *121:8 *634:B 1.33343e-05
10 *121:8 *795:A 0
11 *121:8 *833:D 5.52238e-05
12 *121:8 *124:21 2.28598e-05
*RES
1 *634:Y *121:8 10.675 
2 *121:8 *646:B1 21.4964 
3 *121:8 *637:A 9.3 
*END

*D_NET *122 0.000214202
*CONN
*I *646:A1 I *D sky130_fd_sc_hd__o21a_1
*I *635:Y O *D sky130_fd_sc_hd__nor2_1
*CAP
1 *646:A1 8.98521e-05
2 *635:Y 8.98521e-05
3 *646:A1 *636:A 8.25843e-06
4 *646:A1 *335:25 2.62395e-05
*RES
1 *635:Y *646:A1 19.975 
*END

*D_NET *123 0.000762789
*CONN
*I *637:B I *D sky130_fd_sc_hd__nand2_1
*I *636:X O *D sky130_fd_sc_hd__or2_1
*CAP
1 *637:B 0.00024598
2 *636:X 0.00024598
3 *637:B *636:A 3.09758e-05
4 *637:B *680:B1 0.000128154
5 *637:B *833:D 1.34792e-05
6 *637:B *900:A 0
7 *646:B1 *637:B 9.57064e-05
8 *891:A *637:B 2.51343e-06
9 *893:A *637:B 0
*RES
1 *636:X *637:B 32.6179 
*END

*D_NET *124 0.0037445
*CONN
*I *644:A I *D sky130_fd_sc_hd__or3_1
*I *645:A I *D sky130_fd_sc_hd__or3_1
*I *795:A I *D sky130_fd_sc_hd__xnor2_1
*I *637:Y O *D sky130_fd_sc_hd__nand2_1
*CAP
1 *644:A 0.000152151
2 *645:A 0.000374155
3 *795:A 0.00021903
4 *637:Y 0
5 *124:21 0.000824894
6 *124:4 0.000517617
7 *644:A *644:B 3.10885e-05
8 *644:A *130:10 0
9 *644:A *303:20 0.00012401
10 *644:A *303:22 4.29696e-05
11 *644:A *330:12 0
12 *645:A *643:A 0.000344617
13 *645:A *645:C 0.000147336
14 *645:A *793:A 5.33005e-05
15 *645:A *127:14 0.000178847
16 *645:A *128:15 0.000124521
17 *645:A *329:10 5.33005e-05
18 *795:A *833:D 9.90431e-05
19 *795:A *339:22 6.05161e-06
20 *795:A *368:56 5.33433e-05
21 *124:21 *634:A 2.87555e-06
22 *124:21 *634:B 1.74352e-05
23 *124:21 *833:D 8.57023e-05
24 *124:21 *303:22 9.80405e-05
25 *124:21 *330:12 0
26 *888:A *124:21 3.14163e-05
27 *889:A *645:A 0.0001399
28 *893:A *795:A 0
29 *121:8 *795:A 0
30 *121:8 *124:21 2.28598e-05
*RES
1 *637:Y *124:4 9.3 
2 *124:4 *795:A 13.05 
3 *124:4 *124:21 8.83929 
4 *124:21 *645:A 22.1571 
5 *124:21 *644:A 16.6571 
*END

*D_NET *125 0.00518425
*CONN
*I *640:A I *D sky130_fd_sc_hd__nand2_1
*I *646:A2 I *D sky130_fd_sc_hd__o21a_1
*I *794:B1_N I *D sky130_fd_sc_hd__a21bo_1
*I *638:Y O *D sky130_fd_sc_hd__nand2_1
*CAP
1 *640:A 7.75996e-05
2 *646:A2 0.000422075
3 *794:B1_N 0.000169494
4 *638:Y 0.000546535
5 *125:18 0.000732851
6 *125:10 0.000765417
7 *640:A *640:B 0.000115007
8 *640:A *127:10 0.000139632
9 *640:A *368:18 7.48927e-06
10 *640:A *368:31 3.47783e-05
11 *640:A *368:37 4.07654e-05
12 *646:A2 *639:A 2.42516e-05
13 *646:A2 *639:B 1.92905e-05
14 *646:A2 *640:B 2.59355e-05
15 *646:A2 *680:B1 1.72894e-05
16 *646:A2 *331:22 0.000135028
17 *646:A2 *334:8 5.74499e-06
18 *794:B1_N *687:B 0
19 *125:10 *639:A 8.40878e-05
20 *125:10 *680:C1 0.000315172
21 *125:10 *681:B 1.27529e-05
22 *125:10 *697:A1 0
23 *125:10 *794:A2 9.39217e-05
24 *125:10 *834:D 6.92486e-05
25 *125:10 *166:18 0.000221634
26 *125:10 *167:10 4.15914e-05
27 *125:10 *257:8 1.20729e-05
28 *125:18 *794:A2 7.80024e-05
29 *646:B1 *646:A2 5.33433e-05
30 *836:RESET_B *125:18 0.000151984
31 *877:A *125:10 0.000184059
32 *894:A *125:10 0.000165157
33 *41:21 *794:B1_N 0.000122012
34 *41:21 *125:10 9.18727e-05
35 *41:21 *125:18 0.000208155
*RES
1 *638:Y *125:10 27.3357 
2 *125:10 *125:18 8.32143 
3 *125:18 *794:B1_N 21.4964 
4 *125:18 *646:A2 16.425 
5 *125:10 *640:A 16.3 
*END

*D_NET *126 0.00170695
*CONN
*I *640:B I *D sky130_fd_sc_hd__nand2_1
*I *794:A1 I *D sky130_fd_sc_hd__a21bo_1
*I *639:X O *D sky130_fd_sc_hd__or2_1
*CAP
1 *640:B 0.000187013
2 *794:A1 0.00011037
3 *639:X 0
4 *126:4 0.000297382
5 *640:B *639:A 0.000182791
6 *640:B *794:A2 0.000196908
7 *640:B *127:10 3.97677e-05
8 *640:B *331:22 1.18064e-05
9 *640:B *334:8 2.12087e-05
10 *640:B *368:37 6.76246e-05
11 *640:B *368:56 5.33005e-05
12 *794:A1 *794:A2 0.000166003
13 *794:A1 *795:B 3.48139e-05
14 *794:A1 *900:A 2.78822e-05
15 *794:A1 *331:22 5.84186e-05
16 *640:A *640:B 0.000115007
17 *646:A2 *640:B 2.59355e-05
18 *836:RESET_B *794:A1 1.00375e-05
19 *891:A *794:A1 0.000100684
*RES
1 *639:X *126:4 9.3 
2 *126:4 *794:A1 21.8 
3 *126:4 *640:B 24.0143 
*END

*D_NET *127 0.00440747
*CONN
*I *644:B I *D sky130_fd_sc_hd__or3_1
*I *645:B I *D sky130_fd_sc_hd__or3_1
*I *793:A I *D sky130_fd_sc_hd__xnor2_1
*I *640:Y O *D sky130_fd_sc_hd__nand2_1
*CAP
1 *644:B 0.000497709
2 *645:B 0
3 *793:A 0.000295394
4 *640:Y 0.000363447
5 *127:14 0.000424378
6 *127:10 0.00099014
7 *644:B *597:A 0
8 *644:B *638:B 0.000205734
9 *644:B *644:C 0.000174232
10 *644:B *684:B 1.52978e-05
11 *644:B *791:A 5.52238e-05
12 *644:B *792:A2 9.31893e-05
13 *644:B *792:B1_N 7.01205e-05
14 *644:B *131:10 1.02504e-05
15 *644:B *134:18 2.32993e-05
16 *644:B *256:12 1.69961e-05
17 *644:B *303:20 9.60939e-05
18 *644:B *339:22 4.11173e-05
19 *644:B *368:56 0.000105324
20 *644:B *368:65 4.27935e-05
21 *793:A *645:C 0
22 *793:A *793:B 0.000101592
23 *793:A *832:D 0
24 *127:10 *638:B 7.6644e-05
25 *127:10 *339:22 7.6644e-05
26 *127:10 *368:56 0.000189212
27 *640:A *127:10 0.000139632
28 *640:B *127:10 3.97677e-05
29 *644:A *644:B 3.10885e-05
30 *645:A *793:A 5.33005e-05
31 *645:A *127:14 0.000178847
*RES
1 *640:Y *127:10 19.0679 
2 *127:10 *127:14 6.26786 
3 *127:14 *793:A 13.5857 
4 *127:14 *645:B 9.3 
5 *127:10 *644:B 33.2821 
*END

*D_NET *128 0.00185739
*CONN
*I *643:A I *D sky130_fd_sc_hd__nand2_1
*I *792:B1_N I *D sky130_fd_sc_hd__a21bo_1
*I *645:C I *D sky130_fd_sc_hd__or3_1
*I *641:Y O *D sky130_fd_sc_hd__nand2_1
*CAP
1 *643:A 9.59469e-05
2 *792:B1_N 7.14042e-05
3 *645:C 6.63758e-05
4 *641:Y 0
5 *128:15 0.000204228
6 *128:4 0.000103253
7 *643:A *641:B 5.33005e-05
8 *643:A *643:B 6.11433e-05
9 *643:A *792:A1 1.02936e-05
10 *643:A *367:22 0.000125547
11 *645:C *642:A 2.72319e-05
12 *645:C *331:22 5.52302e-05
13 *792:B1_N *368:56 0.000144696
14 *128:15 *641:B 9.71197e-05
15 *128:15 *642:A 1.98839e-05
16 *644:B *792:B1_N 7.01205e-05
17 *645:A *643:A 0.000344617
18 *645:A *645:C 0.000147336
19 *645:A *128:15 0.000124521
20 *793:A *645:C 0
21 *889:A *643:A 3.51393e-05
*RES
1 *641:Y *128:4 9.3 
2 *128:4 *645:C 11.0857 
3 *128:4 *128:15 1.35714 
4 *128:15 *792:B1_N 20.2464 
5 *128:15 *643:A 13.1393 
*END

*D_NET *129 0.00136634
*CONN
*I *643:B I *D sky130_fd_sc_hd__nand2_1
*I *792:A1 I *D sky130_fd_sc_hd__a21bo_1
*I *642:X O *D sky130_fd_sc_hd__or2_1
*CAP
1 *643:B 5.36155e-05
2 *792:A1 0.000331759
3 *642:X 0
4 *129:4 0.000385375
5 *792:A1 *638:B 0.000128154
6 *792:A1 *639:A 6.97972e-05
7 *792:A1 *642:A 0.000306317
8 *792:A1 *367:22 1.98839e-05
9 *643:A *643:B 6.11433e-05
10 *643:A *792:A1 1.02936e-05
*RES
1 *642:X *129:4 9.3 
2 *129:4 *792:A1 23.7643 
3 *129:4 *643:B 10.5679 
*END

*D_NET *130 0.000730263
*CONN
*I *644:C I *D sky130_fd_sc_hd__or3_1
*I *791:A I *D sky130_fd_sc_hd__xnor2_1
*I *643:Y O *D sky130_fd_sc_hd__nand2_1
*CAP
1 *644:C 2.72718e-05
2 *791:A 1.1624e-05
3 *643:Y 0.000102633
4 *130:10 0.000141529
5 *644:C *684:B 7.32955e-05
6 *644:C *256:12 5.52302e-05
7 *791:A *256:12 5.52238e-05
8 *130:10 *597:A 1.89507e-06
9 *130:10 *680:B1 0
10 *130:10 *831:D 2.79092e-05
11 *130:10 *368:73 4.19624e-06
12 *644:A *130:10 0
13 *644:B *644:C 0.000174232
14 *644:B *791:A 5.52238e-05
*RES
1 *643:Y *130:10 19.9429 
2 *130:10 *791:A 9.83571 
3 *130:10 *644:C 11.0679 
*END

*D_NET *131 0.00134295
*CONN
*I *679:B1 I *D sky130_fd_sc_hd__a211oi_1
*I *680:A1 I *D sky130_fd_sc_hd__o211ai_1
*I *644:X O *D sky130_fd_sc_hd__or3_1
*CAP
1 *679:B1 0.000133433
2 *680:A1 0.000264625
3 *644:X 0.000114027
4 *131:10 0.000512084
5 *679:B1 *679:A1 1.28585e-05
6 *679:B1 *790:B 0
7 *679:B1 *136:10 0
8 *679:B1 *165:10 4.1331e-06
9 *679:B1 *303:10 0
10 *679:B1 *303:73 0
11 *680:A1 *790:A 9.54798e-06
12 *680:A1 *790:B 2.95076e-06
13 *680:A1 *171:22 2.04825e-05
14 *680:A1 *368:73 7.46907e-05
15 *131:10 *649:B 7.75985e-05
16 *131:10 *684:B 4.91188e-05
17 *131:10 *134:18 5.71472e-05
18 *644:B *131:10 1.02504e-05
*RES
1 *644:X *131:10 16.4339 
2 *131:10 *680:A1 21.5203 
3 *131:10 *679:B1 15.8982 
*END

*D_NET *132 0.00181587
*CONN
*I *680:C1 I *D sky130_fd_sc_hd__o211ai_1
*I *645:X O *D sky130_fd_sc_hd__or3_1
*CAP
1 *680:C1 0.00028689
2 *645:X 0.00028689
3 *680:C1 *684:A 0.0002772
4 *680:C1 *171:22 0.000524127
5 *41:21 *680:C1 0.000125593
6 *125:10 *680:C1 0.000315172
*RES
1 *645:X *680:C1 36.725 
*END

*D_NET *133 0.00160871
*CONN
*I *680:B1 I *D sky130_fd_sc_hd__o211ai_1
*I *646:X O *D sky130_fd_sc_hd__o21a_1
*CAP
1 *680:B1 0.00049365
2 *646:X 0.00049365
3 *680:B1 *597:A 0.000186304
4 *680:B1 *638:B 0
5 *680:B1 *833:D 0
6 *680:B1 *303:22 0
7 *680:B1 *339:22 0
8 *680:B1 *367:22 4.29471e-05
9 *680:B1 *368:56 0.000164312
10 *680:B1 *368:73 2.04825e-05
11 *637:B *680:B1 0.000128154
12 *646:A2 *680:B1 1.72894e-05
13 *834:RESET_B *680:B1 6.19181e-05
14 *893:A *680:B1 0
15 *130:10 *680:B1 0
*RES
1 *646:X *680:B1 37.0643 
*END

*D_NET *134 0.00204131
*CONN
*I *649:A I *D sky130_fd_sc_hd__nand2_1
*I *790:A I *D sky130_fd_sc_hd__nand2_1
*I *680:A2 I *D sky130_fd_sc_hd__o211ai_1
*I *647:Y O *D sky130_fd_sc_hd__nand2_1
*CAP
1 *649:A 7.81579e-05
2 *790:A 1.74195e-05
3 *680:A2 7.89836e-05
4 *647:Y 0.000110871
5 *134:18 0.000471321
6 *134:6 0.000563947
7 *649:A *649:B 4.94362e-05
8 *649:A *303:20 7.50601e-05
9 *790:A *597:A 1.50087e-05
10 *790:A *684:B 0
11 *790:A *790:B 4.6025e-06
12 *790:A *256:12 3.51442e-05
13 *134:6 *647:A 3.14078e-05
14 *134:6 *648:B 8.25843e-06
15 *134:18 *597:A 3.47737e-05
16 *134:18 *647:A 3.18676e-05
17 *134:18 *684:B 0.00018372
18 *134:18 *256:12 0.000100831
19 *134:18 *303:20 6.05039e-05
20 *644:B *134:18 2.32993e-05
21 *680:A1 *790:A 9.54798e-06
22 *131:10 *134:18 5.71472e-05
*RES
1 *647:Y *134:6 10.6571 
2 *134:6 *134:18 11.875 
3 *134:18 *680:A2 14.7464 
4 *134:18 *790:A 14.5321 
5 *134:6 *649:A 20.2464 
*END

*D_NET *135 0.000409207
*CONN
*I *649:B I *D sky130_fd_sc_hd__nand2_1
*I *648:X O *D sky130_fd_sc_hd__or2_1
*CAP
1 *649:B 9.90151e-05
2 *648:X 9.90151e-05
3 *649:B *818:A 2.89114e-05
4 *649:B *855:A 5.52302e-05
5 *649:A *649:B 4.94362e-05
6 *131:10 *649:B 7.75985e-05
*RES
1 *648:X *649:B 30.0821 
*END

*D_NET *136 0.00123506
*CONN
*I *788:A I *D sky130_fd_sc_hd__nand3_1
*I *678:B1 I *D sky130_fd_sc_hd__a21o_1
*I *679:C1 I *D sky130_fd_sc_hd__a211oi_1
*I *649:Y O *D sky130_fd_sc_hd__nand2_1
*CAP
1 *788:A 9.38195e-05
2 *678:B1 9.02511e-06
3 *679:C1 0.000233576
4 *649:Y 5.35369e-05
5 *136:23 0.000133893
6 *136:10 0.000318162
7 *678:B1 *678:A2 3.08382e-06
8 *678:B1 *679:A2 3.08382e-06
9 *679:C1 *679:A2 3.30237e-05
10 *679:C1 *789:B 3.4879e-05
11 *679:C1 *165:10 2.24763e-05
12 *788:A *678:A1 5.33005e-05
13 *788:A *678:A2 1.00733e-05
14 *788:A *679:A2 6.86693e-05
15 *788:A *788:B 1.04232e-05
16 *788:A *161:10 5.33005e-05
17 *788:A *164:21 2.95888e-05
18 *136:10 *303:10 5.80706e-06
19 *136:10 *303:73 3.34687e-05
20 *136:23 *679:A2 3.18676e-05
21 *136:23 *788:B 0
22 *679:B1 *136:10 0
*RES
1 *649:Y *136:10 19.3357 
2 *136:10 *679:C1 12.6214 
3 *136:10 *136:23 0.964286 
4 *136:23 *678:B1 9.72857 
5 *136:23 *788:A 11.4964 
*END

*D_NET *137 0.00364155
*CONN
*I *808:A1 I *D sky130_fd_sc_hd__o21a_1
*I *658:A I *D sky130_fd_sc_hd__nor3_2
*I *659:B1 I *D sky130_fd_sc_hd__a21o_1
*I *810:A I *D sky130_fd_sc_hd__nor2_1
*I *650:X O *D sky130_fd_sc_hd__and2_1
*CAP
1 *808:A1 0
2 *658:A 5.25059e-05
3 *659:B1 0.000192987
4 *810:A 0.000101145
5 *650:X 0.000229073
6 *137:18 0.00047507
7 *137:16 0.000319393
8 *137:12 0.000315022
9 *658:A *658:B 0
10 *658:A *144:10 5.80706e-06
11 *659:B1 *661:A1 3.08382e-06
12 *659:B1 *665:A 2.11419e-05
13 *659:B1 *665:B 0.000165363
14 *659:B1 *804:B 0.000121165
15 *659:B1 *824:CLK 2.5324e-05
16 *659:B1 *824:D 2.56694e-05
17 *659:B1 *828:D 2.46999e-05
18 *659:B1 *145:26 0
19 *659:B1 *324:48 3.41686e-05
20 *659:B1 *360:10 0
21 *659:B1 *360:20 7.74159e-05
22 *810:A *810:B 6.05161e-06
23 *810:A *145:8 3.99614e-06
24 *137:12 *652:B 0.000105163
25 *137:12 *921:A 0.000128941
26 *137:12 *324:14 0.000296852
27 *137:12 *357:10 4.15914e-05
28 *137:16 *658:C 9.90431e-05
29 *137:16 *808:A2 0.000219064
30 *137:16 *808:B1 2.44318e-05
31 *137:16 *139:12 1.32552e-05
32 *137:18 *658:C 0.000225609
33 *137:18 *808:A2 0.000186669
34 *137:18 *809:B 5.04589e-05
35 *137:18 *810:B 2.89114e-05
36 *137:18 *145:8 2.24763e-05
*RES
1 *650:X *137:12 24.9607 
2 *137:12 *137:16 3.01786 
3 *137:16 *137:18 4.64286 
4 *137:18 *810:A 10.9786 
5 *137:18 *659:B1 23.6393 
6 *137:16 *658:A 19.0321 
7 *137:12 *808:A1 9.3 
*END

*D_NET *138 0.0036433
*CONN
*I *658:B I *D sky130_fd_sc_hd__nor3_2
*I *808:A2 I *D sky130_fd_sc_hd__o21a_1
*I *651:Y O *D sky130_fd_sc_hd__nor2_1
*CAP
1 *658:B 4.56312e-05
2 *808:A2 0.000253081
3 *651:Y 0.000701024
4 *138:16 0.000999736
5 *658:B *145:26 6.98302e-05
6 *138:16 *674:B1 0.000102056
7 *138:16 *674:C1 6.94012e-05
8 *138:16 *828:D 3.92854e-05
9 *138:16 *145:26 0.00035706
10 *138:16 *152:16 4.15914e-05
11 *138:16 *360:30 0.000300412
12 *658:A *658:B 0
13 *824:RESET_B *138:16 0
14 *881:A *138:16 0.000258458
15 *137:16 *808:A2 0.000219064
16 *137:18 *808:A2 0.000186669
*RES
1 *651:Y *138:16 34.7821 
2 *138:16 *808:A2 17.6214 
3 *138:16 *658:B 14.8357 
*END

*D_NET *139 0.00157988
*CONN
*I *653:A I *D sky130_fd_sc_hd__inv_2
*I *657:B1 I *D sky130_fd_sc_hd__o21a_1
*I *652:Y O *D sky130_fd_sc_hd__nand2_1
*CAP
1 *653:A 0
2 *657:B1 6.62203e-05
3 *652:Y 0.000217302
4 *139:12 0.000283523
5 *657:B1 *823:D 2.89016e-05
6 *657:B1 *143:18 0.000185643
7 *657:B1 *319:16 9.71197e-05
8 *657:B1 *371:38 2.14658e-05
9 *139:12 *652:B 0.000299955
10 *139:12 *655:A 0.000177948
11 *139:12 *823:D 0
12 *139:12 *144:10 3.28804e-05
13 *139:12 *319:16 1.52978e-05
14 *139:12 *345:23 0.000140368
15 *137:16 *139:12 1.32552e-05
*RES
1 *652:Y *139:12 24.0321 
2 *139:12 *657:B1 11.4786 
3 *139:12 *653:A 9.3 
*END

*D_NET *140 0.000962229
*CONN
*I *655:A I *D sky130_fd_sc_hd__nor2_1
*I *653:Y O *D sky130_fd_sc_hd__inv_2
*CAP
1 *655:A 0.000313254
2 *653:Y 0.000313254
3 *655:A *655:B 6.20656e-05
4 *655:A *144:10 9.57064e-05
5 *139:12 *655:A 0.000177948
*RES
1 *653:Y *655:A 34.1 
*END

*D_NET *141 0.00184129
*CONN
*I *657:A1 I *D sky130_fd_sc_hd__o21a_1
*I *655:B I *D sky130_fd_sc_hd__nor2_1
*I *654:Y O *D sky130_fd_sc_hd__nor2_1
*CAP
1 *657:A1 0
2 *655:B 0.000209851
3 *654:Y 0.000400665
4 *141:10 0.000610516
5 *655:B *807:A 7.43578e-06
6 *655:B *823:CLK 0.000197991
7 *141:10 *822:D 0.000139907
8 *141:10 *823:CLK 0.000125717
9 *141:10 *333:31 8.71382e-05
10 *655:A *655:B 6.20656e-05
*RES
1 *654:Y *141:10 19.675 
2 *141:10 *655:B 18.55 
3 *141:10 *657:A1 13.8 
*END

*D_NET *142 0.000323145
*CONN
*I *807:A I *D sky130_fd_sc_hd__xnor2_1
*I *655:Y O *D sky130_fd_sc_hd__nor2_1
*CAP
1 *807:A 0.000157855
2 *655:Y 0.000157855
3 *655:B *807:A 7.43578e-06
*RES
1 *655:Y *807:A 30.0821 
*END

*D_NET *143 0.00220791
*CONN
*I *813:A I *D sky130_fd_sc_hd__and2_1
*I *657:A2 I *D sky130_fd_sc_hd__o21a_1
*I *807:B I *D sky130_fd_sc_hd__xnor2_1
*I *656:Y O *D sky130_fd_sc_hd__nand2_1
*CAP
1 *813:A 0
2 *657:A2 0
3 *807:B 0.000104863
4 *656:Y 0.000230602
5 *143:18 0.000242626
6 *143:10 0.000368365
7 *807:B *823:D 9.60875e-05
8 *807:B *371:38 8.002e-05
9 *143:10 *910:A 6.09476e-05
10 *143:10 *319:16 0.000114759
11 *143:10 *359:8 0.000135028
12 *143:18 *823:D 2.77289e-05
13 *143:18 *910:A 1.41029e-05
14 *143:18 *319:16 0.000173083
15 *143:18 *345:23 7.50601e-05
16 *143:18 *371:38 0.000269422
17 *657:B1 *143:18 0.000185643
18 *853:RESET_B *143:10 2.95726e-05
*RES
1 *656:Y *143:10 17.6214 
2 *143:10 *143:18 9.76786 
3 *143:18 *807:B 11.9071 
4 *143:18 *657:A2 9.3 
5 *143:10 *813:A 13.8 
*END

*D_NET *144 0.00132373
*CONN
*I *808:B1 I *D sky130_fd_sc_hd__o21a_1
*I *658:C I *D sky130_fd_sc_hd__nor3_2
*I *657:X O *D sky130_fd_sc_hd__o21a_1
*CAP
1 *808:B1 2.28706e-05
2 *658:C 9.85102e-05
3 *657:X 0.00016282
4 *144:10 0.000284201
5 *658:C *809:B 0.000141985
6 *144:10 *652:A 0
7 *144:10 *652:B 0
8 *144:10 *823:D 0.000129868
9 *144:10 *145:26 0
10 *655:A *144:10 9.57064e-05
11 *658:A *144:10 5.80706e-06
12 *137:16 *658:C 9.90431e-05
13 *137:16 *808:B1 2.44318e-05
14 *137:18 *658:C 0.000225609
15 *139:12 *144:10 3.28804e-05
*RES
1 *657:X *144:10 22.3714 
2 *144:10 *658:C 12.7286 
3 *144:10 *808:B1 9.83571 
*END

*D_NET *145 0.0025926
*CONN
*I *661:B1 I *D sky130_fd_sc_hd__o22ai_1
*I *674:B1 I *D sky130_fd_sc_hd__o221ai_4
*I *809:A I *D sky130_fd_sc_hd__nor2_1
*I *810:B I *D sky130_fd_sc_hd__nor2_1
*I *658:Y O *D sky130_fd_sc_hd__nor3_2
*CAP
1 *661:B1 0
2 *674:B1 0.000186227
3 *809:A 0
4 *810:B 2.5025e-05
5 *658:Y 0
6 *145:26 0.000464147
7 *145:8 0.000172987
8 *145:4 0.000425882
9 *674:B1 *674:A2 0
10 *674:B1 *674:B2 5.33005e-05
11 *674:B1 *804:A 1.10866e-05
12 *674:B1 *148:14 0.000138277
13 *674:B1 *360:30 0.000216755
14 *145:8 *809:B 0.00012073
15 *145:26 *804:A 0.000102638
16 *145:26 *809:B 4.18895e-05
17 *145:26 *811:B 0
18 *145:26 *824:CLK 0
19 *145:26 *824:D 2.56694e-05
20 *145:26 *360:10 0
21 *658:B *145:26 6.98302e-05
22 *659:B1 *145:26 0
23 *810:A *810:B 6.05161e-06
24 *810:A *145:8 3.99614e-06
25 *881:A *674:B1 1.7606e-05
26 *137:18 *810:B 2.89114e-05
27 *137:18 *145:8 2.24763e-05
28 *138:16 *674:B1 0.000102056
29 *138:16 *145:26 0.00035706
30 *144:10 *145:26 0
*RES
1 *658:Y *145:4 9.3 
2 *145:4 *145:8 2.5 
3 *145:8 *810:B 9.83571 
4 *145:8 *809:A 9.3 
5 *145:4 *145:26 11.2321 
6 *145:26 *674:B1 18.3536 
7 *145:26 *661:B1 13.8 
*END

*D_NET *146 0.000935745
*CONN
*I *661:B2 I *D sky130_fd_sc_hd__o22ai_1
*I *674:B2 I *D sky130_fd_sc_hd__o221ai_4
*I *659:X O *D sky130_fd_sc_hd__a21o_1
*CAP
1 *661:B2 3.23868e-05
2 *674:B2 0.00011807
3 *659:X 4.03719e-05
4 *146:6 0.000190829
5 *661:B2 *661:A1 1.24368e-05
6 *661:B2 *148:14 6.05161e-06
7 *674:B2 *804:A 0.000185526
8 *674:B2 *824:CLK 0.000185526
9 *146:6 *661:A1 5.33005e-05
10 *146:6 *661:A2 4.58194e-05
11 *146:6 *324:48 1.21258e-05
12 *674:B1 *674:B2 5.33005e-05
*RES
1 *659:X *146:6 10.2464 
2 *146:6 *674:B2 21.3893 
3 *146:6 *661:B2 9.83571 
*END

*D_NET *147 0.000962642
*CONN
*I *811:A I *D sky130_fd_sc_hd__xnor2_1
*I *660:X O *D sky130_fd_sc_hd__xor2_1
*CAP
1 *811:A 0.000345816
2 *660:X 0.000345816
3 *811:A *651:A 0.000142856
4 *811:A *811:B 0
5 *811:A *332:30 0
6 *811:A *360:10 0.000128154
*RES
1 *660:X *811:A 33.4393 
*END

*D_NET *148 0.00235455
*CONN
*I *796:A I *D sky130_fd_sc_hd__or2_1
*I *797:A I *D sky130_fd_sc_hd__nand2_1
*I *661:Y O *D sky130_fd_sc_hd__o22ai_1
*CAP
1 *796:A 0.000203304
2 *797:A 0.000144881
3 *661:Y 0.000272404
4 *148:14 0.000620589
5 *796:A *796:B 9.90431e-05
6 *796:A *798:A 1.73088e-05
7 *796:A *798:B 2.84026e-05
8 *796:A *924:A 4.11804e-05
9 *797:A *674:A1 5.48198e-05
10 *797:A *797:B 1.33442e-05
11 *797:A *159:29 1.59312e-05
12 *797:A *324:35 0.000167671
13 *148:14 *804:A 0.000192505
14 *148:14 *924:A 3.14048e-05
15 *148:14 *360:30 9.22103e-06
16 *661:B2 *148:14 6.05161e-06
17 *674:B1 *148:14 0.000138277
18 *881:A *797:A 0.00027193
19 *881:A *148:14 2.62836e-05
*RES
1 *661:Y *148:14 23.1571 
2 *148:14 *797:A 22.1036 
3 *148:14 *796:A 12.3179 
*END

*D_NET *149 0.00219027
*CONN
*I *666:A I *D sky130_fd_sc_hd__or3_1
*I *802:B1 I *D sky130_fd_sc_hd__a21oi_1
*I *803:A I *D sky130_fd_sc_hd__and3_1
*I *662:Y O *D sky130_fd_sc_hd__xnor2_1
*CAP
1 *666:A 2.1548e-05
2 *802:B1 0.000195795
3 *803:A 2.23854e-05
4 *662:Y 0.000138343
5 *149:12 0.000433675
6 *149:8 0.000375386
7 *666:A *666:C 1.94945e-05
8 *666:A *676:B1 5.59013e-05
9 *666:A *929:A 7.4354e-06
10 *666:A *151:35 2.06178e-05
11 *802:B1 *803:C 0.000208368
12 *802:B1 *827:CLK 1.92789e-05
13 *802:B1 *827:D 5.22817e-05
14 *802:B1 *154:12 5.80706e-06
15 *802:B1 *159:10 0
16 *803:A *666:C 0
17 *149:8 *676:B1 0.000110841
18 *149:8 *929:A 0.00017631
19 *149:12 *664:B 2.33407e-05
20 *149:12 *666:C 7.45669e-05
21 *149:12 *803:C 6.47668e-05
22 *149:12 *827:CLK 3.18382e-05
23 *887:A *149:8 0.000132292
*RES
1 *662:Y *149:8 17.5679 
2 *149:8 *149:12 7.5 
3 *149:12 *803:A 9.72857 
4 *149:12 *802:B1 22.3 
5 *149:8 *666:A 14.5321 
*END

*D_NET *150 0.00703591
*CONN
*I *665:A I *D sky130_fd_sc_hd__nor2_1
*I *666:B I *D sky130_fd_sc_hd__or3_1
*I *675:B1 I *D sky130_fd_sc_hd__a21oi_1
*I *663:X O *D sky130_fd_sc_hd__and2_1
*CAP
1 *665:A 0.00178606
2 *666:B 0.000144671
3 *675:B1 0.000286951
4 *663:X 2.43302e-05
5 *150:35 0.00253318
6 *150:6 0.000913725
7 *665:A *651:B 1.09611e-05
8 *665:A *669:B 0
9 *665:A *824:CLK 2.11419e-05
10 *666:B *664:B 2.89114e-05
11 *666:B *929:A 2.04825e-05
12 *666:B *930:A 6.43118e-05
13 *666:B *151:14 1.46617e-05
14 *666:B *151:35 1.90936e-05
15 *675:B1 *663:A 9.38251e-05
16 *675:B1 *663:B 0
17 *675:B1 *805:B1 0.000192427
18 *675:B1 *829:D 0
19 *675:B1 *364:27 7.38973e-05
20 *675:B1 *365:6 1.33343e-05
21 *150:6 *663:A 9.71197e-05
22 *150:6 *663:B 6.05161e-06
23 *150:6 *365:6 4.58976e-05
24 *150:35 *928:A 4.22135e-06
25 *150:35 *930:A 0.000399959
26 *150:35 *365:10 0.000113373
27 acc[11] *675:B1 2.59355e-05
28 acc[6] *150:35 8.0253e-05
29 acc[9] *665:A 0
30 *659:B1 *665:A 2.11419e-05
31 *887:A *666:B 0
32 *889:A *666:B 0
33 *889:A *150:35 0
*RES
1 *663:X *150:6 10.2464 
2 *150:6 *675:B1 24.55 
3 *150:6 *150:35 12.155 
4 *150:35 *666:B 18.2497 
5 *150:35 *665:A 26.7806 
*END

*D_NET *151 0.0043703
*CONN
*I *665:B I *D sky130_fd_sc_hd__nor2_1
*I *676:B2 I *D sky130_fd_sc_hd__o22a_1
*I *666:C I *D sky130_fd_sc_hd__or3_1
*I *664:Y O *D sky130_fd_sc_hd__nor2_1
*CAP
1 *665:B 0.000432286
2 *676:B2 0
3 *666:C 8.95036e-05
4 *664:Y 0.000180378
5 *151:35 0.00056129
6 *151:14 0.000398886
7 *665:B *676:B1 1.02504e-05
8 *665:B *677:B1 6.42056e-05
9 *665:B *804:B 7.69848e-05
10 *665:B *828:D 0.000608964
11 *665:B *929:A 4.80729e-05
12 *666:C *664:B 7.3471e-05
13 *666:C *929:A 2.11419e-05
14 *151:14 *863:A 0.000177147
15 *151:14 *930:A 1.38359e-05
16 *151:14 *329:10 9.60337e-06
17 *151:14 *332:20 0.000211222
18 *151:14 *369:23 2.22043e-05
19 *151:35 *676:B1 0.000189903
20 *151:35 *929:A 0.000164403
21 *659:B1 *665:B 0.000165363
22 *666:A *666:C 1.94945e-05
23 *666:A *151:35 2.06178e-05
24 *666:B *151:14 1.46617e-05
25 *666:B *151:35 1.90936e-05
26 *803:A *666:C 0
27 *826:RESET_B *665:B 0.000569288
28 *887:A *151:14 0.000133464
29 *149:12 *666:C 7.45669e-05
*RES
1 *664:Y *151:14 21.6645 
2 *151:14 *666:C 15.9607 
3 *151:14 *151:35 3.66964 
4 *151:35 *676:B2 13.8 
5 *151:35 *665:B 27.0857 
*END

*D_NET *152 0.00556663
*CONN
*I *806:A I *D sky130_fd_sc_hd__xnor2_1
*I *665:Y O *D sky130_fd_sc_hd__nor2_1
*CAP
1 *806:A 0
2 *665:Y 0.00155299
3 *152:16 0.00155299
4 *152:16 *651:A 0.000198498
5 *152:16 *651:B 1.0562e-05
6 *152:16 *660:A 3.92757e-05
7 *152:16 *806:B 4.19409e-05
8 *152:16 *828:D 0.000591244
9 *152:16 *929:A 0
10 *152:16 *164:12 0.000290264
11 *152:16 *327:10 0.000189656
12 *152:16 *327:16 8.22793e-06
13 *152:16 *332:30 0.000342679
14 *152:16 *360:14 1.09232e-05
15 *152:16 *367:12 1.90936e-05
16 acc[11] *152:16 0.000676685
17 acc[8] *152:16 0
18 *887:A *152:16 0
19 *138:16 *152:16 4.15914e-05
*RES
1 *665:Y *152:16 48.6929 
2 *152:16 *806:A 9.3 
*END

*D_NET *153 0.00136423
*CONN
*I *673:A I *D sky130_fd_sc_hd__nor3_1
*I *677:A1 I *D sky130_fd_sc_hd__o31a_1
*I *676:A1 I *D sky130_fd_sc_hd__o22a_1
*I *666:X O *D sky130_fd_sc_hd__or3_1
*CAP
1 *673:A 0.000124277
2 *677:A1 6.98988e-05
3 *676:A1 0
4 *666:X 0.000101745
5 *153:21 0.000241278
6 *153:10 0.000148848
7 *673:A *677:A3 4.16984e-05
8 *677:A1 *677:A3 7.43578e-06
9 *677:A1 *156:14 1.92905e-05
10 *677:A1 *156:21 1.21289e-05
11 *153:10 *664:B 2.59355e-05
12 *153:10 *677:B1 3.39451e-05
13 *153:10 *929:A 9.42191e-05
14 *153:21 *677:B1 0.000125717
15 *829:RESET_B *677:A1 5.33005e-05
16 *829:RESET_B *153:10 0.000149047
17 *829:RESET_B *153:21 0.000115467
*RES
1 *666:X *153:10 16.2821 
2 *153:10 *676:A1 13.8 
3 *153:10 *153:21 6.14286 
4 *153:21 *677:A1 11.1036 
5 *153:21 *673:A 11.0857 
*END

*D_NET *154 0.00526274
*CONN
*I *802:A1 I *D sky130_fd_sc_hd__a21oi_1
*I *803:B I *D sky130_fd_sc_hd__and3_1
*I *669:A I *D sky130_fd_sc_hd__nand2_1
*I *676:A2 I *D sky130_fd_sc_hd__o22a_1
*I *667:Y O *D sky130_fd_sc_hd__nand2_1
*CAP
1 *802:A1 0
2 *803:B 8.83611e-05
3 *669:A 0.000543228
4 *676:A2 0
5 *667:Y 0.000355003
6 *154:20 0.000772117
7 *154:18 0.000465332
8 *154:12 0.000503084
9 *669:A *677:B1 1.33343e-05
10 *669:A *929:A 6.3801e-05
11 *669:A *156:14 0.000476419
12 *669:A *301:12 0.000353523
13 *669:A *329:10 5.52238e-05
14 *669:A *332:30 0.000167892
15 *669:A *367:12 5.52238e-05
16 *669:A *369:23 0.00011796
17 *669:A *369:32 9.24203e-05
18 *669:A *369:47 3.90513e-05
19 *803:B *664:B 5.52302e-05
20 *803:B *803:C 1.67506e-05
21 *803:B *804:A 9.25014e-06
22 *803:B *827:CLK 7.40571e-05
23 *154:12 *668:A 5.49544e-05
24 *154:12 *801:B 3.25078e-05
25 *154:12 *802:A2 0.000137983
26 *154:12 *803:C 1.18358e-05
27 *154:12 *826:CLK 5.41794e-05
28 *154:12 *827:D 0.000125724
29 *154:12 *159:10 4.56594e-05
30 *154:12 *159:29 4.75715e-05
31 *154:12 *261:10 4.8476e-05
32 *154:18 *800:B 5.52302e-05
33 *154:18 *800:C 7.32272e-05
34 *154:18 *801:B 1.02821e-05
35 *154:18 *804:A 7.02611e-05
36 *154:18 *805:B1 5.33433e-05
37 *154:18 *925:A 0
38 *154:20 *677:B1 9.94194e-05
39 *802:B1 *154:12 5.80706e-06
40 *827:RESET_B *154:12 1.90111e-05
41 *885:A *154:18 0
*RES
1 *667:Y *154:12 24.9607 
2 *154:12 *154:18 3.75 
3 *154:18 *154:20 2.58929 
4 *154:20 *676:A2 9.3 
5 *154:20 *669:A 32.5857 
6 *154:18 *803:B 19.8714 
7 *154:12 *802:A1 9.3 
*END

*D_NET *155 0.00594884
*CONN
*I *669:B I *D sky130_fd_sc_hd__nand2_1
*I *668:X O *D sky130_fd_sc_hd__or2_1
*CAP
1 *669:B 0.00180158
2 *668:X 0.00180158
3 *669:B *651:B 0.00106778
4 *669:B *815:A 0.000395697
5 *669:B *817:A 1.24368e-05
6 *669:B *928:A 1.78394e-05
7 *669:B *303:73 1.91894e-05
8 *669:B *366:10 3.69047e-06
9 *669:B *369:66 4.38243e-05
10 acc[4] *669:B 0.000135028
11 acc[9] *669:B 0.000342131
12 *665:A *669:B 0
13 *827:RESET_B *669:B 4.11173e-05
14 *886:A *669:B 0.000266949
*RES
1 *668:X *669:B 48.6614 
*END

*D_NET *156 0.00419151
*CONN
*I *799:B1 I *D sky130_fd_sc_hd__a21o_1
*I *800:A I *D sky130_fd_sc_hd__nand3_1
*I *673:B I *D sky130_fd_sc_hd__nor3_1
*I *677:A2 I *D sky130_fd_sc_hd__o31a_1
*I *669:Y O *D sky130_fd_sc_hd__nand2_1
*CAP
1 *799:B1 0.000136976
2 *800:A 8.10212e-05
3 *673:B 0
4 *677:A2 0
5 *669:Y 0.000377383
6 *156:32 0.000320002
7 *156:21 0.000235155
8 *156:14 0.000510533
9 *799:B1 *802:A2 5.62995e-05
10 *799:B1 *804:A 0.000151333
11 *799:B1 *261:10 3.14193e-05
12 *799:B1 *303:99 0.000143797
13 *800:A *804:A 0.000242906
14 *800:A *827:CLK 0.000128146
15 *800:A *303:99 0.00012401
16 *156:14 *817:A 4.58194e-05
17 *156:14 *332:30 0.00047702
18 *156:21 *677:A3 0.000224583
19 *156:32 *677:A3 4.37639e-05
20 *669:A *156:14 0.000476419
21 *677:A1 *156:14 1.92905e-05
22 *677:A1 *156:21 1.21289e-05
23 *827:RESET_B *799:B1 0.000312209
24 *829:RESET_B *156:14 4.13001e-05
*RES
1 *669:Y *156:14 27.6214 
2 *156:14 *677:A2 9.3 
3 *156:14 *156:21 2.58929 
4 *156:21 *673:B 9.3 
5 *156:21 *156:32 5.875 
6 *156:32 *800:A 16.9607 
7 *156:32 *799:B1 18.7464 
*END

*D_NET *157 0.00628606
*CONN
*I *672:A I *D sky130_fd_sc_hd__nand2_1
*I *799:A1 I *D sky130_fd_sc_hd__a21o_1
*I *677:A3 I *D sky130_fd_sc_hd__o31a_1
*I *800:B I *D sky130_fd_sc_hd__nand3_1
*I *670:Y O *D sky130_fd_sc_hd__nand2_1
*CAP
1 *672:A 0.00038617
2 *799:A1 0
3 *677:A3 0.000176789
4 *800:B 0.000124056
5 *670:Y 0.000149977
6 *157:20 0.000598835
7 *157:14 0.000663979
8 *157:12 0.000902136
9 *672:A *668:A 1.3142e-05
10 *672:A *670:A 4.56437e-05
11 *672:A *672:B 7.2252e-05
12 *672:A *927:A 0.00019554
13 *672:A *159:10 6.62868e-05
14 *672:A *325:10 0.00033763
15 *672:A *363:8 4.87854e-05
16 *677:A3 *673:C 0.000130856
17 *800:B *801:B 6.05161e-06
18 *800:B *803:C 0.000168939
19 *800:B *804:A 0.000216297
20 *800:B *261:10 4.49293e-05
21 *157:12 *670:A 3.28967e-05
22 *157:12 *670:B 0.000162272
23 *157:14 *670:B 5.52238e-05
24 *157:14 *362:27 1.5424e-05
25 *157:20 *804:A 0.000213635
26 *157:20 *159:29 0
27 *157:20 *261:10 0.000103267
28 *673:A *677:A3 4.16984e-05
29 *677:A1 *677:A3 7.43578e-06
30 *826:RESET_B *677:A3 3.97677e-05
31 *827:RESET_B *672:A 0.000203832
32 *827:RESET_B *157:14 0.000423571
33 *827:RESET_B *157:20 0.000315165
34 *154:18 *800:B 5.52302e-05
35 *156:21 *677:A3 0.000224583
36 *156:32 *677:A3 4.37639e-05
*RES
1 *670:Y *157:12 20.6929 
2 *157:12 *157:14 5.05357 
3 *157:14 *157:20 10.3571 
4 *157:20 *800:B 17.1929 
5 *157:20 *677:A3 18.175 
6 *157:14 *799:A1 9.3 
7 *157:12 *672:A 28.9161 
*END

*D_NET *158 0.00124951
*CONN
*I *672:B I *D sky130_fd_sc_hd__nand2_1
*I *671:X O *D sky130_fd_sc_hd__or2_1
*CAP
1 *672:B 0.000176051
2 *671:X 0.000176051
3 *672:B *667:B 0.000286594
4 *672:B *668:A 0.000295123
5 *672:B *926:A 7.95959e-05
6 *672:B *927:A 0
7 *672:B *363:21 0.00016384
8 *672:A *672:B 7.2252e-05
*RES
1 *671:X *672:B 34.4036 
*END

*D_NET *159 0.00497777
*CONN
*I *797:B I *D sky130_fd_sc_hd__nand2_1
*I *796:B I *D sky130_fd_sc_hd__or2_1
*I *673:C I *D sky130_fd_sc_hd__nor3_1
*I *672:Y O *D sky130_fd_sc_hd__nand2_1
*CAP
1 *797:B 0.000302423
2 *796:B 1.99167e-05
3 *673:C 0.000238269
4 *672:Y 0.000829073
5 *159:29 0.000524628
6 *159:10 0.00126963
7 *673:C *826:CLK 9.60939e-05
8 *796:B *924:A 5.33433e-05
9 *797:B *674:A1 5.32956e-05
10 *797:B *798:B 6.06132e-05
11 *797:B *324:35 0.000100474
12 *797:B *326:14 0
13 *159:10 *664:B 2.92473e-05
14 *159:10 *802:A2 0.000222885
15 *159:10 *805:B1 9.94569e-05
16 *159:10 *827:D 0.000306294
17 *159:10 *928:A 0
18 *159:10 *930:A 0
19 *159:29 *799:A2 2.62984e-05
20 *159:29 *800:C 6.057e-07
21 *159:29 *802:A2 0.000125717
22 *159:29 *804:A 0
23 *159:29 *326:14 0
24 *672:A *159:10 6.62868e-05
25 *677:A3 *673:C 0.000130856
26 *796:A *796:B 9.90431e-05
27 *797:A *797:B 1.33442e-05
28 *797:A *159:29 1.59312e-05
29 *802:B1 *159:10 0
30 *826:RESET_B *673:C 0.000188628
31 *881:A *159:29 2.30116e-06
32 *886:A *797:B 9.87983e-06
33 *154:12 *159:10 4.56594e-05
34 *154:12 *159:29 4.75715e-05
35 *157:20 *159:29 0
*RES
1 *672:Y *159:10 27.1036 
2 *159:10 *673:C 18.7286 
3 *159:10 *159:29 4.07143 
4 *159:29 *796:B 14.7464 
5 *159:29 *797:B 19.1036 
*END

*D_NET *160 0.00115652
*CONN
*I *674:C1 I *D sky130_fd_sc_hd__o221ai_4
*I *673:Y O *D sky130_fd_sc_hd__nor3_1
*CAP
1 *674:C1 0.000222942
2 *673:Y 0.000222942
3 *674:C1 *804:B 0.000317594
4 *674:C1 *360:30 6.05161e-06
5 *826:RESET_B *674:C1 0.000317594
6 *138:16 *674:C1 6.94012e-05
*RES
1 *673:Y *674:C1 33.85 
*END

*D_NET *161 0.00190689
*CONN
*I *788:B I *D sky130_fd_sc_hd__nand3_1
*I *679:A1 I *D sky130_fd_sc_hd__a211oi_1
*I *678:A1 I *D sky130_fd_sc_hd__a21o_1
*I *674:Y O *D sky130_fd_sc_hd__o221ai_4
*CAP
1 *788:B 1.80902e-05
2 *679:A1 0.000323325
3 *678:A1 4.18948e-05
4 *674:Y 0.000267042
5 *161:10 0.000437405
6 *161:8 0.000357317
7 *679:A1 *815:A 0.000113244
8 *679:A1 *366:10 4.15183e-05
9 *679:A1 *368:73 0
10 *788:B *164:21 5.7661e-06
11 *161:8 *164:12 0.000135028
12 *161:8 *164:21 2.42516e-05
13 *161:10 *164:21 1.21258e-05
14 *679:B1 *679:A1 1.28585e-05
15 *788:A *678:A1 5.33005e-05
16 *788:A *788:B 1.04232e-05
17 *788:A *161:10 5.33005e-05
18 *136:23 *788:B 0
*RES
1 *674:Y *161:8 12.925 
2 *161:8 *161:10 0.946429 
3 *161:10 *678:A1 9.83571 
4 *161:10 *679:A1 26.5286 
5 *161:8 *788:B 9.72857 
*END

*D_NET *162 0.00247971
*CONN
*I *676:B1 I *D sky130_fd_sc_hd__o22a_1
*I *675:Y O *D sky130_fd_sc_hd__a21oi_1
*CAP
1 *676:B1 0.0007832
2 *675:Y 0.0007832
3 *676:B1 *804:B 0.000143834
4 *676:B1 *805:B1 0
5 *676:B1 *827:CLK 1.97963e-05
6 *676:B1 *829:D 3.58233e-05
7 acc[11] *676:B1 0.000317756
8 *665:B *676:B1 1.02504e-05
9 *666:A *676:B1 5.59013e-05
10 *887:A *676:B1 2.92068e-05
11 *149:8 *676:B1 0.000110841
12 *151:35 *676:B1 0.000189903
*RES
1 *675:Y *676:B1 40.1179 
*END

*D_NET *163 0.000863286
*CONN
*I *677:B1 I *D sky130_fd_sc_hd__o31a_1
*I *676:X O *D sky130_fd_sc_hd__o22a_1
*CAP
1 *677:B1 0.000207216
2 *676:X 0.000207216
3 *677:B1 *828:D 1.59782e-05
4 *677:B1 *929:A 9.6255e-05
5 *665:B *677:B1 6.42056e-05
6 *669:A *677:B1 1.33343e-05
7 *153:10 *677:B1 3.39451e-05
8 *153:21 *677:B1 0.000125717
9 *154:20 *677:B1 9.94194e-05
*RES
1 *676:X *677:B1 32.3321 
*END

*D_NET *164 0.00194163
*CONN
*I *678:A2 I *D sky130_fd_sc_hd__a21o_1
*I *679:A2 I *D sky130_fd_sc_hd__a211oi_1
*I *788:C I *D sky130_fd_sc_hd__nand3_1
*I *677:X O *D sky130_fd_sc_hd__o31a_1
*CAP
1 *678:A2 8.73261e-06
2 *679:A2 9.40229e-05
3 *788:C 0
4 *677:X 0.00016989
5 *164:21 0.000232817
6 *164:12 0.000299951
7 *679:A2 *789:B 0.000113073
8 *679:A2 *165:10 5.71472e-05
9 *164:12 *332:30 0.000290264
10 *164:21 *789:B 2.89016e-05
11 *678:B1 *678:A2 3.08382e-06
12 *678:B1 *679:A2 3.08382e-06
13 *679:C1 *679:A2 3.30237e-05
14 *788:A *678:A2 1.00733e-05
15 *788:A *679:A2 6.86693e-05
16 *788:A *164:21 2.95888e-05
17 *788:B *164:21 5.7661e-06
18 *136:23 *679:A2 3.18676e-05
19 *152:16 *164:12 0.000290264
20 *161:8 *164:12 0.000135028
21 *161:8 *164:21 2.42516e-05
22 *161:10 *164:21 1.21258e-05
*RES
1 *677:X *164:12 23.425 
2 *164:12 *788:C 9.3 
3 *164:12 *164:21 2.5 
4 *164:21 *679:A2 12.3179 
5 *164:21 *678:A2 9.72857 
*END

*D_NET *165 0.00110173
*CONN
*I *789:A I *D sky130_fd_sc_hd__and2_1
*I *790:B I *D sky130_fd_sc_hd__nand2_1
*I *678:X O *D sky130_fd_sc_hd__a21o_1
*CAP
1 *789:A 0
2 *790:B 0.000193307
3 *678:X 0.000145799
4 *165:10 0.000339107
5 *790:B *597:A 0
6 *790:B *684:B 4.6025e-06
7 *165:10 *597:A 0
8 *165:10 *789:B 0.000327601
9 *165:10 *303:73 0
10 *679:A2 *165:10 5.71472e-05
11 *679:B1 *790:B 0
12 *679:B1 *165:10 4.1331e-06
13 *679:C1 *165:10 2.24763e-05
14 *680:A1 *790:B 2.95076e-06
15 *790:A *790:B 4.6025e-06
*RES
1 *678:X *165:10 17.5321 
2 *165:10 *790:B 16.9964 
3 *165:10 *789:A 13.8 
*END

*D_NET *166 0.00325776
*CONN
*I *681:A I *D sky130_fd_sc_hd__or2_1
*I *697:A1 I *D sky130_fd_sc_hd__o211a_1
*I *679:Y O *D sky130_fd_sc_hd__a211oi_1
*CAP
1 *681:A 0
2 *697:A1 0.000236132
3 *679:Y 0.000799126
4 *166:18 0.00103526
5 *697:A1 *697:A2 0.000138605
6 *697:A1 *781:B 5.30637e-06
7 *697:A1 *782:A1 0.000188048
8 *697:A1 *834:D 3.88131e-05
9 *697:A1 *838:CLK 0.000188388
10 *697:A1 *168:6 9.58181e-05
11 *697:A1 *184:12 1.17968e-05
12 *697:A1 *302:82 9.41642e-05
13 *166:18 *638:A 5.52302e-05
14 *166:18 *681:B 4.87854e-05
15 *166:18 *789:B 4.1331e-06
16 *166:18 *830:CLK 3.65178e-05
17 *166:18 *830:D 2.89016e-05
18 *166:18 *834:D 1.24368e-05
19 *166:18 *303:73 1.86687e-05
20 *125:10 *697:A1 0
21 *125:10 *166:18 0.000221634
*RES
1 *679:Y *166:18 30.1929 
2 *166:18 *697:A1 24.2821 
3 *166:18 *681:A 9.3 
*END

*D_NET *167 0.00281512
*CONN
*I *681:B I *D sky130_fd_sc_hd__or2_1
*I *697:A2 I *D sky130_fd_sc_hd__o211a_1
*I *680:Y O *D sky130_fd_sc_hd__o211ai_1
*CAP
1 *681:B 0.000180524
2 *697:A2 0.000336613
3 *680:Y 0.000287698
4 *167:10 0.000804836
5 *681:B *638:A 6.98302e-05
6 *681:B *639:A 0.000192994
7 *697:A2 *697:B1 3.50166e-05
8 *697:A2 *781:B 1.20417e-05
9 *697:A2 *302:82 2.36643e-05
10 *697:A2 *336:14 6.85106e-05
11 *167:10 *639:A 7.83659e-05
12 *167:10 *855:A 0.00014285
13 *167:10 *171:22 0.000111818
14 *697:A1 *697:A2 0.000138605
15 *877:A *681:B 0.000228622
16 *125:10 *681:B 1.27529e-05
17 *125:10 *167:10 4.15914e-05
18 *166:18 *681:B 4.87854e-05
*RES
1 *680:Y *167:10 18.2464 
2 *167:10 *697:A2 19.7107 
3 *167:10 *681:B 18.5143 
*END

*D_NET *168 0.00210365
*CONN
*I *781:A I *D sky130_fd_sc_hd__xor2_1
*I *782:A1 I *D sky130_fd_sc_hd__a21bo_1
*I *681:X O *D sky130_fd_sc_hd__or2_1
*CAP
1 *781:A 7.3946e-05
2 *782:A1 0.00038963
3 *681:X 4.90728e-05
4 *168:6 0.000512649
5 *781:A *781:B 1.91004e-05
6 *781:A *336:14 2.05612e-05
7 *782:A1 *782:A2 9.83388e-05
8 *782:A1 *171:22 0.00026573
9 *782:A1 *184:12 0.000125724
10 *782:A1 *302:82 0.000170307
11 *168:6 *834:D 5.49544e-05
12 *168:6 *336:14 3.97677e-05
13 *697:A1 *782:A1 0.000188048
14 *697:A1 *168:6 9.58181e-05
*RES
1 *681:X *168:6 10.6571 
2 *168:6 *782:A1 26.925 
3 *168:6 *781:A 10.675 
*END

*D_NET *169 0.00578138
*CONN
*I *684:A I *D sky130_fd_sc_hd__nand2_1
*I *698:B2 I *D sky130_fd_sc_hd__o221ai_1
*I *784:B1_N I *D sky130_fd_sc_hd__a21bo_1
*I *682:Y O *D sky130_fd_sc_hd__nand2_1
*CAP
1 *684:A 0.00108433
2 *698:B2 0.000293416
3 *784:B1_N 9.0998e-05
4 *682:Y 0
5 *169:21 0.00203158
6 *169:4 0.00074483
7 *684:A *688:A 1.80015e-05
8 *684:A *818:A 0
9 *684:A *855:A 5.62934e-05
10 *684:A *171:22 0.000145773
11 *684:A *180:10 0
12 *684:A *302:82 6.05161e-06
13 *698:B2 *688:A 7.84703e-05
14 *698:B2 *698:A1 5.49544e-05
15 *698:B2 *698:B1 4.1896e-06
16 *698:B2 *832:D 8.49858e-05
17 *698:B2 *180:10 6.05161e-06
18 *698:B2 *372:27 5.49489e-05
19 *784:B1_N *683:A 0.00014285
20 *169:21 *688:B 0.000288638
21 *169:21 *253:8 0
22 *169:21 *339:22 0
23 *169:21 *339:26 0
24 *169:21 *368:132 1.90936e-05
25 *680:C1 *684:A 0.0002772
26 *894:A *169:21 0.000298721
27 *41:21 *684:A 0
28 *41:21 *698:B2 0
*RES
1 *682:Y *169:4 9.3 
2 *169:4 *784:B1_N 10.6571 
3 *169:4 *169:21 13.0131 
4 *169:21 *698:B2 18.9518 
5 *169:21 *684:A 28.7554 
*END

*D_NET *170 0.00577761
*CONN
*I *684:B I *D sky130_fd_sc_hd__nand2_1
*I *784:A1 I *D sky130_fd_sc_hd__a21bo_1
*I *683:X O *D sky130_fd_sc_hd__or2_1
*CAP
1 *684:B 0.00161031
2 *784:A1 6.70334e-05
3 *683:X 6.57755e-05
4 *170:6 0.00174312
5 *684:B *784:A2 0.000437567
6 *684:B *792:A2 0.000442353
7 *684:B *835:D 0.0001399
8 *684:B *855:A 5.52302e-05
9 *684:B *256:12 0.000192286
10 *684:B *350:12 0.000456245
11 *784:A1 *683:A 0.00010096
12 *784:A1 *784:A2 5.71472e-05
13 *170:6 *683:A 2.65105e-05
14 *644:B *684:B 1.52978e-05
15 *644:C *684:B 7.32955e-05
16 *790:A *684:B 0
17 *790:B *684:B 4.6025e-06
18 *834:RESET_B *684:B 5.71472e-05
19 *131:10 *684:B 4.91188e-05
20 *134:18 *684:B 0.00018372
*RES
1 *683:X *170:6 10.2464 
2 *170:6 *784:A1 11.2821 
3 *170:6 *684:B 45.8714 
*END

*D_NET *171 0.0053262
*CONN
*I *783:A I *D sky130_fd_sc_hd__xnor2_1
*I *693:A I *D sky130_fd_sc_hd__nor2_1
*I *684:Y O *D sky130_fd_sc_hd__nand2_1
*CAP
1 *783:A 2.99504e-05
2 *693:A 0.000129943
3 *684:Y 0.000790768
4 *171:22 0.000950661
5 *693:A *686:B 0.000135931
6 *693:A *787:A 6.05161e-06
7 *693:A *904:A 5.33005e-05
8 *693:A *173:10 0.000168735
9 *693:A *338:19 2.95642e-05
10 *783:A *784:A2 9.41642e-05
11 *783:A *350:12 9.41642e-05
12 *171:22 *597:A 5.59013e-05
13 *171:22 *686:A 5.52302e-05
14 *171:22 *686:B 0.000188967
15 *171:22 *782:A2 9.99853e-05
16 *171:22 *782:B1_N 1.39726e-05
17 *171:22 *839:CLK 1.02504e-05
18 *171:22 *855:A 0.000536799
19 *171:22 *173:10 0.000135502
20 *171:22 *302:6 0.000377679
21 *171:22 *302:10 0.000219711
22 *171:22 *302:82 5.8639e-05
23 *171:22 *368:132 2.23987e-05
24 *680:A1 *171:22 2.04825e-05
25 *680:C1 *171:22 0.000524127
26 *684:A *171:22 0.000145773
27 *782:A1 *171:22 0.00026573
28 *167:10 *171:22 0.000111818
*RES
1 *684:Y *171:22 44.55 
2 *171:22 *693:A 16.9964 
3 *171:22 *783:A 14.7464 
*END

*D_NET *172 0.0023206
*CONN
*I *786:A1 I *D sky130_fd_sc_hd__a21bo_1
*I *687:A I *D sky130_fd_sc_hd__nand2_1
*I *685:X O *D sky130_fd_sc_hd__or2_1
*CAP
1 *786:A1 0.000253502
2 *687:A 0.000323489
3 *685:X 0
4 *172:4 0.000576991
5 *687:A *685:B 0
6 *687:A *691:A 0.000238127
7 *687:A *178:14 6.29452e-05
8 *786:A1 *685:A 0.000161921
9 *786:A1 *785:A 0.000249819
10 *786:A1 *174:20 5.03772e-05
11 *786:A1 *302:34 0.000195205
12 *786:A1 *332:12 7.43578e-06
13 *786:A1 *368:18 0.000137427
14 *891:A *687:A 3.99614e-06
15 *896:A *786:A1 5.93671e-05
*RES
1 *685:X *172:4 9.3 
2 *172:4 *687:A 15.1036 
3 *172:4 *786:A1 26.1929 
*END

*D_NET *173 0.00548074
*CONN
*I *687:B I *D sky130_fd_sc_hd__nand2_1
*I *698:A1 I *D sky130_fd_sc_hd__o221ai_1
*I *786:B1_N I *D sky130_fd_sc_hd__a21bo_1
*I *686:Y O *D sky130_fd_sc_hd__nand2_1
*CAP
1 *687:B 0.000914401
2 *698:A1 4.468e-05
3 *786:B1_N 5.19858e-05
4 *686:Y 0.000255516
5 *173:27 0.00124003
6 *173:10 0.000588454
7 *687:B *691:B 4.65279e-05
8 *687:B *174:20 0.000125304
9 *687:B *332:20 3.82435e-05
10 *698:A1 *832:D 7.44423e-05
11 *698:A1 *180:10 9.21418e-06
12 *698:A1 *340:50 1.66706e-05
13 *786:B1_N *787:A 0.000110272
14 *786:B1_N *368:18 8.97491e-05
15 *173:10 *787:A 4.33002e-05
16 *173:10 *302:10 0.000135028
17 *173:10 *338:19 2.0587e-05
18 *173:10 *368:18 5.98125e-05
19 *173:10 *368:132 0.000330351
20 *173:27 *332:20 0.000253011
21 *693:A *173:10 0.000168735
22 *698:B2 *698:A1 5.49544e-05
23 *794:B1_N *687:B 0
24 *893:A *687:B 9.09539e-05
25 *894:A *687:B 0.000256773
26 *894:A *173:27 0.000326244
27 *171:22 *173:10 0.000135502
*RES
1 *686:Y *173:10 20.2911 
2 *173:10 *786:B1_N 15.2911 
3 *173:10 *173:27 4.45027 
4 *173:27 *698:A1 18.3261 
5 *173:27 *687:B 28.4301 
*END

*D_NET *174 0.00362041
*CONN
*I *692:A I *D sky130_fd_sc_hd__or2_1
*I *785:A I *D sky130_fd_sc_hd__xnor2_1
*I *687:Y O *D sky130_fd_sc_hd__nand2_1
*CAP
1 *692:A 1.11927e-05
2 *785:A 0.000618857
3 *687:Y 0.000573736
4 *174:20 0.00120379
5 *785:A *785:B 4.94418e-05
6 *785:A *786:A2 0.000170964
7 *785:A *332:12 6.12661e-05
8 *174:20 *691:B 0.000156921
9 *174:20 *832:D 9.33298e-05
10 *174:20 *340:33 5.33005e-05
11 *174:20 *340:50 8.42609e-05
12 *174:20 *368:18 1.65308e-05
13 *687:B *174:20 0.000125304
14 *786:A1 *785:A 0.000249819
15 *786:A1 *174:20 5.03772e-05
16 *837:RESET_B *174:20 0.00010132
17 *892:A *785:A 0
*RES
1 *687:Y *174:20 36.8893 
2 *174:20 *785:A 28.5679 
3 *174:20 *692:A 9.72857 
*END

*D_NET *175 0.00266953
*CONN
*I *691:A I *D sky130_fd_sc_hd__nand2_1
*I *698:C1 I *D sky130_fd_sc_hd__o221ai_1
*I *688:Y O *D sky130_fd_sc_hd__nand2_1
*CAP
1 *691:A 0.000307188
2 *698:C1 7.26963e-05
3 *688:Y 9.30168e-05
4 *175:8 0.000472901
5 *691:A *832:D 8.50869e-05
6 *691:A *905:A 0.00024661
7 *691:A *178:14 9.59253e-05
8 *691:A *180:10 5.46971e-05
9 *691:A *302:34 9.26784e-05
10 *691:A *340:33 9.15804e-05
11 *698:C1 *698:B1 8.72504e-05
12 *698:C1 *699:B1 5.53954e-06
13 *175:8 *688:B 0.000107585
14 *175:8 *180:10 0.000212921
15 *175:8 *302:30 2.49484e-05
16 *175:8 *302:34 2.22494e-05
17 *687:A *691:A 0.000238127
18 *896:A *691:A 0.000358531
*RES
1 *688:Y *175:8 16.6571 
2 *175:8 *698:C1 15.2107 
3 *175:8 *691:A 23.8179 
*END

*D_NET *176 0.000202529
*CONN
*I *698:A2 I *D sky130_fd_sc_hd__o221ai_1
*I *689:Y O *D sky130_fd_sc_hd__nor2_1
*CAP
1 *698:A2 7.5801e-05
2 *689:Y 7.5801e-05
3 *698:A2 *832:D 5.09271e-05
*RES
1 *689:Y *698:A2 19.5464 
*END

*D_NET *177 0.000988655
*CONN
*I *691:B I *D sky130_fd_sc_hd__nand2_1
*I *690:X O *D sky130_fd_sc_hd__or2_1
*CAP
1 *691:B 0.000342997
2 *690:X 0.000342997
3 *691:B *905:A 0
4 *691:B *340:50 5.49489e-05
5 *687:B *691:B 4.65279e-05
6 *832:RESET_B *691:B 4.42631e-05
7 *174:20 *691:B 0.000156921
*RES
1 *690:X *691:B 33.8321 
*END

*D_NET *178 0.0028791
*CONN
*I *787:A I *D sky130_fd_sc_hd__xnor2_1
*I *692:B I *D sky130_fd_sc_hd__or2_1
*I *691:Y O *D sky130_fd_sc_hd__nand2_1
*CAP
1 *787:A 0.000323618
2 *692:B 0
3 *691:Y 0.00054853
4 *178:14 0.000872148
5 *787:A *837:D 0
6 *787:A *904:A 0.000131792
7 *787:A *338:19 0.000191412
8 *178:14 *685:A 4.13477e-05
9 *178:14 *837:D 0
10 *178:14 *905:A 5.65955e-05
11 *178:14 *338:19 0.000291928
12 acc[15] *178:14 9.87672e-05
13 *687:A *178:14 6.29452e-05
14 *691:A *178:14 9.59253e-05
15 *693:A *787:A 6.05161e-06
16 *786:B1_N *787:A 0.000110272
17 *836:RESET_B *178:14 4.46186e-06
18 *896:A *178:14 0
19 *173:10 *787:A 4.33002e-05
*RES
1 *691:Y *178:14 24.4964 
2 *178:14 *692:B 13.8 
3 *178:14 *787:A 20.4964 
*END

*D_NET *179 0.000784154
*CONN
*I *693:B I *D sky130_fd_sc_hd__nor2_1
*I *698:B1 I *D sky130_fd_sc_hd__o221ai_1
*I *692:X O *D sky130_fd_sc_hd__or2_1
*CAP
1 *693:B 0
2 *698:B1 7.92377e-05
3 *692:X 8.20691e-05
4 *179:10 0.000161307
5 *698:B1 *699:B1 1.21258e-05
6 *698:B1 *180:10 0.000137983
7 *179:10 *685:A 7.45698e-05
8 *179:10 *302:34 0.000145421
9 *698:B2 *698:B1 4.1896e-06
10 *698:C1 *698:B1 8.72504e-05
*RES
1 *692:X *179:10 20.2464 
2 *179:10 *698:B1 11.5143 
3 *179:10 *693:B 9.3 
*END

*D_NET *180 0.00273007
*CONN
*I *699:A3 I *D sky130_fd_sc_hd__a31o_1
*I *697:B1 I *D sky130_fd_sc_hd__o211a_1
*I *693:Y O *D sky130_fd_sc_hd__nor2_1
*CAP
1 *699:A3 0.000226929
2 *697:B1 0.000225526
3 *693:Y 0.000505213
4 *180:10 0.000957668
5 *697:B1 *696:B 1.24368e-05
6 *697:B1 *781:B 8.07137e-06
7 *697:B1 *183:6 4.76637e-06
8 *699:A3 *699:A1 0.000162728
9 *699:A3 *699:B1 0
10 *699:A3 *782:A2 2.93304e-05
11 *699:A3 *183:10 3.54261e-05
12 *180:10 *688:A 0
13 *180:10 *699:B1 0
14 *180:10 *782:A2 3.9745e-05
15 *180:10 *832:D 3.10885e-05
16 *180:10 *302:30 3.52562e-05
17 *180:10 *302:82 0
18 *684:A *180:10 0
19 *691:A *180:10 5.46971e-05
20 *697:A2 *697:B1 3.50166e-05
21 *698:A1 *180:10 9.21418e-06
22 *698:B1 *180:10 0.000137983
23 *698:B2 *180:10 6.05161e-06
24 *175:8 *180:10 0.000212921
*RES
1 *693:Y *180:10 22.675 
2 *180:10 *697:B1 16.7107 
3 *180:10 *699:A3 18.0321 
*END

*D_NET *181 0.000957199
*CONN
*I *696:A I *D sky130_fd_sc_hd__and2_1
*I *782:B1_N I *D sky130_fd_sc_hd__a21bo_1
*I *694:Y O *D sky130_fd_sc_hd__nand2_1
*CAP
1 *696:A 9.58667e-05
2 *782:B1_N 9.81033e-05
3 *694:Y 0.000132773
4 *181:6 0.000326743
5 *696:A *696:B 9.90431e-05
6 *696:A *336:30 1.3701e-05
7 *782:B1_N *686:A 7.43578e-06
8 *782:B1_N *699:B1 7.6644e-05
9 *782:B1_N *839:CLK 0
10 *181:6 *694:A 1.32552e-05
11 *181:6 *336:24 2.44318e-05
12 *181:6 *336:30 5.52302e-05
13 *171:22 *782:B1_N 1.39726e-05
*RES
1 *694:Y *181:6 11.0679 
2 *181:6 *782:B1_N 19.8714 
3 *181:6 *696:A 11.3893 
*END

*D_NET *182 0.000352669
*CONN
*I *696:B I *D sky130_fd_sc_hd__and2_1
*I *695:X O *D sky130_fd_sc_hd__or2_1
*CAP
1 *696:B 0.000120595
2 *695:X 0.000120595
3 *696:A *696:B 9.90431e-05
4 *697:B1 *696:B 1.24368e-05
*RES
1 *695:X *696:B 20.7964 
*END

*D_NET *183 0.00146051
*CONN
*I *781:B I *D sky130_fd_sc_hd__xor2_1
*I *697:C1 I *D sky130_fd_sc_hd__o211a_1
*I *782:A2 I *D sky130_fd_sc_hd__a21bo_1
*I *696:X O *D sky130_fd_sc_hd__and2_1
*CAP
1 *781:B 0.00024704
2 *697:C1 0
3 *782:A2 0.000147099
4 *696:X 4.85709e-05
5 *183:10 0.000191636
6 *183:6 0.000340148
7 *781:B *699:A2 0
8 *781:B *184:12 0.000100831
9 *781:B *186:10 4.85049e-06
10 *781:B *336:14 2.82217e-05
11 *183:10 *302:82 0
12 *697:A1 *781:B 5.30637e-06
13 *697:A2 *781:B 1.20417e-05
14 *697:B1 *781:B 8.07137e-06
15 *697:B1 *183:6 4.76637e-06
16 *699:A3 *782:A2 2.93304e-05
17 *699:A3 *183:10 3.54261e-05
18 *781:A *781:B 1.91004e-05
19 *782:A1 *782:A2 9.83388e-05
20 *171:22 *782:A2 9.99853e-05
21 *180:10 *782:A2 3.9745e-05
*RES
1 *696:X *183:6 9.83571 
2 *183:6 *183:10 5.53571 
3 *183:10 *782:A2 16.9964 
4 *183:10 *697:C1 13.8 
5 *183:6 *781:B 22.3714 
*END

*D_NET *184 0.00122588
*CONN
*I *711:A1 I *D sky130_fd_sc_hd__o211ai_1
*I *700:A I *D sky130_fd_sc_hd__or2_1
*I *697:X O *D sky130_fd_sc_hd__o211a_1
*CAP
1 *711:A1 5.5971e-05
2 *700:A 0
3 *697:X 0.000223086
4 *184:12 0.000279057
5 *711:A1 *772:B 0.000141555
6 *711:A1 *247:6 7.27282e-05
7 *184:12 *711:A2 5.37741e-06
8 *184:12 *838:CLK 0.000117563
9 *184:12 *186:10 4.63699e-05
10 *184:12 *302:82 4.58194e-05
11 *697:A1 *184:12 1.17968e-05
12 *781:B *184:12 0.000100831
13 *782:A1 *184:12 0.000125724
*RES
1 *697:X *184:12 23.0143 
2 *184:12 *700:A 9.3 
3 *184:12 *711:A1 11.0857 
*END

*D_NET *185 0.00186589
*CONN
*I *699:B1 I *D sky130_fd_sc_hd__a31o_1
*I *698:Y O *D sky130_fd_sc_hd__o221ai_1
*CAP
1 *699:B1 0.00057112
2 *698:Y 0.00057112
3 *699:B1 *685:A 3.52028e-05
4 *699:B1 *686:A 6.3343e-05
5 *699:B1 *694:A 8.22793e-06
6 *699:B1 *695:A 2.28378e-05
7 *699:B1 *699:A1 0
8 *699:B1 *774:A2 1.02504e-05
9 *699:B1 *839:CLK 0
10 *699:B1 *248:10 0
11 *699:B1 *252:12 0.00012401
12 *699:B1 *302:30 0.00018459
13 *699:B1 *302:34 9.60808e-05
14 *699:B1 *336:24 8.48016e-05
15 *698:B1 *699:B1 1.21258e-05
16 *698:C1 *699:B1 5.53954e-06
17 *699:A3 *699:B1 0
18 *782:B1_N *699:B1 7.6644e-05
19 *180:10 *699:B1 0
*RES
1 *698:Y *699:B1 38.725 
*END

*D_NET *186 0.000736719
*CONN
*I *711:A2 I *D sky130_fd_sc_hd__o211ai_1
*I *700:B I *D sky130_fd_sc_hd__or2_1
*I *699:X O *D sky130_fd_sc_hd__a31o_1
*CAP
1 *711:A2 7.52405e-05
2 *700:B 0
3 *699:X 0.000153609
4 *186:10 0.000228849
5 *711:A2 *772:B 9.83388e-05
6 *711:A2 *838:CLK 1.81469e-05
7 *711:A2 *198:16 9.83388e-05
8 *186:10 *336:14 7.59753e-06
9 *781:B *186:10 4.85049e-06
10 *184:12 *711:A2 5.37741e-06
11 *184:12 *186:10 4.63699e-05
*RES
1 *699:X *186:10 16.0857 
2 *186:10 *700:B 13.8 
3 *186:10 *711:A2 15.7821 
*END

*D_NET *187 0.00162865
*CONN
*I *772:A I *D sky130_fd_sc_hd__nand2_1
*I *773:A I *D sky130_fd_sc_hd__xor2_1
*I *700:X O *D sky130_fd_sc_hd__or2_1
*CAP
1 *772:A 1.23952e-05
2 *773:A 0.000531228
3 *700:X 0
4 *187:4 0.000543623
5 *772:A *772:B 5.49544e-05
6 *772:A *247:6 2.976e-05
7 *773:A *838:CLK 0.000206199
8 *773:A *838:D 0.000185541
9 *773:A *197:6 1.58163e-05
10 *773:A *198:16 3.57844e-05
11 *773:A *341:6 1.33472e-05
*RES
1 *700:X *187:4 9.3 
2 *187:4 *773:A 26.7286 
3 *187:4 *772:A 9.83571 
*END

*D_NET *188 0.0012821
*CONN
*I *775:A I *D sky130_fd_sc_hd__and3_1
*I *774:B1 I *D sky130_fd_sc_hd__a21oi_1
*I *707:A_N I *D sky130_fd_sc_hd__and2b_1
*I *701:Y O *D sky130_fd_sc_hd__xnor2_1
*CAP
1 *775:A 0
2 *774:B1 0.000193773
3 *707:A_N 0
4 *701:Y 8.66247e-05
5 *188:15 0.000335826
6 *188:8 0.000228678
7 *774:B1 *774:A1 9.90367e-05
8 *774:B1 *839:D 0.000126446
9 *188:8 *701:A 3.18676e-05
10 *188:8 *342:36 1.21289e-05
11 *188:15 *711:B1 0.000102197
12 *188:15 *714:A3 9.22103e-06
13 *188:15 *342:36 5.62995e-05
14 *839:RESET_B *774:B1 0
*RES
1 *701:Y *188:8 10.675 
2 *188:8 *707:A_N 9.3 
3 *188:8 *188:15 3 
4 *188:15 *774:B1 22.1214 
5 *188:15 *775:A 9.3 
*END

*D_NET *189 0.0010382
*CONN
*I *779:A1 I *D sky130_fd_sc_hd__a21bo_1
*I *704:A I *D sky130_fd_sc_hd__nand2_1
*I *702:X O *D sky130_fd_sc_hd__or2_1
*CAP
1 *779:A1 2.74371e-05
2 *704:A 7.55688e-05
3 *702:X 8.87466e-05
4 *189:12 0.000191753
5 *704:A *704:B 5.75896e-05
6 *704:A *715:C1 0.000197998
7 *704:A *906:A 3.17148e-05
8 *779:A1 *343:14 2.59355e-05
9 *189:12 *704:B 1.02504e-05
10 *189:12 *906:A 0.000181454
11 *189:12 *190:10 0.000129868
12 *189:12 *343:14 1.98839e-05
*RES
1 *702:X *189:12 20.8893 
2 *189:12 *704:A 20.8536 
3 *189:12 *779:A1 9.83571 
*END

*D_NET *190 0.00125275
*CONN
*I *704:B I *D sky130_fd_sc_hd__nand2_1
*I *779:B1_N I *D sky130_fd_sc_hd__a21bo_1
*I *703:Y O *D sky130_fd_sc_hd__nand2_1
*CAP
1 *704:B 0.00010635
2 *779:B1_N 0
3 *703:Y 0.000190257
4 *190:10 0.000296608
5 *704:B *906:A 1.17968e-05
6 *704:B *307:8 0.000103041
7 *704:B *308:10 1.92905e-05
8 *190:10 *703:A 5.10822e-05
9 *190:10 *906:A 0.000100735
10 *190:10 *307:8 0.000120645
11 *704:A *704:B 5.75896e-05
12 *897:A *190:10 5.52302e-05
13 *189:12 *704:B 1.02504e-05
14 *189:12 *190:10 0.000129868
*RES
1 *703:Y *190:10 18.8179 
2 *190:10 *779:B1_N 13.8 
3 *190:10 *704:B 16.8893 
*END

*D_NET *191 0.0016348
*CONN
*I *778:A I *D sky130_fd_sc_hd__xnor2_1
*I *706:A I *D sky130_fd_sc_hd__nor2_1
*I *704:Y O *D sky130_fd_sc_hd__nand2_1
*CAP
1 *778:A 2.04425e-05
2 *706:A 7.8744e-05
3 *704:Y 0.000335459
4 *191:10 0.000434645
5 *706:A *706:B 0.000221163
6 *706:A *839:D 6.0038e-05
7 *706:A *250:14 7.252e-05
8 *778:A *250:14 5.33005e-05
9 *778:A *343:6 2.59355e-05
10 *191:10 *706:B 0.00013966
11 *191:10 *780:A 0.00018077
12 *191:10 *344:10 1.21258e-05
*RES
1 *704:Y *191:10 19.5679 
2 *191:10 *706:A 16.6571 
3 *191:10 *778:A 14.3357 
*END

*D_NET *192 0.00211371
*CONN
*I *780:A I *D sky130_fd_sc_hd__xnor2_1
*I *706:B I *D sky130_fd_sc_hd__nor2_1
*I *705:Y O *D sky130_fd_sc_hd__xnor2_1
*CAP
1 *780:A 6.60349e-05
2 *706:B 0.000199895
3 *705:Y 0.000122775
4 *192:8 0.000388705
5 *706:B *715:C1 0
6 *706:B *343:40 0.00012401
7 *706:B *370:47 2.8266e-06
8 *706:B *374:12 9.73258e-05
9 *780:A *344:10 4.87854e-05
10 *192:8 *343:40 0.000330823
11 *192:8 *370:47 0.000135708
12 *706:A *706:B 0.000221163
13 *854:A *706:B 5.52302e-05
14 *191:10 *706:B 0.00013966
15 *191:10 *780:A 0.00018077
*RES
1 *705:Y *192:8 18.175 
2 *192:8 *706:B 19.3179 
3 *192:8 *780:A 15.5679 
*END

*D_NET *193 0.00128536
*CONN
*I *707:B I *D sky130_fd_sc_hd__and2b_1
*I *713:C I *D sky130_fd_sc_hd__and3_1
*I *706:Y O *D sky130_fd_sc_hd__nor2_1
*CAP
1 *707:B 0.000206477
2 *713:C 0.000131969
3 *706:Y 0
4 *193:4 0.000338446
5 *707:B *711:B1 0.00010096
6 *707:B *714:B1 1.721e-05
7 *707:B *777:A2 4.51691e-05
8 *707:B *839:D 0.000145907
9 *707:B *194:6 5.71472e-05
10 *707:B *342:36 0
11 *707:B *374:12 7.6644e-05
12 *854:A *713:C 0.000165433
*RES
1 *706:Y *193:4 9.3 
2 *193:4 *713:C 10.9518 
3 *193:4 *707:B 23.0143 
*END

*D_NET *194 0.00207927
*CONN
*I *711:B1 I *D sky130_fd_sc_hd__o211ai_1
*I *714:A3 I *D sky130_fd_sc_hd__a31o_1
*I *707:X O *D sky130_fd_sc_hd__and2b_1
*CAP
1 *711:B1 0.000353611
2 *714:A3 0.000142671
3 *707:X 5.91879e-05
4 *194:6 0.00055547
5 *711:B1 *709:B 0.000137983
6 *711:B1 *710:B 3.18676e-05
7 *711:B1 *772:B 5.49544e-05
8 *711:B1 *775:B 2.59355e-05
9 *711:B1 *775:C 4.70078e-05
10 *711:B1 *776:B 5.17614e-05
11 *711:B1 *247:6 0.000100639
12 *714:A3 *701:A 0.000129868
13 *714:A3 *713:B 5.01876e-06
14 *714:A3 *342:36 0.000113773
15 *707:B *711:B1 0.00010096
16 *707:B *194:6 5.71472e-05
17 *188:15 *711:B1 0.000102197
18 *188:15 *714:A3 9.22103e-06
*RES
1 *707:X *194:6 10.2464 
2 *194:6 *714:A3 21.3 
3 *194:6 *711:B1 17.9607 
*END

*D_NET *195 0.00187679
*CONN
*I *710:A I *D sky130_fd_sc_hd__and2_1
*I *775:B I *D sky130_fd_sc_hd__and3_1
*I *774:A1 I *D sky130_fd_sc_hd__a21oi_1
*I *708:Y O *D sky130_fd_sc_hd__nand2_1
*CAP
1 *710:A 2.78338e-05
2 *775:B 4.70928e-05
3 *774:A1 0.000231455
4 *708:Y 4.99167e-05
5 *195:14 0.000377541
6 *195:8 0.000176744
7 *710:A *776:A 5.33005e-05
8 *710:A *777:B1 5.33005e-05
9 *710:A *373:19 9.71197e-05
10 *774:A1 *709:B 7.57946e-05
11 *774:A1 *839:D 6.39901e-05
12 *774:A1 *248:10 9.23676e-05
13 *774:A1 *336:24 5.39629e-06
14 *195:8 *708:B 0.000113807
15 *195:8 *776:B 6.42338e-05
16 *195:14 *708:B 7.1345e-05
17 *195:14 *709:B 6.73939e-05
18 *195:14 *776:B 1.08359e-05
19 *195:14 *248:10 7.23482e-05
20 *711:B1 *775:B 2.59355e-05
21 *774:B1 *774:A1 9.90367e-05
*RES
1 *708:Y *195:8 15.4429 
2 *195:8 *195:14 2.60714 
3 *195:14 *774:A1 18.1214 
4 *195:14 *775:B 14.3357 
5 *195:8 *710:A 14.7464 
*END

*D_NET *196 0.000448413
*CONN
*I *710:B I *D sky130_fd_sc_hd__and2_1
*I *709:X O *D sky130_fd_sc_hd__or2_1
*CAP
1 *710:B 0.000116599
2 *709:X 0.000116599
3 *710:B *709:A 0.000149911
4 *710:B *776:A 3.34366e-05
5 *711:B1 *710:B 3.18676e-05
6 *898:A *710:B 0
*RES
1 *709:X *710:B 30.0821 
*END

*D_NET *197 0.00169824
*CONN
*I *773:B I *D sky130_fd_sc_hd__xor2_1
*I *772:B I *D sky130_fd_sc_hd__nand2_1
*I *711:C1 I *D sky130_fd_sc_hd__o211ai_1
*I *710:X O *D sky130_fd_sc_hd__and2_1
*CAP
1 *773:B 0
2 *772:B 0.000238783
3 *711:C1 0
4 *710:X 7.44071e-05
5 *197:12 0.00037583
6 *197:6 0.000211454
7 *772:B *198:16 7.09559e-05
8 *772:B *247:6 0.000103057
9 *197:6 *341:6 9.76491e-05
10 *197:12 *709:A 0
11 *711:A1 *772:B 0.000141555
12 *711:A2 *772:B 9.83388e-05
13 *711:B1 *772:B 5.49544e-05
14 *772:A *772:B 5.49544e-05
15 *773:A *197:6 1.58163e-05
16 *898:A *197:12 0.000160489
*RES
1 *710:X *197:6 11.0679 
2 *197:6 *197:12 11.5536 
3 *197:12 *711:C1 9.3 
4 *197:12 *772:B 15.3357 
5 *197:6 *773:B 9.3 
*END

*D_NET *198 0.00350646
*CONN
*I *731:A1 I *D sky130_fd_sc_hd__a211o_1
*I *716:A I *D sky130_fd_sc_hd__nand2_1
*I *711:Y O *D sky130_fd_sc_hd__o211ai_1
*CAP
1 *731:A1 0
2 *716:A 0.000224954
3 *711:Y 0.000867084
4 *198:16 0.00109204
5 *716:A *730:A 2.67489e-05
6 *716:A *730:B 0.000102197
7 *716:A *731:B1 6.93855e-05
8 *716:A *842:CLK 6.05161e-06
9 *716:A *346:8 0.000311787
10 *716:A *346:21 0
11 *198:16 *599:A 0
12 *198:16 *731:A2 4.10796e-05
13 *198:16 *838:CLK 0.00012401
14 *198:16 *840:CLK 0
15 *198:16 *218:14 3.57405e-05
16 *198:16 *304:32 0
17 *198:16 *370:27 0
18 *198:16 *370:148 0.000228931
19 *711:A2 *198:16 9.83388e-05
20 *772:B *198:16 7.09559e-05
21 *773:A *198:16 3.57844e-05
22 *840:RESET_B *198:16 0.000171375
23 *898:A *198:16 0
*RES
1 *711:Y *198:16 34.4429 
2 *198:16 *716:A 23.675 
3 *198:16 *731:A1 9.3 
*END

*D_NET *199 0.000214141
*CONN
*I *715:B1 I *D sky130_fd_sc_hd__a211oi_1
*I *712:X O *D sky130_fd_sc_hd__o211a_1
*CAP
1 *715:B1 6.92685e-05
2 *712:X 6.92685e-05
3 *715:B1 *308:10 5.80706e-06
4 *715:B1 *308:21 6.97972e-05
5 *715:B1 *344:10 0
*RES
1 *712:X *715:B1 29.2429 
*END

*D_NET *200 0.000710651
*CONN
*I *714:B1 I *D sky130_fd_sc_hd__a31o_1
*I *713:X O *D sky130_fd_sc_hd__and3_1
*CAP
1 *714:B1 9.22825e-05
2 *713:X 9.22825e-05
3 *714:B1 *713:B 0.000218012
4 *714:B1 *777:A2 9.25014e-06
5 *714:B1 *341:14 5.52302e-05
6 *714:B1 *373:19 5.33005e-05
7 *714:B1 *374:12 0.000173083
8 *707:B *714:B1 1.721e-05
*RES
1 *713:X *714:B1 30.9929 
*END

*D_NET *201 0.0015359
*CONN
*I *715:C1 I *D sky130_fd_sc_hd__a211oi_1
*I *714:X O *D sky130_fd_sc_hd__a31o_1
*CAP
1 *715:C1 0.000426669
2 *714:X 0.000426669
3 *715:C1 *713:A 0.000101545
4 *715:C1 *713:B 6.66939e-05
5 *715:C1 *780:B 5.48581e-05
6 *715:C1 *906:A 0.000110376
7 *715:C1 *307:8 0
8 *715:C1 *308:10 4.57445e-05
9 *715:C1 *343:40 0
10 *715:C1 *344:10 0
11 *715:C1 *373:8 9.60939e-05
12 *715:C1 *374:20 9.25014e-06
13 *704:A *715:C1 0.000197998
14 *706:B *715:C1 0
*RES
1 *714:X *715:C1 37.475 
*END

*D_NET *202 0.00167981
*CONN
*I *731:A2 I *D sky130_fd_sc_hd__a211o_1
*I *716:B I *D sky130_fd_sc_hd__nand2_1
*I *715:Y O *D sky130_fd_sc_hd__a211oi_1
*CAP
1 *731:A2 0.000275858
2 *716:B 0.000123153
3 *715:Y 0.000388969
4 *202:6 0.00078798
5 *716:B *731:C1 0
6 *716:B *370:47 0
7 *731:A2 *370:148 6.2773e-05
8 *198:16 *731:A2 4.10796e-05
*RES
1 *715:Y *202:6 14.7643 
2 *202:6 *716:B 20.2464 
3 *202:6 *731:A2 13.9607 
*END

*D_NET *203 0.000877676
*CONN
*I *765:A I *D sky130_fd_sc_hd__xnor2_1
*I *766:A1 I *D sky130_fd_sc_hd__a21bo_1
*I *716:Y O *D sky130_fd_sc_hd__nand2_1
*CAP
1 *765:A 0.000116191
2 *766:A1 5.38656e-05
3 *716:Y 9.05017e-05
4 *203:10 0.000260559
5 *765:A *732:B 9.02133e-05
6 *765:A *215:25 8.66063e-05
7 *766:A1 *215:25 5.33005e-05
8 *203:10 *731:C1 0
9 *203:10 *765:B 0
10 *203:10 *215:25 0.000126439
*RES
1 *716:Y *203:10 20.2464 
2 *203:10 *766:A1 10.2464 
3 *203:10 *765:A 11.8893 
*END

*D_NET *204 0.00254776
*CONN
*I *734:A I *D sky130_fd_sc_hd__or3_1
*I *719:A I *D sky130_fd_sc_hd__nand2_1
*I *768:B1_N I *D sky130_fd_sc_hd__a21bo_1
*I *717:Y O *D sky130_fd_sc_hd__nand2_1
*CAP
1 *734:A 4.28473e-05
2 *719:A 8.02924e-06
3 *768:B1_N 0
4 *717:Y 0.000175948
5 *204:15 0.000580368
6 *204:6 0.000705439
7 *719:A *719:B 1.97695e-05
8 *719:A *734:C 1.04232e-05
9 *734:A *726:A 3.69047e-06
10 *734:A *734:C 4.22908e-05
11 *734:A *847:CLK 0
12 *734:A *209:16 5.74499e-06
13 *734:A *304:84 5.71472e-05
14 *204:6 *717:A 0.00014183
15 *204:6 *311:12 0.000144773
16 *204:15 *719:B 0.000487473
17 *204:15 *726:A 7.48301e-06
18 *204:15 *767:A 1.74352e-05
19 *204:15 *205:6 5.51819e-05
20 *204:15 *311:12 4.18895e-05
*RES
1 *717:Y *204:6 11.8893 
2 *204:6 *768:B1_N 9.3 
3 *204:6 *204:15 7.53571 
4 *204:15 *719:A 9.72857 
5 *204:15 *734:A 10.675 
*END

*D_NET *205 0.00137956
*CONN
*I *719:B I *D sky130_fd_sc_hd__nand2_1
*I *768:A1 I *D sky130_fd_sc_hd__a21bo_1
*I *718:X O *D sky130_fd_sc_hd__or2_1
*CAP
1 *719:B 0.000137436
2 *768:A1 0
3 *718:X 0.000101997
4 *205:6 0.000239433
5 *719:B *767:A 8.17713e-05
6 *719:B *767:B 2.89114e-05
7 *719:B *768:A2 0.000126629
8 *205:6 *311:12 0.00010096
9 *719:A *719:B 1.97695e-05
10 *204:15 *719:B 0.000487473
11 *204:15 *205:6 5.51819e-05
*RES
1 *718:X *205:6 11.4786 
2 *205:6 *768:A1 9.3 
3 *205:6 *719:B 14.8 
*END

*D_NET *206 0.00094133
*CONN
*I *726:A I *D sky130_fd_sc_hd__nor3_1
*I *767:A I *D sky130_fd_sc_hd__xnor2_1
*I *719:Y O *D sky130_fd_sc_hd__nand2_1
*CAP
1 *726:A 0.000159707
2 *767:A 5.75884e-05
3 *719:Y 0
4 *206:4 0.000217295
5 *726:A *726:B 0.000103253
6 *726:A *726:C 2.49686e-05
7 *726:A *727:A 5.52302e-05
8 *726:A *734:C 5.7661e-06
9 *726:A *209:16 5.52238e-05
10 *726:A *214:14 5.71472e-05
11 *726:A *244:10 0
12 *767:A *734:C 0
13 *767:A *209:16 9.47712e-05
14 *719:B *767:A 8.17713e-05
15 *734:A *726:A 3.69047e-06
16 *204:15 *726:A 7.48301e-06
17 *204:15 *767:A 1.74352e-05
*RES
1 *719:Y *206:4 9.3 
2 *206:4 *767:A 11.4964 
3 *206:4 *726:A 22.3536 
*END

*D_NET *207 0.00124663
*CONN
*I *722:A I *D sky130_fd_sc_hd__nand2_1
*I *770:A1 I *D sky130_fd_sc_hd__a21bo_1
*I *720:X O *D sky130_fd_sc_hd__or2_1
*CAP
1 *722:A 0.000138489
2 *770:A1 6.90731e-05
3 *720:X 9.72258e-05
4 *207:8 0.000304787
5 *722:A *720:A 0.000175512
6 *722:A *909:A 0
7 *722:A *209:10 0.00019307
8 *722:A *304:84 0
9 *770:A1 *209:10 9.25014e-06
10 *770:A1 *209:16 0.000128146
11 *770:A1 *304:84 0
12 *207:8 *844:CLK 7.77751e-05
13 *872:A *722:A 5.33005e-05
*RES
1 *720:X *207:8 15.1571 
2 *207:8 *770:A1 15.4429 
3 *207:8 *722:A 17.4964 
*END

*D_NET *208 0.00233455
*CONN
*I *722:B I *D sky130_fd_sc_hd__nand2_1
*I *733:A_N I *D sky130_fd_sc_hd__nand2b_1
*I *770:B1_N I *D sky130_fd_sc_hd__a21bo_1
*I *721:Y O *D sky130_fd_sc_hd__nand2_1
*CAP
1 *722:B 8.2943e-05
2 *733:A_N 0.000156691
3 *770:B1_N 8.95943e-06
4 *721:Y 0
5 *208:10 0.000371694
6 *208:4 0.000288987
7 *722:B *721:A 3.22765e-05
8 *722:B *721:B 5.7661e-06
9 *722:B *209:10 1.24368e-05
10 *733:A_N *770:A2 0.000183726
11 *733:A_N *771:A 7.62318e-05
12 *733:A_N *771:B 7.61932e-05
13 *733:A_N *212:18 4.60235e-05
14 *733:A_N *370:77 0.000658647
15 *770:B1_N *770:A2 5.52238e-05
16 *770:B1_N *370:77 5.71472e-05
17 *208:10 *909:A 0
18 *208:10 *209:10 0.000102081
19 *208:10 *209:16 9.01238e-05
20 *208:10 *245:10 2.19684e-05
21 *844:RESET_B *208:10 0
22 *872:A *722:B 7.43578e-06
*RES
1 *721:Y *208:4 9.3 
2 *208:4 *208:10 13.6786 
3 *208:10 *770:B1_N 9.83571 
4 *208:10 *733:A_N 16.0143 
5 *208:4 *722:B 11.1036 
*END

*D_NET *209 0.00398816
*CONN
*I *769:A I *D sky130_fd_sc_hd__xnor2_1
*I *734:B I *D sky130_fd_sc_hd__or3_1
*I *726:B I *D sky130_fd_sc_hd__nor3_1
*I *722:Y O *D sky130_fd_sc_hd__nand2_1
*CAP
1 *769:A 0.000614523
2 *734:B 0
3 *726:B 8.99885e-05
4 *722:Y 0.000144369
5 *209:16 0.000539722
6 *209:10 0.00120862
7 *726:B *726:C 5.10822e-05
8 *726:B *843:CLK 9.90367e-05
9 *769:A *720:B 1.47637e-05
10 *769:A *844:CLK 2.89016e-05
11 *769:A *844:D 0.0001863
12 *769:A *908:A 0
13 *769:A *912:A 0.000154762
14 *769:A *348:6 1.57931e-05
15 *209:16 *726:C 0
16 *209:16 *734:C 6.05161e-06
17 *209:16 *909:A 0
18 *209:16 *244:10 3.17067e-05
19 *209:16 *245:10 0
20 *209:16 *304:84 0
21 *722:A *209:10 0.00019307
22 *722:B *209:10 1.24368e-05
23 *726:A *726:B 0.000103253
24 *726:A *209:16 5.52238e-05
25 *734:A *209:16 5.74499e-06
26 *767:A *209:16 9.47712e-05
27 *770:A1 *209:10 9.25014e-06
28 *770:A1 *209:16 0.000128146
29 *872:A *209:10 8.43535e-06
30 *208:10 *209:10 0.000102081
31 *208:10 *209:16 9.01238e-05
*RES
1 *722:Y *209:10 16.8893 
2 *209:10 *209:16 12.0714 
3 *209:16 *726:B 20.5857 
4 *209:16 *734:B 9.3 
5 *209:10 *769:A 31.4429 
*END

*D_NET *210 0.00325094
*CONN
*I *735:A I *D sky130_fd_sc_hd__and4_1
*I *725:A I *D sky130_fd_sc_hd__nand2_1
*I *723:Y O *D sky130_fd_sc_hd__nand2_1
*CAP
1 *735:A 0.000696431
2 *725:A 0.000236322
3 *723:Y 8.22227e-05
4 *210:6 0.00101498
5 *725:A *604:A 5.83233e-05
6 *725:A *723:A 1.39726e-05
7 *725:A *725:B 5.37741e-06
8 *725:A *212:18 1.40306e-05
9 *735:A *724:A 3.42301e-05
10 *735:A *725:B 1.08359e-05
11 *735:A *735:C 0.000253673
12 *735:A *212:18 0.000187813
13 *735:A *304:69 0.000200413
14 *735:A *349:8 9.33978e-07
15 *735:A *349:21 0.000125731
16 *210:6 *723:A 2.77258e-05
17 acc[23] *725:A 9.83388e-05
18 *845:RESET_B *735:A 3.35727e-05
19 *873:A *725:A 9.93955e-05
20 *873:A *735:A 5.66157e-05
*RES
1 *723:Y *210:6 10.6571 
2 *210:6 *725:A 22.8536 
3 *210:6 *735:A 41.175 
*END

*D_NET *211 0.00156988
*CONN
*I *725:B I *D sky130_fd_sc_hd__nand2_1
*I *733:B I *D sky130_fd_sc_hd__nand2b_1
*I *724:X O *D sky130_fd_sc_hd__or2_1
*CAP
1 *725:B 0.000347452
2 *733:B 1.05331e-05
3 *724:X 6.3797e-05
4 *211:6 0.000421782
5 *725:B *845:D 0.00017676
6 *725:B *212:18 0.000167911
7 *725:B *304:84 0
8 *733:B *212:18 6.95106e-05
9 *733:B *370:77 7.1434e-05
10 *211:6 *212:18 5.33005e-05
11 *211:6 *370:77 0.000171187
12 *725:A *725:B 5.37741e-06
13 *735:A *725:B 1.08359e-05
*RES
1 *724:X *211:6 11.0679 
2 *211:6 *733:B 9.96964 
3 *211:6 *725:B 33.7643 
*END

*D_NET *212 0.00294053
*CONN
*I *726:C I *D sky130_fd_sc_hd__nor3_1
*I *734:C I *D sky130_fd_sc_hd__or3_1
*I *771:A I *D sky130_fd_sc_hd__xnor2_1
*I *725:Y O *D sky130_fd_sc_hd__nand2_1
*CAP
1 *726:C 0.000151795
2 *734:C 6.11001e-05
3 *771:A 8.41883e-05
4 *725:Y 0.000276718
5 *212:35 0.000460372
6 *212:18 0.000608383
7 *726:C *735:C 0
8 *726:C *735:D 0.000143247
9 *726:C *214:14 0
10 *734:C *304:84 1.39726e-05
11 *212:18 *845:D 0.000179031
12 *212:18 *370:77 2.81447e-05
13 *212:35 *735:D 2.84125e-05
14 *212:35 *304:84 4.77058e-05
15 *719:A *734:C 1.04232e-05
16 *725:A *212:18 1.40306e-05
17 *725:B *212:18 0.000167911
18 *726:A *726:C 2.49686e-05
19 *726:A *734:C 5.7661e-06
20 *726:B *726:C 5.10822e-05
21 *733:A_N *771:A 7.62318e-05
22 *733:A_N *212:18 4.60235e-05
23 *733:B *212:18 6.95106e-05
24 *734:A *734:C 4.22908e-05
25 *735:A *212:18 0.000187813
26 *767:A *734:C 0
27 *845:RESET_B *212:18 0.000102053
28 *209:16 *726:C 0
29 *209:16 *734:C 6.05161e-06
30 *211:6 *212:18 5.33005e-05
*RES
1 *725:Y *212:18 26.1571 
2 *212:18 *771:A 11.0857 
3 *212:18 *212:35 13.2143 
4 *212:35 *734:C 10.675 
5 *212:35 *726:C 21.8179 
*END

*D_NET *213 0.000530529
*CONN
*I *727:A I *D sky130_fd_sc_hd__inv_2
*I *726:Y O *D sky130_fd_sc_hd__nor3_1
*CAP
1 *727:A 9.42271e-05
2 *726:Y 9.42271e-05
3 *727:A *843:CLK 0.000190193
4 *727:A *214:14 9.66517e-05
5 *726:A *727:A 5.52302e-05
*RES
1 *726:Y *727:A 21.7607 
*END

*D_NET *214 0.00224407
*CONN
*I *732:A I *D sky130_fd_sc_hd__or2_1
*I *731:B1 I *D sky130_fd_sc_hd__a211o_1
*I *727:Y O *D sky130_fd_sc_hd__inv_2
*CAP
1 *732:A 0.000190404
2 *731:B1 0.000200004
3 *727:Y 0.000280546
4 *214:14 0.000670955
5 *731:B1 *731:C1 0.000240484
6 *731:B1 *765:B 0.000113285
7 *732:A *732:B 9.83442e-05
8 *732:A *736:A1 0
9 *732:A *736:A2 0
10 *732:A *842:D 9.37376e-05
11 *732:A *222:12 4.40603e-05
12 *732:A *304:19 5.80858e-06
13 *214:14 *765:B 1.24469e-05
14 *214:14 *843:CLK 1.74352e-05
15 *214:14 *222:12 5.33786e-05
16 *214:14 *244:10 0
17 *214:14 *304:19 0
18 *716:A *731:B1 6.93855e-05
19 *726:A *214:14 5.71472e-05
20 *726:C *214:14 0
21 *727:A *214:14 9.66517e-05
*RES
1 *727:Y *214:14 18.7375 
2 *214:14 *731:B1 18.3268 
3 *214:14 *732:A 17.6304 
*END

*D_NET *215 0.00249783
*CONN
*I *766:B1_N I *D sky130_fd_sc_hd__a21bo_1
*I *732:B I *D sky130_fd_sc_hd__or2_1
*I *730:A I *D sky130_fd_sc_hd__nand2_1
*I *728:Y O *D sky130_fd_sc_hd__nand2_1
*CAP
1 *766:B1_N 0
2 *732:B 0.000232618
3 *730:A 0.000205898
4 *728:Y 0.00012995
5 *215:25 0.000345616
6 *215:6 0.000448845
7 *730:A *730:B 0.000294058
8 *730:A *217:8 5.33005e-05
9 *732:B *222:12 0.000159313
10 *215:6 *730:B 4.59075e-05
11 *215:6 *346:8 3.61629e-06
12 *215:6 *346:21 3.18676e-05
13 *215:25 *730:B 6.5185e-05
14 *716:A *730:A 2.67489e-05
15 *732:A *732:B 9.83442e-05
16 *765:A *732:B 9.02133e-05
17 *765:A *215:25 8.66063e-05
18 *766:A1 *215:25 5.33005e-05
19 *203:10 *215:25 0.000126439
*RES
1 *728:Y *215:6 11.0679 
2 *215:6 *730:A 13.8714 
3 *215:6 *215:25 12 
4 *215:25 *732:B 14.4071 
5 *215:25 *766:B1_N 9.3 
*END

*D_NET *216 0.00114774
*CONN
*I *766:A2 I *D sky130_fd_sc_hd__a21bo_1
*I *730:B I *D sky130_fd_sc_hd__nand2_1
*I *729:X O *D sky130_fd_sc_hd__or2_1
*CAP
1 *766:A2 0
2 *730:B 0.000201806
3 *729:X 8.61686e-05
4 *216:6 0.000287974
5 *730:B *731:C1 0
6 *730:B *346:8 6.4443e-05
7 *730:B *370:47 0
8 *716:A *730:B 0.000102197
9 *730:A *730:B 0.000294058
10 *215:6 *730:B 4.59075e-05
11 *215:25 *730:B 6.5185e-05
*RES
1 *729:X *216:6 10.6571 
2 *216:6 *730:B 24.3893 
3 *216:6 *766:A2 9.3 
*END

*D_NET *217 0.000947056
*CONN
*I *765:B I *D sky130_fd_sc_hd__xnor2_1
*I *731:C1 I *D sky130_fd_sc_hd__a211o_1
*I *730:Y O *D sky130_fd_sc_hd__nand2_1
*CAP
1 *765:B 6.73582e-05
2 *731:C1 0.000152809
3 *730:Y 4.36033e-05
4 *217:8 0.00026377
5 *716:B *731:C1 0
6 *730:A *217:8 5.33005e-05
7 *730:B *731:C1 0
8 *731:B1 *731:C1 0.000240484
9 *731:B1 *765:B 0.000113285
10 *203:10 *731:C1 0
11 *203:10 *765:B 0
12 *214:14 *765:B 1.24469e-05
*RES
1 *730:Y *217:8 14.3357 
2 *217:8 *731:C1 16.9607 
3 *217:8 *765:B 15.4429 
*END

*D_NET *218 0.00232671
*CONN
*I *737:A1 I *D sky130_fd_sc_hd__a21o_1
*I *756:B I *D sky130_fd_sc_hd__and3_1
*I *736:A1 I *D sky130_fd_sc_hd__a21oi_1
*I *731:X O *D sky130_fd_sc_hd__a211o_1
*CAP
1 *737:A1 1.2963e-05
2 *756:B 0.000174715
3 *736:A1 1.38972e-05
4 *731:X 0.00042079
5 *218:23 0.000229476
6 *218:14 0.000476485
7 *736:A1 *736:A2 1.02132e-05
8 *736:A1 *737:A2 1.02132e-05
9 *737:A1 *737:A2 3.99614e-06
10 *756:B *757:A 0.00014285
11 *756:B *757:B 9.90431e-05
12 *218:14 *842:D 7.6644e-05
13 *218:14 *222:12 9.94037e-05
14 *218:14 *222:21 2.36643e-05
15 *218:14 *304:19 4.98968e-05
16 *218:14 *370:148 1.03105e-05
17 *218:23 *737:A2 0.00010096
18 *218:23 *757:A 4.88637e-05
19 *218:23 *222:21 2.39329e-05
20 *732:A *736:A1 0
21 *736:B1 *737:A1 5.7661e-06
22 *736:B1 *756:B 2.95641e-05
23 *736:B1 *218:23 2.44318e-05
24 *120:18 *756:B 0.000202891
25 *198:16 *218:14 3.57405e-05
*RES
1 *731:X *218:14 25.9071 
2 *218:14 *736:A1 9.72857 
3 *218:14 *218:23 1.76786 
4 *218:23 *756:B 14.3893 
5 *218:23 *737:A1 9.72857 
*END

*D_NET *219 0.000608526
*CONN
*I *735:B I *D sky130_fd_sc_hd__and4_1
*I *732:X O *D sky130_fd_sc_hd__or2_1
*CAP
1 *735:B 0.000173427
2 *732:X 0.000173427
3 *735:B *222:12 0.000184669
4 *735:B *304:19 7.70035e-05
*RES
1 *732:X *735:B 30.4036 
*END

*D_NET *220 0.00108973
*CONN
*I *735:C I *D sky130_fd_sc_hd__and4_1
*I *733:Y O *D sky130_fd_sc_hd__nand2b_1
*CAP
1 *735:C 0.000324288
2 *733:Y 0.000324288
3 *735:C *843:CLK 5.49489e-05
4 *735:C *304:19 3.12359e-05
5 *735:C *304:69 4.17661e-06
6 *735:C *370:77 9.71197e-05
7 *726:C *735:C 0
8 *735:A *735:C 0.000253673
*RES
1 *733:Y *735:C 34.1179 
*END

*D_NET *221 0.000689355
*CONN
*I *735:D I *D sky130_fd_sc_hd__and4_1
*I *734:X O *D sky130_fd_sc_hd__or3_1
*CAP
1 *735:D 0.000209675
2 *734:X 0.000209675
3 *735:D *843:CLK 9.83442e-05
4 *726:C *735:D 0.000143247
5 *212:35 *735:D 2.84125e-05
*RES
1 *734:X *735:D 31.6893 
*END

*D_NET *222 0.00256947
*CONN
*I *756:C I *D sky130_fd_sc_hd__and3_1
*I *737:A2 I *D sky130_fd_sc_hd__a21o_1
*I *736:A2 I *D sky130_fd_sc_hd__a21oi_1
*I *735:X O *D sky130_fd_sc_hd__and4_1
*CAP
1 *756:C 0.000375559
2 *737:A2 2.40464e-05
3 *736:A2 1.39301e-05
4 *735:X 0.000256734
5 *222:21 0.000440028
6 *222:12 0.000311086
7 *732:A *736:A2 0
8 *732:A *222:12 4.40603e-05
9 *732:B *222:12 0.000159313
10 *735:B *222:12 0.000184669
11 *736:A1 *736:A2 1.02132e-05
12 *736:A1 *737:A2 1.02132e-05
13 *736:B1 *737:A2 5.71472e-05
14 *736:B1 *756:C 0.000188586
15 *737:A1 *737:A2 3.99614e-06
16 *120:18 *756:C 0.00018855
17 *214:14 *222:12 5.33786e-05
18 *218:14 *222:12 9.94037e-05
19 *218:14 *222:21 2.36643e-05
20 *218:23 *737:A2 0.00010096
21 *218:23 *222:21 2.39329e-05
*RES
1 *735:X *222:12 24.2821 
2 *222:12 *736:A2 9.72857 
3 *222:12 *222:21 0.946429 
4 *222:21 *737:A2 10.675 
5 *222:21 *756:C 15.0768 
*END

*D_NET *223 0.00109264
*CONN
*I *757:A I *D sky130_fd_sc_hd__nor2_1
*I *736:Y O *D sky130_fd_sc_hd__a21oi_1
*CAP
1 *757:A 0.000366326
2 *736:Y 0.000366326
3 *757:A *605:A 5.71472e-05
4 *757:A *757:B 0.000111132
5 *756:B *757:A 0.00014285
6 *842:RESET_B *757:A 0
7 *218:23 *757:A 4.88637e-05
*RES
1 *736:Y *757:A 34.3857 
*END

*D_NET *224 0.002685
*CONN
*I *739:A3 I *D sky130_fd_sc_hd__a311o_1
*I *738:A3 I *D sky130_fd_sc_hd__a31oi_1
*I *761:A2 I *D sky130_fd_sc_hd__a21o_1
*I *758:B I *D sky130_fd_sc_hd__nand2_1
*I *737:X O *D sky130_fd_sc_hd__a21o_1
*CAP
1 *739:A3 3.71636e-05
2 *738:A3 0.000150619
3 *761:A2 2.23854e-05
4 *758:B 0
5 *737:X 0.000302331
6 *224:32 0.000279148
7 *224:23 0.000350961
8 *224:12 0.00053954
9 *738:A3 *747:A 0
10 *739:A3 *857:A 7.17235e-05
11 *224:12 *857:A 0.00010096
12 *224:23 *857:A 6.7572e-05
13 *224:32 *857:A 9.02133e-05
14 *738:A2 *738:A3 2.59355e-05
15 *738:B1 *738:A3 0
16 *739:A2 *738:A3 7.90803e-05
17 *739:A2 *739:A3 0.000178593
18 *739:A2 *224:32 5.33005e-05
19 *761:B1 *224:32 5.52302e-05
20 *118:10 *738:A3 6.26673e-05
21 *118:21 *738:A3 7.6644e-05
22 *120:14 *224:12 0
23 *120:14 *224:23 0.000140933
*RES
1 *737:X *224:12 23.6571 
2 *224:12 *758:B 9.3 
3 *224:12 *224:23 4.57143 
4 *224:23 *761:A2 9.72857 
5 *224:23 *224:32 2.17857 
6 *224:32 *738:A3 21.3893 
7 *224:32 *739:A3 11.0857 
*END

*D_NET *225 0.000307916
*CONN
*I *740:B I *D sky130_fd_sc_hd__xnor2_1
*I *738:Y O *D sky130_fd_sc_hd__a31oi_1
*CAP
1 *740:B 0.000147475
2 *738:Y 0.000147475
3 *740:B *301:28 0
4 *740:B *351:12 0
5 *738:A1 *740:B 8.93179e-06
6 *738:B1 *740:B 4.0342e-06
*RES
1 *738:Y *740:B 29.7786 
*END

*D_NET *226 0.00569447
*CONN
*I *753:A1 I *D sky130_fd_sc_hd__a21oi_1
*I *749:A2 I *D sky130_fd_sc_hd__a31o_1
*I *744:B I *D sky130_fd_sc_hd__nand2_1
*I *739:X O *D sky130_fd_sc_hd__a311o_1
*CAP
1 *753:A1 0.000516541
2 *749:A2 0.000307842
3 *744:B 3.05582e-05
4 *739:X 0.00037881
5 *226:17 0.000887774
6 *226:8 0.00047276
7 *749:A2 *745:B 0.000123295
8 *749:A2 *749:B1 2.25101e-05
9 *749:A2 *849:CLK 0.000118107
10 *749:A2 *227:27 8.78803e-05
11 *749:A2 *232:35 0
12 *753:A1 *615:B 5.52238e-05
13 *753:A1 *745:B 5.52302e-05
14 *753:A1 *747:B 1.02936e-05
15 *753:A1 *753:A2 0.000114791
16 *753:A1 *754:A 0.000395608
17 *753:A1 *851:D 6.27272e-06
18 *753:A1 *852:CLK 7.69776e-06
19 *753:A1 *919:A 7.83659e-05
20 *753:A1 *305:96 0
21 *753:A1 *320:14 0.000268396
22 *226:8 *857:A 2.87555e-06
23 *226:17 *745:B 0.000315152
24 *626:B *749:A2 4.43256e-05
25 *628:B1 *749:A2 2.83284e-06
26 *630:A1 *749:A2 0.000140597
27 *738:B1 *226:8 4.58194e-05
28 *739:A2 *226:8 0.000144773
29 *739:B1 *744:B 0
30 *739:C1 *744:B 0
31 *749:A1 *749:A2 5.36099e-05
32 *878:A *749:A2 6.25005e-05
33 *880:A *753:A1 0.000105361
34 *101:31 *753:A1 2.04825e-05
35 *103:16 *744:B 3.51393e-05
36 *103:16 *753:A1 0.000344617
37 *103:16 *226:8 9.22103e-06
38 *103:16 *226:17 0.000334517
39 *117:12 *226:8 9.46929e-05
*RES
1 *739:X *226:8 14.3714 
2 *226:8 *744:B 10.0321 
3 *226:8 *226:17 3.41071 
4 *226:17 *749:A2 25.3179 
5 *226:17 *753:A1 33.7078 
*END

*D_NET *227 0.00755465
*CONN
*I *749:B1 I *D sky130_fd_sc_hd__a31o_1
*I *743:A_N I *D sky130_fd_sc_hd__nand2b_1
*I *752:A1 I *D sky130_fd_sc_hd__a21o_1
*I *741:Y O *D sky130_fd_sc_hd__nor2_1
*CAP
1 *749:B1 3.40201e-05
2 *743:A_N 0.000521143
3 *752:A1 0.00014101
4 *741:Y 0.000428868
5 *227:27 0.00165556
6 *227:10 0.00167028
7 *743:A_N *743:B 2.66e-05
8 *743:A_N *745:A 0.000111321
9 *743:A_N *747:A 2.42334e-05
10 *743:A_N *754:A 8.27552e-05
11 *743:A_N *849:CLK 0.000100491
12 *743:A_N *849:D 3.18676e-05
13 *743:A_N *915:A 4.00349e-05
14 *743:A_N *316:20 3.36022e-05
15 *752:A1 *742:B 0.000139907
16 *227:10 *741:B 0.000212302
17 *227:10 *754:B 0.000246071
18 *227:10 *923:A 3.17148e-05
19 *227:10 *356:31 0.000151843
20 *227:10 *358:31 0.000106587
21 *227:10 *359:8 5.33005e-05
22 *227:27 *746:B 5.54183e-05
23 *227:27 *752:A2 0
24 *227:27 *852:D 0.000143369
25 *227:27 *358:31 6.95916e-05
26 acc[1] *227:10 7.24849e-05
27 acc[29] *227:10 2.26973e-05
28 *626:A *227:27 1.39841e-05
29 *626:B *743:A_N 0.00014451
30 *626:B *749:B1 5.52238e-05
31 *626:B *227:27 5.74499e-06
32 *628:B1 *227:27 0.000136958
33 *630:A2 *743:A_N 0.000314849
34 *630:B1 *743:A_N 3.99592e-05
35 *749:A2 *749:B1 2.25101e-05
36 *749:A2 *227:27 8.78803e-05
37 *851:RESET_B *227:10 0.000292353
38 *852:RESET_B *227:10 1.08175e-05
39 *852:RESET_B *227:27 2.74561e-05
40 *866:A *227:10 3.01823e-05
41 *879:A *227:10 0.000129335
42 *880:A *743:A_N 2.21972e-05
43 *883:A *743:A_N 9.99952e-06
44 *107:16 *227:27 3.61629e-06
*RES
1 *741:Y *227:10 26.1036 
2 *227:10 *752:A1 15.5679 
3 *227:10 *227:27 19 
4 *227:27 *743:A_N 33.85 
5 *227:27 *749:B1 10.2643 
*END

*D_NET *228 0.00421528
*CONN
*I *751:A1 I *D sky130_fd_sc_hd__o211a_1
*I *749:A3 I *D sky130_fd_sc_hd__a31o_1
*I *743:B I *D sky130_fd_sc_hd__nand2b_1
*I *742:Y O *D sky130_fd_sc_hd__nand2_1
*CAP
1 *751:A1 1.87094e-05
2 *749:A3 6.57811e-05
3 *743:B 0.000449833
4 *742:Y 0.000429535
5 *228:20 0.000756146
6 *228:14 0.000688776
7 *743:B *745:A 0.000329849
8 *743:B *747:A 1.28585e-05
9 *743:B *915:A 1.94945e-05
10 *743:B *316:20 5.42359e-05
11 *749:A3 *232:35 5.6197e-05
12 *751:A1 *751:A2 1.00733e-05
13 *228:14 *742:A 0.000103674
14 *228:14 *746:A 2.77258e-05
15 *228:14 *751:A2 2.44318e-05
16 *228:14 *852:CLK 7.13195e-05
17 *228:14 *852:D 3.09531e-05
18 *228:14 *918:A 9.60939e-05
19 *228:14 *232:35 0
20 *228:14 *354:12 9.71197e-05
21 *228:20 *751:A2 2.89114e-05
22 *228:20 *751:B1 3.30352e-05
23 *228:20 *316:20 8.57597e-06
24 acc[26] *228:14 0
25 *628:B1 *228:14 0
26 *630:A2 *743:B 0.000247317
27 *630:B1 *743:B 6.26774e-06
28 *743:A_N *743:B 2.66e-05
29 *749:A1 *743:B 2.89114e-05
30 *749:A1 *749:A3 0.000120267
31 *749:A1 *228:20 6.57815e-05
32 *849:RESET_B *228:14 0.000179739
33 *883:A *743:B 0.000127068
34 *107:12 *228:14 0
*RES
1 *742:Y *228:14 27.1036 
2 *228:14 *228:20 3.55357 
3 *228:20 *743:B 30.7461 
4 *228:20 *749:A3 19.9429 
5 *228:14 *751:A1 9.72857 
*END

*D_NET *229 0.00142789
*CONN
*I *745:A I *D sky130_fd_sc_hd__xnor2_1
*I *743:Y O *D sky130_fd_sc_hd__nand2b_1
*CAP
1 *745:A 0.000384459
2 *743:Y 0.000384459
3 *745:A *316:20 0.00010519
4 *630:A1 *745:A 7.02611e-05
5 *630:B1 *745:A 4.23491e-05
6 *743:A_N *745:A 0.000111321
7 *743:B *745:A 0.000329849
*RES
1 *743:Y *745:A 26.8679 
*END

*D_NET *230 0.00116833
*CONN
*I *745:B I *D sky130_fd_sc_hd__xnor2_1
*I *744:Y O *D sky130_fd_sc_hd__nand2_1
*CAP
1 *745:B 0.000299005
2 *744:Y 0.000299005
3 *745:B *232:10 0
4 *745:B *320:14 7.6644e-05
5 *749:A2 *745:B 0.000123295
6 *753:A1 *745:B 5.52302e-05
7 *226:17 *745:B 0.000315152
*RES
1 *744:Y *745:B 32.6536 
*END

*D_NET *231 0.00289089
*CONN
*I *752:B1 I *D sky130_fd_sc_hd__a21o_1
*I *751:A2 I *D sky130_fd_sc_hd__o211a_1
*I *748:A_N I *D sky130_fd_sc_hd__and2b_1
*I *746:Y O *D sky130_fd_sc_hd__nor2_1
*CAP
1 *752:B1 0
2 *751:A2 0.00023317
3 *748:A_N 7.0298e-05
4 *746:Y 0.000110203
5 *231:27 0.000438945
6 *231:12 0.000386277
7 *748:A_N *917:A 0.000138881
8 *748:A_N *919:A 9.71197e-05
9 *751:A2 *742:B 6.87574e-05
10 *751:A2 *751:B1 3.51368e-05
11 *751:A2 *753:A2 4.87854e-05
12 *751:A2 *316:20 0.000208135
13 *231:12 *608:A 0.000102196
14 *231:12 *919:A 4.25176e-05
15 *231:27 *608:A 6.8646e-06
16 *231:27 *742:B 5.52238e-05
17 *231:27 *752:A2 0.000331494
18 *231:27 *919:A 0.000187379
19 acc[26] *748:A_N 0.000226507
20 *751:A1 *751:A2 1.00733e-05
21 *849:RESET_B *748:A_N 1.54142e-05
22 *849:RESET_B *231:12 2.41665e-05
23 *228:14 *751:A2 2.44318e-05
24 *228:20 *751:A2 2.89114e-05
*RES
1 *746:Y *231:12 20.5857 
2 *231:12 *748:A_N 11.8893 
3 *231:12 *231:27 14.8214 
4 *231:27 *751:A2 14.8 
5 *231:27 *752:B1 9.3 
*END

*D_NET *232 0.0066027
*CONN
*I *752:A2 I *D sky130_fd_sc_hd__a21o_1
*I *748:B I *D sky130_fd_sc_hd__and2b_1
*I *751:B1 I *D sky130_fd_sc_hd__o211a_1
*I *747:Y O *D sky130_fd_sc_hd__nand2_1
*CAP
1 *752:A2 0.000444189
2 *748:B 0
3 *751:B1 5.78596e-05
4 *747:Y 0.000875819
5 *232:35 0.000896419
6 *232:10 0.00138591
7 *751:B1 *316:20 0.000183726
8 *752:A2 *742:B 5.33005e-05
9 *752:A2 *746:B 0
10 *752:A2 *917:A 4.59075e-05
11 *232:10 *747:B 0.000209219
12 *232:10 *849:CLK 0
13 *232:10 *305:12 0
14 *232:10 *305:66 0
15 *232:10 *305:96 0
16 *232:10 *320:14 2.34204e-05
17 *232:35 *750:A 0.000179628
18 *232:35 *750:B 0.000168074
19 *232:35 *852:CLK 0
20 *232:35 *917:A 1.63337e-05
21 *744:A *232:10 0.000121003
22 *745:B *232:10 0
23 *749:A1 *751:B1 9.41642e-05
24 *749:A1 *232:35 1.21432e-05
25 *749:A2 *232:35 0
26 *749:A3 *232:35 5.6197e-05
27 *751:A2 *751:B1 3.51368e-05
28 *849:RESET_B *752:A2 0.000391
29 *850:RESET_B *232:10 0.000482588
30 *852:RESET_B *752:A2 0.000142316
31 *101:25 *232:10 2.30116e-06
32 *101:31 *232:10 8.23347e-05
33 *101:31 *232:35 3.06466e-05
34 *102:32 *232:10 0.000112186
35 *107:12 *232:35 0.00013635
36 *227:27 *752:A2 0
37 *228:14 *232:35 0
38 *228:20 *751:B1 3.30352e-05
39 *231:27 *752:A2 0.000331494
*RES
1 *747:Y *232:10 27.7286 
2 *232:10 *751:B1 15.9964 
3 *232:10 *232:35 13.2857 
4 *232:35 *748:B 9.3 
5 *232:35 *752:A2 27.8536 
*END

*D_NET *233 0.000541934
*CONN
*I *750:A I *D sky130_fd_sc_hd__xnor2_1
*I *748:X O *D sky130_fd_sc_hd__and2b_1
*CAP
1 *750:A 4.90041e-05
2 *748:X 4.90041e-05
3 *750:A *917:A 0.000242822
4 *107:12 *750:A 2.14757e-05
5 *232:35 *750:A 0.000179628
*RES
1 *748:X *750:A 21.2071 
*END

*D_NET *234 0.000577131
*CONN
*I *750:B I *D sky130_fd_sc_hd__xnor2_1
*I *749:X O *D sky130_fd_sc_hd__a31o_1
*CAP
1 *750:B 8.98613e-05
2 *749:X 8.98613e-05
3 *626:B *750:B 2.89016e-05
4 *628:B1 *750:B 0.000200433
5 *232:35 *750:B 0.000168074
*RES
1 *749:X *750:B 30.3857 
*END

*D_NET *235 0.00163912
*CONN
*I *753:A2 I *D sky130_fd_sc_hd__a21oi_1
*I *751:X O *D sky130_fd_sc_hd__o211a_1
*CAP
1 *753:A2 0.000361952
2 *751:X 0.000361952
3 *753:A2 *611:A 9.58181e-05
4 *753:A2 *741:A 7.80714e-06
5 *753:A2 *742:A 0.000168526
6 *753:A2 *747:B 7.25614e-05
7 *753:A2 *753:B1 0.000242306
8 *753:A2 *851:D 0
9 *753:A2 *919:A 0.000123288
10 *753:A2 *355:10 1.02504e-05
11 *751:A2 *753:A2 4.87854e-05
12 *753:A1 *753:A2 0.000114791
13 *876:A *753:A2 3.10819e-05
*RES
1 *751:X *753:A2 36.6714 
*END

*D_NET *236 0.000702626
*CONN
*I *753:B1 I *D sky130_fd_sc_hd__a21oi_1
*I *752:X O *D sky130_fd_sc_hd__a21o_1
*CAP
1 *753:B1 0.000108832
2 *752:X 0.000108832
3 *753:B1 *741:A 4.56498e-05
4 *753:B1 *919:A 0.000197006
5 *753:A2 *753:B1 0.000242306
*RES
1 *752:X *753:B1 31.3679 
*END

*D_NET *237 0.000566786
*CONN
*I *755:A I *D sky130_fd_sc_hd__xnor2_1
*I *753:Y O *D sky130_fd_sc_hd__a21oi_1
*CAP
1 *755:A 0.000140834
2 *753:Y 0.000140834
3 *755:A *611:A 0.000150632
4 *755:A *755:B 7.77652e-05
5 *755:A *319:16 0
6 *755:A *355:10 5.67206e-05
*RES
1 *753:Y *755:A 31.3143 
*END

*D_NET *238 0.000347225
*CONN
*I *755:B I *D sky130_fd_sc_hd__xnor2_1
*I *754:Y O *D sky130_fd_sc_hd__xnor2_1
*CAP
1 *755:B 0.000104311
2 *754:Y 0.000104311
3 *755:B *611:A 3.69047e-06
4 *755:B *355:10 5.71472e-05
5 *755:A *755:B 7.77652e-05
*RES
1 *754:Y *755:B 20.7964 
*END

*D_NET *239 0.000739487
*CONN
*I *757:B I *D sky130_fd_sc_hd__nor2_1
*I *756:X O *D sky130_fd_sc_hd__and3_1
*CAP
1 *757:B 0.000237962
2 *756:X 0.000237962
3 *757:B *846:D 5.33882e-05
4 *756:B *757:B 9.90431e-05
5 *757:A *757:B 0.000111132
6 *846:RESET_B *757:B 0
*RES
1 *756:X *757:B 32.6179 
*END

*D_NET *240 0.00128417
*CONN
*I *760:A2 I *D sky130_fd_sc_hd__a21bo_1
*I *759:B I *D sky130_fd_sc_hd__xnor2_1
*I *758:Y O *D sky130_fd_sc_hd__nand2_1
*CAP
1 *760:A2 0.00024788
2 *759:B 0
3 *758:Y 7.13644e-05
4 *240:8 0.000319244
5 *760:A2 *618:A 3.4855e-05
6 *760:A2 *618:B 4.46186e-06
7 *760:A2 *352:10 6.01086e-05
8 *760:A2 *352:25 2.16816e-05
9 *760:A2 *370:77 0
10 *240:8 *314:16 4.38511e-05
11 *619:A *760:A2 0.000142818
12 *619:A *240:8 1.02504e-05
13 *625:A *760:A2 4.038e-06
14 *760:A1 *760:A2 0.0001399
15 *104:6 *760:A2 0.000183713
*RES
1 *758:Y *240:8 15.4429 
2 *240:8 *759:B 13.8 
3 *240:8 *760:A2 19.3179 
*END

*D_NET *241 0.000518289
*CONN
*I *762:B I *D sky130_fd_sc_hd__xnor2_1
*I *760:X O *D sky130_fd_sc_hd__a21bo_1
*CAP
1 *762:B 0.000120576
2 *760:X 0.000120576
3 *762:B *617:B 9.80173e-05
4 *762:B *315:12 0.000125731
5 *762:B *349:21 0
6 *762:B *370:91 5.33882e-05
*RES
1 *760:X *762:B 30.1893 
*END

*D_NET *242 0.000575722
*CONN
*I *763:C I *D sky130_fd_sc_hd__and3_1
*I *761:X O *D sky130_fd_sc_hd__a21o_1
*CAP
1 *763:C 0.000231123
2 *761:X 0.000231123
3 *763:C *314:16 0
4 *624:B *763:C 0
5 *626:B *763:C 9.04073e-07
6 *630:A2 *763:C 6.27272e-06
7 *761:B1 *763:C 3.57177e-05
8 *878:A *763:C 6.5185e-05
9 *112:6 *763:C 5.39629e-06
10 *116:10 *763:C 0
*RES
1 *761:X *763:C 31.6714 
*END

*D_NET *243 0.000985646
*CONN
*I *764:B I *D sky130_fd_sc_hd__xor2_1
*I *763:X O *D sky130_fd_sc_hd__and3_1
*CAP
1 *764:B 0.000169253
2 *763:X 0.000169253
3 *764:B *754:A 5.91452e-05
4 *626:B *764:B 0.000478632
5 *764:A *764:B 1.46699e-05
6 *883:A *764:B 9.46929e-05
*RES
1 *763:X *764:B 23.6714 
*END

*D_NET *244 0.000888237
*CONN
*I *767:B I *D sky130_fd_sc_hd__xnor2_1
*I *768:A2 I *D sky130_fd_sc_hd__a21bo_1
*I *766:X O *D sky130_fd_sc_hd__a21bo_1
*CAP
1 *767:B 2.25162e-05
2 *768:A2 8.6003e-05
3 *766:X 0.000193779
4 *244:10 0.000302298
5 *768:A2 *843:D 2.89114e-05
6 *244:10 *843:D 6.74815e-05
7 *244:10 *909:A 0
8 *719:B *767:B 2.89114e-05
9 *719:B *768:A2 0.000126629
10 *726:A *244:10 0
11 *209:16 *244:10 3.17067e-05
12 *214:14 *244:10 0
*RES
1 *766:X *244:10 22.3714 
2 *244:10 *768:A2 11.4786 
3 *244:10 *767:B 9.83571 
*END

*D_NET *245 0.00166877
*CONN
*I *770:A2 I *D sky130_fd_sc_hd__a21bo_1
*I *769:B I *D sky130_fd_sc_hd__xnor2_1
*I *768:X O *D sky130_fd_sc_hd__a21bo_1
*CAP
1 *770:A2 0.000152349
2 *769:B 0.000196643
3 *768:X 0.000134821
4 *245:10 0.000483813
5 *769:B *370:62 4.51611e-05
6 *769:B *370:77 1.92789e-05
7 *770:A2 *603:A 3.99614e-06
8 *770:A2 *370:77 2.77289e-05
9 *245:10 *909:A 5.21676e-05
10 *733:A_N *770:A2 0.000183726
11 *770:B1_N *770:A2 5.52238e-05
12 *844:RESET_B *245:10 1.76039e-05
13 *871:A *769:B 0.000274288
14 *208:10 *245:10 2.19684e-05
15 *209:16 *245:10 0
*RES
1 *768:X *245:10 20.8536 
2 *245:10 *769:B 13.5321 
3 *245:10 *770:A2 12.8536 
*END

*D_NET *246 0.000203779
*CONN
*I *771:B I *D sky130_fd_sc_hd__xnor2_1
*I *770:X O *D sky130_fd_sc_hd__a21bo_1
*CAP
1 *771:B 6.3793e-05
2 *770:X 6.3793e-05
3 *733:A_N *771:B 7.61932e-05
*RES
1 *770:X *771:B 19.9571 
*END

*D_NET *247 0.00201243
*CONN
*I *774:A2 I *D sky130_fd_sc_hd__a21oi_1
*I *775:C I *D sky130_fd_sc_hd__and3_1
*I *772:Y O *D sky130_fd_sc_hd__nand2_1
*CAP
1 *774:A2 8.3994e-05
2 *775:C 0.000192449
3 *772:Y 0.000495195
4 *247:6 0.000771639
5 *774:A2 *248:10 3.93893e-05
6 *775:C *709:B 6.63225e-05
7 *699:B1 *774:A2 1.02504e-05
8 *711:A1 *247:6 7.27282e-05
9 *711:B1 *775:C 4.70078e-05
10 *711:B1 *247:6 0.000100639
11 *772:A *247:6 2.976e-05
12 *772:B *247:6 0.000103057
*RES
1 *772:Y *247:6 15.9964 
2 *247:6 *775:C 11.7732 
3 *247:6 *774:A2 19.9429 
*END

*D_NET *248 0.00201662
*CONN
*I *776:A I *D sky130_fd_sc_hd__nor2_1
*I *777:B1 I *D sky130_fd_sc_hd__a21o_1
*I *774:Y O *D sky130_fd_sc_hd__a21oi_1
*CAP
1 *776:A 0.000215773
2 *777:B1 9.27431e-05
3 *774:Y 0.000217804
4 *248:10 0.00052632
5 *776:A *708:A 7.83462e-05
6 *776:A *709:A 1.17968e-05
7 *776:A *341:6 8.25114e-05
8 *776:A *373:19 1.98839e-05
9 *776:A *374:12 1.92789e-05
10 *777:B1 *714:A1 0
11 *777:B1 *341:6 7.02611e-05
12 *777:B1 *341:14 3.32774e-05
13 *777:B1 *373:19 5.96516e-05
14 *248:10 *709:A 3.04495e-05
15 *248:10 *776:B 0.00012401
16 *248:10 *839:CLK 3.51442e-05
17 *248:10 *839:D 0
18 *699:B1 *248:10 0
19 *710:A *776:A 5.33005e-05
20 *710:A *777:B1 5.33005e-05
21 *710:B *776:A 3.34366e-05
22 *774:A1 *248:10 9.23676e-05
23 *774:A2 *248:10 3.93893e-05
24 *854:A *776:A 5.52238e-05
25 *898:A *776:A 0
26 *195:14 *248:10 7.23482e-05
*RES
1 *774:Y *248:10 23.5857 
2 *248:10 *777:B1 11.4964 
3 *248:10 *776:A 23.1571 
*END

*D_NET *249 0.000972217
*CONN
*I *776:B I *D sky130_fd_sc_hd__nor2_1
*I *775:X O *D sky130_fd_sc_hd__and3_1
*CAP
1 *776:B 0.000197072
2 *775:X 0.000197072
3 *776:B *708:A 0.000141382
4 *776:B *708:B 1.69115e-05
5 *776:B *709:A 0.000168939
6 *711:B1 *776:B 5.17614e-05
7 *195:8 *776:B 6.42338e-05
8 *195:14 *776:B 1.08359e-05
9 *248:10 *776:B 0.00012401
*RES
1 *775:X *776:B 32.6179 
*END

*D_NET *250 0.00137629
*CONN
*I *778:B I *D sky130_fd_sc_hd__xnor2_1
*I *779:A2 I *D sky130_fd_sc_hd__a21bo_1
*I *777:X O *D sky130_fd_sc_hd__a21o_1
*CAP
1 *778:B 0
2 *779:A2 7.06478e-05
3 *777:X 0.000301084
4 *250:14 0.000371732
5 *779:A2 *343:14 0.000105163
6 *250:14 *599:A 0
7 *250:14 *708:A 0
8 *250:14 *708:B 0.000125731
9 *250:14 *839:D 0.000175519
10 *250:14 *343:6 3.98547e-05
11 *250:14 *343:14 7.43578e-06
12 *250:14 *370:27 0
13 *250:14 *373:19 5.33005e-05
14 *706:A *250:14 7.252e-05
15 *778:A *250:14 5.33005e-05
*RES
1 *777:X *250:14 24.675 
2 *250:14 *779:A2 11.0679 
3 *250:14 *778:B 9.3 
*END

*D_NET *251 0.000262034
*CONN
*I *780:B I *D sky130_fd_sc_hd__xnor2_1
*I *779:X O *D sky130_fd_sc_hd__a21bo_1
*CAP
1 *780:B 6.49001e-05
2 *779:X 6.49001e-05
3 *780:B *343:40 7.73758e-05
4 *715:C1 *780:B 5.48581e-05
*RES
1 *779:X *780:B 29.5464 
*END

*D_NET *252 0.0023422
*CONN
*I *783:B I *D sky130_fd_sc_hd__xnor2_1
*I *784:A2 I *D sky130_fd_sc_hd__a21bo_1
*I *782:X O *D sky130_fd_sc_hd__a21bo_1
*CAP
1 *783:B 0
2 *784:A2 0.000147155
3 *782:X 0.000301456
4 *252:12 0.000448612
5 *784:A2 *683:A 0.000171023
6 *784:A2 *350:12 8.54775e-05
7 *252:12 *686:A 0.00012401
8 *252:12 *302:6 0.000257411
9 *252:12 *302:10 9.41642e-05
10 *684:B *784:A2 0.000437567
11 *699:B1 *252:12 0.00012401
12 *783:A *784:A2 9.41642e-05
13 *784:A1 *784:A2 5.71472e-05
*RES
1 *782:X *252:12 23.3536 
2 *252:12 *784:A2 15.175 
3 *252:12 *783:B 9.3 
*END

*D_NET *253 0.00157701
*CONN
*I *786:A2 I *D sky130_fd_sc_hd__a21bo_1
*I *785:B I *D sky130_fd_sc_hd__xnor2_1
*I *784:X O *D sky130_fd_sc_hd__a21bo_1
*CAP
1 *786:A2 5.90925e-05
2 *785:B 0.000166148
3 *784:X 0.000238242
4 *253:8 0.000463483
5 *785:B *836:CLK 9.25014e-06
6 *785:B *837:D 5.26091e-05
7 *786:A2 *332:12 0.000315165
8 *253:8 *787:B 0
9 *253:8 *837:D 5.26184e-05
10 *253:8 *862:A 0
11 *253:8 *903:A 0
12 *785:A *785:B 4.94418e-05
13 *785:A *786:A2 0.000170964
14 *892:A *785:B 0
15 *35:15 *253:8 0
16 *169:21 *253:8 0
*RES
1 *784:X *253:8 18.175 
2 *253:8 *785:B 17.55 
3 *253:8 *786:A2 16.8 
*END

*D_NET *254 0.000372896
*CONN
*I *787:B I *D sky130_fd_sc_hd__xnor2_1
*I *786:X O *D sky130_fd_sc_hd__a21bo_1
*CAP
1 *787:B 0.000131335
2 *786:X 0.000131335
3 *787:B *837:D 7.83587e-05
4 *787:B *862:A 0
5 *787:B *332:12 3.18676e-05
6 *253:8 *787:B 0
*RES
1 *786:X *787:B 29.7786 
*END

*D_NET *255 0.00143902
*CONN
*I *789:B I *D sky130_fd_sc_hd__and2_1
*I *788:Y O *D sky130_fd_sc_hd__nand3_1
*CAP
1 *789:B 0.000465214
2 *788:Y 0.000465214
3 *679:A2 *789:B 0.000113073
4 *679:C1 *789:B 3.4879e-05
5 *164:21 *789:B 2.89016e-05
6 *165:10 *789:B 0.000327601
7 *166:18 *789:B 4.1331e-06
*RES
1 *788:Y *789:B 35.1714 
*END

*D_NET *256 0.00162002
*CONN
*I *791:B I *D sky130_fd_sc_hd__xnor2_1
*I *792:A2 I *D sky130_fd_sc_hd__a21bo_1
*I *790:Y O *D sky130_fd_sc_hd__nand2_1
*CAP
1 *791:B 0
2 *792:A2 0.000121181
3 *790:Y 0.000117991
4 *256:12 0.000239172
5 *792:A2 *368:56 9.71197e-05
6 *792:A2 *368:65 5.33005e-05
7 *256:12 *597:A 0
8 *644:B *792:A2 9.31893e-05
9 *644:B *256:12 1.69961e-05
10 *644:C *256:12 5.52302e-05
11 *684:B *792:A2 0.000442353
12 *684:B *256:12 0.000192286
13 *790:A *256:12 3.51442e-05
14 *791:A *256:12 5.52238e-05
15 *134:18 *256:12 0.000100831
*RES
1 *790:Y *256:12 21.9071 
2 *256:12 *792:A2 13.5321 
3 *256:12 *791:B 9.3 
*END

*D_NET *257 0.00216962
*CONN
*I *794:A2 I *D sky130_fd_sc_hd__a21bo_1
*I *793:B I *D sky130_fd_sc_hd__xnor2_1
*I *792:X O *D sky130_fd_sc_hd__a21bo_1
*CAP
1 *794:A2 0.000268391
2 *793:B 0.0001069
3 *792:X 4.28636e-05
4 *257:8 0.000418154
5 *794:A2 *639:A 0.000131523
6 *794:A2 *331:22 8.1629e-05
7 *257:8 *639:A 0.000153563
8 *640:B *794:A2 0.000196908
9 *793:A *793:B 0.000101592
10 *794:A1 *794:A2 0.000166003
11 *836:RESET_B *794:A2 0.00020273
12 *894:A *257:8 0.000115369
13 *125:10 *794:A2 9.39217e-05
14 *125:10 *257:8 1.20729e-05
15 *125:18 *794:A2 7.80024e-05
*RES
1 *792:X *257:8 15.7464 
2 *257:8 *793:B 16.1036 
3 *257:8 *794:A2 22.2286 
*END

*D_NET *258 0.00122375
*CONN
*I *795:B I *D sky130_fd_sc_hd__xnor2_1
*I *794:X O *D sky130_fd_sc_hd__a21bo_1
*CAP
1 *795:B 0.000194685
2 *794:X 0.000194685
3 *795:B *638:B 0.000158621
4 *795:B *900:A 0.000175818
5 *795:B *331:22 0.000260895
6 *795:B *368:56 9.60939e-05
7 *794:A1 *795:B 3.48139e-05
8 *891:A *795:B 1.20417e-05
9 *893:A *795:B 9.60939e-05
*RES
1 *794:X *795:B 33.4571 
*END

*D_NET *259 0.0025921
*CONN
*I *798:A I *D sky130_fd_sc_hd__and2_1
*I *800:C I *D sky130_fd_sc_hd__nand3_1
*I *799:A2 I *D sky130_fd_sc_hd__a21o_1
*I *796:X O *D sky130_fd_sc_hd__or2_1
*CAP
1 *798:A 9.47548e-05
2 *800:C 0.000363856
3 *799:A2 6.97818e-05
4 *796:X 0
5 *259:12 0.000638287
6 *259:4 0.000299404
7 *798:A *798:B 0.000139491
8 *798:A *930:A 5.7661e-06
9 *798:A *324:14 1.74352e-05
10 *799:A2 *326:14 5.80706e-06
11 *800:C *801:B 5.52302e-05
12 *800:C *802:A2 0.000245011
13 *800:C *805:B1 7.48301e-06
14 *800:C *925:A 1.89717e-05
15 *800:C *930:A 9.85272e-05
16 *259:12 *798:B 1.98839e-05
17 *259:12 *930:A 0.000155115
18 *259:12 *326:14 0.000118982
19 acc[4] *800:C 2.18269e-05
20 acc[9] *798:A 9.90431e-05
21 *796:A *798:A 1.73088e-05
22 *154:18 *800:C 7.32272e-05
23 *159:29 *799:A2 2.62984e-05
24 *159:29 *800:C 6.057e-07
*RES
1 *796:X *259:4 9.3 
2 *259:4 *259:12 8.08036 
3 *259:12 *799:A2 14.9161 
4 *259:12 *800:C 21.6839 
5 *259:4 *798:A 11.925 
*END

*D_NET *260 0.00175093
*CONN
*I *798:B I *D sky130_fd_sc_hd__and2_1
*I *797:Y O *D sky130_fd_sc_hd__nand2_1
*CAP
1 *798:B 0.000496879
2 *797:Y 0.000496879
3 *798:B *924:A 0.000222244
4 *798:B *324:14 2.28598e-05
5 *798:B *326:14 0.000141782
6 *796:A *798:B 2.84026e-05
7 *797:B *798:B 6.06132e-05
8 *798:A *798:B 0.000139491
9 *824:RESET_B *798:B 4.46186e-06
10 *886:A *798:B 0.000117429
11 *259:12 *798:B 1.98839e-05
*RES
1 *797:Y *798:B 36.6714 
*END

*D_NET *261 0.00312977
*CONN
*I *802:A2 I *D sky130_fd_sc_hd__a21oi_1
*I *801:A I *D sky130_fd_sc_hd__and2_1
*I *803:C I *D sky130_fd_sc_hd__and3_1
*I *799:X O *D sky130_fd_sc_hd__a21o_1
*CAP
1 *802:A2 0.00027576
2 *801:A 0
3 *803:C 0.000279816
4 *799:X 0
5 *261:10 0.000412469
6 *261:4 0.000408413
7 *802:A2 *668:A 0
8 *802:A2 *805:B1 2.61099e-05
9 *803:C *801:B 0.000123295
10 *803:C *804:A 3.04495e-05
11 *803:C *827:CLK 4.30304e-05
12 *261:10 *801:B 1.02504e-05
13 acc[4] *802:A2 7.43578e-06
14 *799:B1 *802:A2 5.62995e-05
15 *799:B1 *261:10 3.14193e-05
16 *800:B *803:C 0.000168939
17 *800:B *261:10 4.49293e-05
18 *800:C *802:A2 0.000245011
19 *802:B1 *803:C 0.000208368
20 *803:B *803:C 1.67506e-05
21 *827:RESET_B *802:A2 2.60984e-05
22 *149:12 *803:C 6.47668e-05
23 *154:12 *802:A2 0.000137983
24 *154:12 *803:C 1.18358e-05
25 *154:12 *261:10 4.8476e-05
26 *157:20 *261:10 0.000103267
27 *159:10 *802:A2 0.000222885
28 *159:29 *802:A2 0.000125717
*RES
1 *799:X *261:4 9.3 
2 *261:4 *261:10 7.39286 
3 *261:10 *803:C 20.3536 
4 *261:10 *801:A 13.8 
5 *261:4 *802:A2 25.8179 
*END

*D_NET *262 0.000553781
*CONN
*I *801:B I *D sky130_fd_sc_hd__and2_1
*I *800:Y O *D sky130_fd_sc_hd__nand3_1
*CAP
1 *801:B 0.000130131
2 *800:Y 0.000130131
3 *801:B *826:CLK 5.59013e-05
4 *800:B *801:B 6.05161e-06
5 *800:C *801:B 5.52302e-05
6 *803:C *801:B 0.000123295
7 *154:12 *801:B 3.25078e-05
8 *154:18 *801:B 1.02821e-05
9 *261:10 *801:B 1.02504e-05
*RES
1 *800:Y *801:B 30.1893 
*END

*D_NET *263 0.0058081
*CONN
*I *805:B1 I *D sky130_fd_sc_hd__a21oi_1
*I *804:A I *D sky130_fd_sc_hd__nor2_1
*I *802:Y O *D sky130_fd_sc_hd__a21oi_1
*CAP
1 *805:B1 0.000822252
2 *804:A 0.000597512
3 *802:Y 0
4 *263:4 0.00141976
5 *804:A *824:CLK 0.00012695
6 *804:A *827:CLK 2.69485e-05
7 *804:A *303:99 2.26327e-05
8 *804:A *324:35 4.15526e-05
9 *805:B1 *805:A2 2.44318e-05
10 *805:B1 *364:35 0.000281403
11 acc[11] *805:B1 2.71447e-05
12 acc[4] *805:B1 5.52238e-05
13 acc[6] *805:B1 0.000557578
14 *674:B1 *804:A 1.10866e-05
15 *674:B2 *804:A 0.000185526
16 *675:B1 *805:B1 0.000192427
17 *676:B1 *805:B1 0
18 *799:B1 *804:A 0.000151333
19 *800:A *804:A 0.000242906
20 *800:B *804:A 0.000216297
21 *800:C *805:B1 7.48301e-06
22 *802:A2 *805:B1 2.61099e-05
23 *803:B *804:A 9.25014e-06
24 *803:C *804:A 3.04495e-05
25 *881:A *804:A 0
26 *145:26 *804:A 0.000102638
27 *148:14 *804:A 0.000192505
28 *154:18 *804:A 7.02611e-05
29 *154:18 *805:B1 5.33433e-05
30 *157:20 *804:A 0.000213635
31 *159:10 *805:B1 9.94569e-05
32 *159:29 *804:A 0
*RES
1 *802:Y *263:4 9.3 
2 *263:4 *804:A 32.5321 
3 *263:4 *805:B1 33.3714 
*END

*D_NET *264 0.00317253
*CONN
*I *804:B I *D sky130_fd_sc_hd__nor2_1
*I *803:X O *D sky130_fd_sc_hd__and3_1
*CAP
1 *804:B 0.000604886
2 *803:X 0.000604886
3 *804:B *651:A 2.97341e-05
4 *804:B *664:B 5.52238e-05
5 *804:B *824:CLK 0.000444951
6 *804:B *827:CLK 0.000261934
7 *804:B *303:99 0.000304915
8 *804:B *360:30 9.8045e-05
9 *659:B1 *804:B 0.000121165
10 *665:B *804:B 7.69848e-05
11 *674:C1 *804:B 0.000317594
12 *676:B1 *804:B 0.000143834
13 *826:RESET_B *804:B 0.00010838
14 *881:A *804:B 0
*RES
1 *803:X *804:B 43.5286 
*END

*D_NET *265 0.00200055
*CONN
*I *806:B I *D sky130_fd_sc_hd__xnor2_1
*I *805:Y O *D sky130_fd_sc_hd__a21oi_1
*CAP
1 *806:B 0.000330482
2 *805:Y 0.000330482
3 *806:B *805:A1 0.000443429
4 *806:B *927:A 2.11419e-05
5 *806:B *327:16 0.000344869
6 acc[11] *806:B 7.48033e-05
7 *889:A *806:B 0.000413402
8 *152:16 *806:B 4.19409e-05
*RES
1 *805:Y *806:B 37.4415 
*END

*D_NET *266 0.000701542
*CONN
*I *809:B I *D sky130_fd_sc_hd__nor2_1
*I *808:X O *D sky130_fd_sc_hd__o21a_1
*CAP
1 *809:B 0.00017324
2 *808:X 0.00017324
3 *658:C *809:B 0.000141985
4 *137:18 *809:B 5.04589e-05
5 *145:8 *809:B 0.00012073
6 *145:26 *809:B 4.18895e-05
*RES
1 *808:X *809:B 22.85 
*END

*D_NET *267 0.00039947
*CONN
*I *811:B I *D sky130_fd_sc_hd__xnor2_1
*I *810:Y O *D sky130_fd_sc_hd__nor2_1
*CAP
1 *811:B 0.000199735
2 *810:Y 0.000199735
3 *811:B *332:30 0
4 *811:A *811:B 0
5 *145:26 *811:B 0
*RES
1 *810:Y *811:B 30.9036 
*END

*D_NET *268 0.00161679
*CONN
*I *813:B I *D sky130_fd_sc_hd__and2_1
*I *812:X O *D sky130_fd_sc_hd__or2_1
*CAP
1 *813:B 0.000589758
2 *812:X 0.000589758
3 *813:B *823:CLK 0
4 *813:B *853:CLK 1.1979e-05
5 *813:B *853:D 0.000271648
6 *813:B *305:14 0
7 *813:B *305:38 3.61629e-06
8 *813:B *319:16 0.000148182
9 *853:RESET_B *813:B 1.84523e-06
*RES
1 *812:X *813:B 36.2429 
*END

*D_NET *269 0.000334309
*CONN
*I *822:D I *D sky130_fd_sc_hd__dfrtp_1
*I *813:X O *D sky130_fd_sc_hd__and2_1
*CAP
1 *822:D 5.40167e-05
2 *813:X 5.40167e-05
3 *822:D *333:31 8.63686e-05
4 *141:10 *822:D 0.000139907
*RES
1 *813:X *822:D 20.3679 
*END

*D_NET *270 0.000697066
*CONN
*I *823:D I *D sky130_fd_sc_hd__dfrtp_1
*I *807:Y O *D sky130_fd_sc_hd__xnor2_1
*CAP
1 *823:D 0.000179349
2 *807:Y 0.000179349
3 *823:D *823:CLK 5.5782e-05
4 *657:B1 *823:D 2.89016e-05
5 *807:B *823:D 9.60875e-05
6 *139:12 *823:D 0
7 *143:18 *823:D 2.77289e-05
8 *144:10 *823:D 0.000129868
*RES
1 *807:Y *823:D 31.725 
*END

*D_NET *271 0.000936717
*CONN
*I *824:D I *D sky130_fd_sc_hd__dfrtp_1
*I *809:Y O *D sky130_fd_sc_hd__nor2_1
*CAP
1 *824:D 0.000278953
2 *809:Y 0.000278953
3 *824:D *650:A 0.000226512
4 *824:D *651:A 0.00010096
5 *659:B1 *824:D 2.56694e-05
6 *145:26 *824:D 2.56694e-05
*RES
1 *809:Y *824:D 31.9616 
*END

*D_NET *272 0.00115957
*CONN
*I *825:D I *D sky130_fd_sc_hd__dfrtp_4
*I *811:Y O *D sky130_fd_sc_hd__xnor2_1
*CAP
1 *825:D 0.000526558
2 *811:Y 0.000526558
3 *825:D *301:8 0.000106455
4 *825:D *301:12 0
5 *825:RESET_B *825:D 0
*RES
1 *811:Y *825:D 34.4036 
*END

*D_NET *273 0.00112765
*CONN
*I *826:D I *D sky130_fd_sc_hd__dfrtp_1
*I *798:X O *D sky130_fd_sc_hd__and2_1
*CAP
1 *826:D 0.00024801
2 *798:X 0.00024801
3 *826:D *670:A 0
4 *826:D *928:A 0.000197991
5 *826:D *930:A 0.000308437
6 acc[9] *826:D 9.54798e-06
7 *826:RESET_B *826:D 0.000115651
8 *827:RESET_B *826:D 0
*RES
1 *798:X *826:D 33.85 
*END

*D_NET *274 0.000924574
*CONN
*I *827:D I *D sky130_fd_sc_hd__dfrtp_1
*I *801:X O *D sky130_fd_sc_hd__and2_1
*CAP
1 *827:D 0.000193487
2 *801:X 0.000193487
3 *802:B1 *827:D 5.22817e-05
4 *826:RESET_B *827:D 5.33005e-05
5 *154:12 *827:D 0.000125724
6 *159:10 *827:D 0.000306294
*RES
1 *801:X *827:D 32.2071 
*END

*D_NET *275 0.00412029
*CONN
*I *828:D I *D sky130_fd_sc_hd__dfrtp_1
*I *804:Y O *D sky130_fd_sc_hd__nor2_1
*CAP
1 *828:D 0.000944171
2 *804:Y 0.000944171
3 *828:D *651:A 0.000227539
4 *828:D *360:10 5.7616e-05
5 *828:D *360:14 0.000196786
6 *659:B1 *828:D 2.46999e-05
7 *665:B *828:D 0.000608964
8 *677:B1 *828:D 1.59782e-05
9 *829:RESET_B *828:D 0.000469836
10 *138:16 *828:D 3.92854e-05
11 *152:16 *828:D 0.000591244
*RES
1 *804:Y *828:D 48.6893 
*END

*D_NET *276 0.000629131
*CONN
*I *829:D I *D sky130_fd_sc_hd__dfrtp_1
*I *806:Y O *D sky130_fd_sc_hd__xnor2_1
*CAP
1 *829:D 0.000170028
2 *806:Y 0.000170028
3 *829:D *663:A 1.84523e-06
4 *829:D *364:27 0.000122091
5 acc[11] *829:D 1.02504e-05
6 *675:B1 *829:D 0
7 *676:B1 *829:D 3.58233e-05
8 *829:RESET_B *829:D 0.000119065
9 *887:A *829:D 0
*RES
1 *806:Y *829:D 31.725 
*END

*D_NET *277 0.00039375
*CONN
*I *830:D I *D sky130_fd_sc_hd__dfrtp_1
*I *789:X O *D sky130_fd_sc_hd__and2_1
*CAP
1 *830:D 0.00017172
2 *789:X 0.00017172
3 *830:D *597:A 0
4 *830:D *830:CLK 7.43578e-06
5 *830:D *303:73 1.39726e-05
6 *166:18 *830:D 2.89016e-05
*RES
1 *789:X *830:D 30.3143 
*END

*D_NET *278 0.000608589
*CONN
*I *831:D I *D sky130_fd_sc_hd__dfrtp_1
*I *791:Y O *D sky130_fd_sc_hd__xnor2_1
*CAP
1 *831:D 0.00016477
2 *791:Y 0.00016477
3 *831:D *831:CLK 5.33005e-05
4 *831:D *303:20 0.000103267
5 *889:A *831:D 9.45735e-05
6 *130:10 *831:D 2.79092e-05
*RES
1 *791:Y *831:D 31.1179 
*END

*D_NET *279 0.00156353
*CONN
*I *832:D I *D sky130_fd_sc_hd__dfrtp_1
*I *793:Y O *D sky130_fd_sc_hd__xnor2_1
*CAP
1 *832:D 0.000435055
2 *793:Y 0.000435055
3 *832:D *688:A 5.65955e-05
4 *832:D *905:A 6.46738e-05
5 *832:D *340:33 9.91086e-05
6 *832:D *340:50 1.14416e-05
7 *832:D *372:27 4.17433e-05
8 *691:A *832:D 8.50869e-05
9 *698:A1 *832:D 7.44423e-05
10 *698:A2 *832:D 5.09271e-05
11 *698:B2 *832:D 8.49858e-05
12 *793:A *832:D 0
13 *174:20 *832:D 9.33298e-05
14 *180:10 *832:D 3.10885e-05
*RES
1 *793:Y *832:D 36.6714 
*END

*D_NET *280 0.00159701
*CONN
*I *833:D I *D sky130_fd_sc_hd__dfrtp_1
*I *795:Y O *D sky130_fd_sc_hd__xnor2_1
*CAP
1 *833:D 0.000378217
2 *795:Y 0.000378217
3 *833:D *634:B 0.000149911
4 *833:D *636:A 7.83587e-05
5 *833:D *833:CLK 4.4679e-05
6 *833:D *303:22 0
7 *637:B *833:D 1.34792e-05
8 *646:B1 *833:D 0.000177948
9 *680:B1 *833:D 0
10 *795:A *833:D 9.90431e-05
11 *888:A *833:D 0.000136233
12 *121:8 *833:D 5.52238e-05
13 *124:21 *833:D 8.57023e-05
*RES
1 *795:Y *833:D 35.5687 
*END

*D_NET *281 0.000575196
*CONN
*I *834:D I *D sky130_fd_sc_hd__dfrtp_1
*I *781:X O *D sky130_fd_sc_hd__xor2_1
*CAP
1 *834:D 0.000146902
2 *781:X 0.000146902
3 *834:D *838:CLK 1.8409e-05
4 *834:D *336:14 8.75306e-05
5 *697:A1 *834:D 3.88131e-05
6 *125:10 *834:D 6.92486e-05
7 *166:18 *834:D 1.24368e-05
8 *168:6 *834:D 5.49544e-05
*RES
1 *781:X *834:D 30.9036 
*END

*D_NET *282 0.000598201
*CONN
*I *835:D I *D sky130_fd_sc_hd__dfrtp_1
*I *783:Y O *D sky130_fd_sc_hd__xnor2_1
*CAP
1 *835:D 0.000157083
2 *783:Y 0.000157083
3 *835:D *682:B 7.6644e-05
4 *835:D *368:132 6.74911e-05
5 *684:B *835:D 0.0001399
*RES
1 *783:Y *835:D 30.6 
*END

*D_NET *283 0.000453586
*CONN
*I *836:D I *D sky130_fd_sc_hd__dfrtp_1
*I *785:Y O *D sky130_fd_sc_hd__xnor2_1
*CAP
1 *836:D 0.000196598
2 *785:Y 0.000196598
3 *836:D *836:CLK 0
4 *892:A *836:D 6.03908e-05
*RES
1 *785:Y *836:D 30.7964 
*END

*D_NET *284 0.000627661
*CONN
*I *837:D I *D sky130_fd_sc_hd__dfrtp_1
*I *787:Y O *D sky130_fd_sc_hd__xnor2_1
*CAP
1 *837:D 0.000212398
2 *787:Y 0.000212398
3 *837:D *862:A 0
4 *837:D *904:A 1.92789e-05
5 *785:B *837:D 5.26091e-05
6 *787:A *837:D 0
7 *787:B *837:D 7.83587e-05
8 *178:14 *837:D 0
9 *253:8 *837:D 5.26184e-05
*RES
1 *787:Y *837:D 31.9036 
*END

*D_NET *285 0.000423104
*CONN
*I *838:D I *D sky130_fd_sc_hd__dfrtp_1
*I *773:X O *D sky130_fd_sc_hd__xor2_1
*CAP
1 *838:D 7.53864e-05
2 *773:X 7.53864e-05
3 *838:D *838:CLK 7.64988e-05
4 *838:D *341:6 1.02911e-05
5 *773:A *838:D 0.000185541
*RES
1 *773:X *838:D 21.1 
*END

*D_NET *286 0.00186037
*CONN
*I *839:D I *D sky130_fd_sc_hd__dfrtp_1
*I *776:Y O *D sky130_fd_sc_hd__nor2_1
*CAP
1 *839:D 0.000316645
2 *776:Y 0.000316645
3 *839:D *701:A 0
4 *839:D *708:A 0.000144773
5 *839:D *708:B 9.62614e-05
6 *839:D *709:B 0.000147325
7 *839:D *839:CLK 4.1331e-06
8 *839:D *374:12 0.000238435
9 *706:A *839:D 6.0038e-05
10 *707:B *839:D 0.000145907
11 *774:A1 *839:D 6.39901e-05
12 *774:B1 *839:D 0.000126446
13 *839:RESET_B *839:D 0
14 *854:A *839:D 2.42516e-05
15 *248:10 *839:D 0
16 *250:14 *839:D 0.000175519
*RES
1 *776:Y *839:D 37.7964 
*END

*D_NET *287 0.00101542
*CONN
*I *840:D I *D sky130_fd_sc_hd__dfrtp_1
*I *778:Y O *D sky130_fd_sc_hd__xnor2_1
*CAP
1 *840:D 0.000342087
2 *778:Y 0.000342087
3 *840:D *343:6 2.27416e-05
4 *840:D *370:12 0.00018905
5 *840:RESET_B *840:D 0.000119459
*RES
1 *778:Y *840:D 26.1357 
*END

*D_NET *288 0.00255772
*CONN
*I *841:D I *D sky130_fd_sc_hd__dfrtp_1
*I *780:Y O *D sky130_fd_sc_hd__xnor2_1
*CAP
1 *841:D 0.000969089
2 *780:Y 0.000969089
3 *841:D *841:CLK 8.64516e-06
4 *841:D *344:10 0.000575092
5 *841:D *370:31 1.39726e-05
6 *841:RESET_B *841:D 2.18327e-05
*RES
1 *780:Y *841:D 30.6893 
*END

*D_NET *289 0.000824495
*CONN
*I *842:D I *D sky130_fd_sc_hd__dfrtp_1
*I *765:Y O *D sky130_fd_sc_hd__xnor2_1
*CAP
1 *842:D 0.000258406
2 *765:Y 0.000258406
3 *842:D *842:CLK 3.17465e-05
4 *842:D *304:19 7.6644e-05
5 *842:D *304:28 2.89114e-05
6 *732:A *842:D 9.37376e-05
7 *218:14 *842:D 7.6644e-05
*RES
1 *765:Y *842:D 31.408 
*END

*D_NET *290 0.000321909
*CONN
*I *843:D I *D sky130_fd_sc_hd__dfrtp_1
*I *767:Y O *D sky130_fd_sc_hd__xnor2_1
*CAP
1 *843:D 0.000112758
2 *767:Y 0.000112758
3 *843:D *909:A 0
4 *768:A2 *843:D 2.89114e-05
5 *244:10 *843:D 6.74815e-05
*RES
1 *767:Y *843:D 29.7786 
*END

*D_NET *291 0.000775739
*CONN
*I *844:D I *D sky130_fd_sc_hd__dfrtp_1
*I *769:Y O *D sky130_fd_sc_hd__xnor2_1
*CAP
1 *844:D 0.000197356
2 *769:Y 0.000197356
3 *844:D *720:B 9.93235e-05
4 *844:D *908:A 5.26091e-05
5 *844:D *912:A 0
6 *769:A *844:D 0.0001863
7 *844:RESET_B *844:D 4.27935e-05
*RES
1 *769:Y *844:D 32.9571 
*END

*D_NET *292 0.000959744
*CONN
*I *845:D I *D sky130_fd_sc_hd__dfrtp_1
*I *771:Y O *D sky130_fd_sc_hd__xnor2_1
*CAP
1 *845:D 0.000301977
2 *771:Y 0.000301977
3 *845:D *304:84 0
4 *725:B *845:D 0.00017676
5 *212:18 *845:D 0.000179031
*RES
1 *771:Y *845:D 33.4929 
*END

*D_NET *293 0.00043516
*CONN
*I *846:D I *D sky130_fd_sc_hd__dfrtp_1
*I *757:Y O *D sky130_fd_sc_hd__nor2_1
*CAP
1 *846:D 0.00016208
2 *757:Y 0.00016208
3 *846:D *605:A 5.76121e-05
4 *757:B *846:D 5.33882e-05
5 *846:RESET_B *846:D 0
*RES
1 *757:Y *846:D 30.2964 
*END

*D_NET *294 0.000982516
*CONN
*I *847:D I *D sky130_fd_sc_hd__dfrtp_1
*I *759:Y O *D sky130_fd_sc_hd__xnor2_1
*CAP
1 *847:D 0.000458202
2 *759:Y 0.000458202
3 *847:D *304:69 2.59355e-05
4 *847:D *352:10 4.01768e-05
*RES
1 *759:Y *847:D 26.5464 
*END

*D_NET *295 0.000734718
*CONN
*I *848:D I *D sky130_fd_sc_hd__dfrtp_1
*I *762:Y O *D sky130_fd_sc_hd__xnor2_1
*CAP
1 *848:D 0.000212778
2 *762:Y 0.000212778
3 *848:D *370:97 3.2534e-05
4 acc[25] *848:D 5.01213e-05
5 *762:A *848:D 0.000226507
*RES
1 *762:Y *848:D 31.1179 
*END

*D_NET *296 0.000827411
*CONN
*I *849:D I *D sky130_fd_sc_hd__dfrtp_1
*I *764:X O *D sky130_fd_sc_hd__xor2_1
*CAP
1 *849:D 0.000175662
2 *764:X 0.000175662
3 *849:D *849:CLK 0.000287842
4 *849:D *316:20 0
5 *849:D *353:34 7.79781e-06
6 *849:D *354:12 0.000145753
7 *626:B *849:D 2.8266e-06
8 *743:A_N *849:D 3.18676e-05
*RES
1 *764:X *849:D 31.9036 
*END

*D_NET *297 0.000554492
*CONN
*I *850:D I *D sky130_fd_sc_hd__dfrtp_1
*I *740:Y O *D sky130_fd_sc_hd__xnor2_1
*CAP
1 *850:D 0.000182722
2 *740:Y 0.000182722
3 *850:D *850:CLK 7.77751e-05
4 *850:D *915:A 1.32552e-05
5 *740:A *850:D 9.80173e-05
*RES
1 *740:Y *850:D 22.0286 
*END

*D_NET *298 0.00108541
*CONN
*I *851:D I *D sky130_fd_sc_hd__dfrtp_1
*I *745:Y O *D sky130_fd_sc_hd__xnor2_1
*CAP
1 *851:D 0.000324021
2 *745:Y 0.000324021
3 *851:D *742:A 3.69697e-05
4 *851:D *852:CLK 3.71847e-05
5 *851:D *305:96 2.83284e-06
6 *851:D *316:20 0.000354111
7 *753:A1 *851:D 6.27272e-06
8 *753:A2 *851:D 0
*RES
1 *745:Y *851:D 32.6536 
*END

*D_NET *299 0.000585214
*CONN
*I *852:D I *D sky130_fd_sc_hd__dfrtp_1
*I *750:Y O *D sky130_fd_sc_hd__xnor2_1
*CAP
1 *852:D 0.000151055
2 *750:Y 0.000151055
3 *626:A *852:D 7.43578e-06
4 *107:12 *852:D 0.000101346
5 *227:27 *852:D 0.000143369
6 *228:14 *852:D 3.09531e-05
*RES
1 *750:Y *852:D 31.2607 
*END

*D_NET *300 0.00102816
*CONN
*I *853:D I *D sky130_fd_sc_hd__dfrtp_1
*I *755:Y O *D sky130_fd_sc_hd__xnor2_1
*CAP
1 *853:D 0.00022962
2 *755:Y 0.00022962
3 *853:D *305:12 4.78133e-05
4 *853:D *305:14 2.34539e-05
5 *853:D *305:38 0.000141326
6 *853:D *319:16 7.92879e-05
7 *853:D *355:10 5.39166e-06
8 *813:B *853:D 0.000271648
*RES
1 *755:Y *853:D 34.725 
*END

*D_NET *301 0.00952735
*CONN
*I *858:A I *D sky130_fd_sc_hd__clkbuf_16
*I *857:A I *D sky130_fd_sc_hd__clkbuf_16
*I *856:A I *D sky130_fd_sc_hd__clkbuf_16
*I *855:A I *D sky130_fd_sc_hd__clkbuf_16
*I *854:X O *D sky130_fd_sc_hd__clkbuf_16
*CAP
1 *858:A 0.000309518
2 *857:A 0.000471022
3 *856:A 0
4 *855:A 0.000490866
5 *854:X 0.000115044
6 *301:28 0.00136559
7 *301:12 0.000851064
8 *301:8 0.00106029
9 *855:A *818:A 0.000180317
10 *855:A *303:8 0.000219711
11 *858:A *915:A 0
12 *301:12 *332:30 0.000216478
13 *301:12 *369:47 0.000310675
14 *301:12 *369:66 0.000220094
15 *301:28 *609:A 0.000315022
16 *301:28 *747:A 0.000126439
17 *301:28 *812:B 0
18 *301:28 *332:30 7.36267e-05
19 *301:28 *371:10 0.000128154
20 *649:B *855:A 5.52302e-05
21 *669:A *301:12 0.000353523
22 *684:A *855:A 5.62934e-05
23 *684:B *855:A 5.52302e-05
24 *738:B1 *857:A 1.21258e-05
25 *739:A1 *857:A 5.33005e-05
26 *739:A2 *857:A 1.74352e-05
27 *739:A3 *857:A 7.17235e-05
28 *739:C1 *857:A 1.24368e-05
29 *739:C1 *858:A 5.33005e-05
30 *740:A *301:28 0.000333486
31 *740:B *301:28 0
32 *744:A *858:A 6.05161e-06
33 *758:A *857:A 5.52238e-05
34 *761:B1 *857:A 5.71472e-05
35 *825:D *301:8 0.000106455
36 *825:D *301:12 0
37 *825:RESET_B *301:12 0.000126209
38 *827:RESET_B *855:A 1.15281e-05
39 *102:32 *858:A 5.28612e-05
40 *103:16 *858:A 0.000181565
41 *117:12 *857:A 8.43535e-06
42 *118:10 *301:28 0
43 *118:25 *857:A 0.00014285
44 *118:33 *857:A 0.000268396
45 *120:14 *857:A 4.13595e-05
46 *167:10 *855:A 0.00014285
47 *171:22 *855:A 0.000536799
48 *224:12 *857:A 0.00010096
49 *224:23 *857:A 6.7572e-05
50 *224:32 *857:A 9.02133e-05
51 *226:8 *857:A 2.87555e-06
*RES
1 *854:X *301:8 16.3893 
2 *301:8 *301:12 16.4643 
3 *301:12 *855:A 20.925 
4 *301:12 *856:A 9.3 
5 *301:8 *301:28 18.2857 
6 *301:28 *857:A 19.425 
7 *301:28 *858:A 22.7643 
*END

*D_NET *302 0.00932668
*CONN
*I *834:CLK I *D sky130_fd_sc_hd__dfrtp_1
*I *838:CLK I *D sky130_fd_sc_hd__dfrtp_1
*I *859:A I *D sky130_fd_sc_hd__clkbuf_8
*I *832:CLK I *D sky130_fd_sc_hd__dfrtp_1
*I *837:CLK I *D sky130_fd_sc_hd__dfrtp_1
*I *836:CLK I *D sky130_fd_sc_hd__dfrtp_1
*I *835:CLK I *D sky130_fd_sc_hd__dfrtp_1
*I *839:CLK I *D sky130_fd_sc_hd__dfrtp_1
*I *855:X O *D sky130_fd_sc_hd__clkbuf_16
*CAP
1 *834:CLK 0
2 *838:CLK 0.000413241
3 *859:A 0.000118391
4 *832:CLK 5.34294e-05
5 *837:CLK 0
6 *836:CLK 0.000328874
7 *835:CLK 0
8 *839:CLK 0.000254446
9 *855:X 0
10 *302:82 0.000658566
11 *302:36 0.000803216
12 *302:34 0.000797169
13 *302:30 0.000470642
14 *302:10 0.000369535
15 *302:6 0.00033113
16 *302:4 0.000378514
17 *838:CLK *336:14 7.6997e-05
18 *838:CLK *341:6 9.53534e-05
19 *839:CLK *686:B 1.41029e-05
20 *839:CLK *336:24 8.06427e-05
21 *839:CLK *368:132 0.00015304
22 *859:A *688:A 9.83442e-05
23 *859:A *350:12 7.61137e-05
24 *859:A *361:8 0.000177545
25 *302:30 *688:B 3.34366e-05
26 *302:34 *685:A 2.76397e-05
27 *302:34 *688:B 8.48485e-05
28 *684:A *302:82 6.05161e-06
29 *691:A *302:34 9.26784e-05
30 *697:A1 *838:CLK 0.000188388
31 *697:A1 *302:82 9.41642e-05
32 *697:A2 *302:82 2.36643e-05
33 *699:B1 *839:CLK 0
34 *699:B1 *302:30 0.00018459
35 *699:B1 *302:34 9.60808e-05
36 *711:A2 *838:CLK 1.81469e-05
37 *773:A *838:CLK 0.000206199
38 *782:A1 *302:82 0.000170307
39 *782:B1_N *839:CLK 0
40 *785:B *836:CLK 9.25014e-06
41 *786:A1 *302:34 0.000195205
42 *834:D *838:CLK 1.8409e-05
43 *836:D *836:CLK 0
44 *837:RESET_B *832:CLK 4.58194e-05
45 *837:RESET_B *302:36 4.50675e-05
46 *838:D *838:CLK 7.64988e-05
47 *839:D *839:CLK 4.1331e-06
48 *839:RESET_B *839:CLK 0
49 *892:A *836:CLK 0
50 *896:A *302:34 0.00019692
51 *41:21 *859:A 5.65955e-05
52 *171:22 *839:CLK 1.02504e-05
53 *171:22 *302:6 0.000377679
54 *171:22 *302:10 0.000219711
55 *171:22 *302:82 5.8639e-05
56 *173:10 *302:10 0.000135028
57 *175:8 *302:30 2.49484e-05
58 *175:8 *302:34 2.22494e-05
59 *179:10 *302:34 0.000145421
60 *180:10 *302:30 3.52562e-05
61 *180:10 *302:82 0
62 *183:10 *302:82 0
63 *184:12 *838:CLK 0.000117563
64 *184:12 *302:82 4.58194e-05
65 *198:16 *838:CLK 0.00012401
66 *248:10 *839:CLK 3.51442e-05
67 *252:12 *302:6 0.000257411
68 *252:12 *302:10 9.41642e-05
*RES
1 *855:X *302:4 9.3 
2 *302:4 *302:6 4.23214 
3 *302:6 *302:10 3.01786 
4 *302:10 *839:CLK 23.2821 
5 *302:10 *835:CLK 9.3 
6 *302:6 *302:30 7.05357 
7 *302:30 *302:34 11.6071 
8 *302:34 *302:36 7.51786 
9 *302:36 *836:CLK 23.55 
10 *302:36 *837:CLK 9.3 
11 *302:34 *832:CLK 10.2464 
12 *302:30 *859:A 16.8 
13 *302:4 *302:82 14.1786 
14 *302:82 *838:CLK 28.2464 
15 *302:82 *834:CLK 9.3 
*END

*D_NET *303 0.0150689
*CONN
*I *824:CLK I *D sky130_fd_sc_hd__dfrtp_1
*I *826:CLK I *D sky130_fd_sc_hd__dfrtp_1
*I *827:CLK I *D sky130_fd_sc_hd__dfrtp_1
*I *825:CLK I *D sky130_fd_sc_hd__dfrtp_4
*I *830:CLK I *D sky130_fd_sc_hd__dfrtp_1
*I *860:A I *D sky130_fd_sc_hd__clkbuf_4
*I *831:CLK I *D sky130_fd_sc_hd__dfrtp_1
*I *829:CLK I *D sky130_fd_sc_hd__dfrtp_1
*I *828:CLK I *D sky130_fd_sc_hd__dfrtp_1
*I *833:CLK I *D sky130_fd_sc_hd__dfrtp_1
*I *856:X O *D sky130_fd_sc_hd__clkbuf_16
*CAP
1 *824:CLK 0.000358537
2 *826:CLK 0.000255036
3 *827:CLK 0.000216421
4 *825:CLK 0.000367422
5 *830:CLK 9.22328e-05
6 *860:A 0
7 *831:CLK 1.69531e-05
8 *829:CLK 1.36727e-05
9 *828:CLK 0
10 *833:CLK 0.00017391
11 *856:X 0
12 *303:99 0.000571957
13 *303:97 0.000459037
14 *303:73 0.00122037
15 *303:37 0.000381156
16 *303:22 0.00077381
17 *303:20 0.000742607
18 *303:10 0.000527371
19 *303:8 0.00146609
20 *303:4 0.000671245
21 *824:CLK *650:A 0.000125547
22 *824:CLK *651:A 0.00010096
23 *824:CLK *324:35 4.34627e-05
24 *825:CLK *597:A 0.000129755
25 *827:CLK *664:B 0.000141445
26 *829:CLK *364:27 2.28598e-05
27 *833:CLK *636:A 6.90525e-05
28 *833:CLK *636:B 4.35336e-05
29 *833:CLK *335:6 1.92905e-05
30 *833:CLK *335:25 0.000146474
31 *303:10 *815:A 5.58941e-05
32 *303:20 *647:A 4.59075e-05
33 *303:20 *648:B 5.52238e-05
34 *303:20 *815:A 0.000221225
35 *303:20 *330:12 9.71123e-06
36 *303:20 *368:77 4.11173e-05
37 *303:22 *636:A 3.17148e-05
38 *303:22 *328:19 0.000117189
39 *303:22 *330:12 0
40 *303:22 *367:22 0
41 *303:37 *635:A 5.33005e-05
42 *303:37 *636:A 2.59355e-05
43 *303:37 *663:A 7.65804e-05
44 *303:37 *330:12 0.000139907
45 *303:37 *364:6 0.000232266
46 *303:37 *364:27 0.00016345
47 *303:73 *815:A 0.000157357
48 *303:73 *366:10 3.56594e-05
49 *303:73 *369:47 0
50 *303:73 *369:66 0
51 *644:A *303:20 0.00012401
52 *644:A *303:22 4.29696e-05
53 *644:B *303:20 9.60939e-05
54 *649:A *303:20 7.50601e-05
55 *659:B1 *824:CLK 2.5324e-05
56 *665:A *824:CLK 2.11419e-05
57 *669:B *303:73 1.91894e-05
58 *673:C *826:CLK 9.60939e-05
59 *674:B2 *824:CLK 0.000185526
60 *676:B1 *827:CLK 1.97963e-05
61 *679:B1 *303:10 0
62 *679:B1 *303:73 0
63 *680:B1 *303:22 0
64 *799:B1 *303:99 0.000143797
65 *800:A *827:CLK 0.000128146
66 *800:A *303:99 0.00012401
67 *801:B *826:CLK 5.59013e-05
68 *802:B1 *827:CLK 1.92789e-05
69 *803:B *827:CLK 7.40571e-05
70 *803:C *827:CLK 4.30304e-05
71 *804:A *824:CLK 0.00012695
72 *804:A *827:CLK 2.69485e-05
73 *804:A *303:99 2.26327e-05
74 *804:B *824:CLK 0.000444951
75 *804:B *827:CLK 0.000261934
76 *804:B *303:99 0.000304915
77 *826:RESET_B *826:CLK 0.000353713
78 *827:RESET_B *303:8 0.000288904
79 *828:RESET_B *303:37 4.80435e-05
80 *829:RESET_B *829:CLK 2.89114e-05
81 *829:RESET_B *303:37 5.33334e-05
82 *830:D *830:CLK 7.43578e-06
83 *830:D *303:73 1.39726e-05
84 *830:RESET_B *825:CLK 0
85 *830:RESET_B *303:73 0
86 *831:D *831:CLK 5.33005e-05
87 *831:D *303:20 0.000103267
88 *833:D *833:CLK 4.4679e-05
89 *833:D *303:22 0
90 *855:A *303:8 0.000219711
91 *881:A *824:CLK 1.58163e-05
92 *887:A *303:22 2.49484e-05
93 *888:A *833:CLK 1.31516e-05
94 *888:A *303:22 0.000172056
95 *889:A *831:CLK 5.33005e-05
96 *890:A *833:CLK 0
97 *890:A *303:37 0.000140933
98 *124:21 *303:22 9.80405e-05
99 *134:18 *303:20 6.05039e-05
100 *136:10 *303:10 5.80706e-06
101 *136:10 *303:73 3.34687e-05
102 *145:26 *824:CLK 0
103 *149:12 *827:CLK 3.18382e-05
104 *154:12 *826:CLK 5.41794e-05
105 *165:10 *303:73 0
106 *166:18 *830:CLK 3.65178e-05
107 *166:18 *303:73 1.86687e-05
*RES
1 *856:X *303:4 9.3 
2 *303:4 *303:8 12.4286 
3 *303:8 *303:10 0.732143 
4 *303:10 *303:20 18.3393 
5 *303:20 *303:22 5.28571 
6 *303:22 *833:CLK 17.8179 
7 *303:22 *303:37 14.4821 
8 *303:37 *828:CLK 9.3 
9 *303:37 *829:CLK 9.83571 
10 *303:20 *831:CLK 14.3357 
11 *303:10 *860:A 13.8 
12 *303:8 *303:73 15.7857 
13 *303:73 *830:CLK 11.0857 
14 *303:73 *825:CLK 25.2643 
15 *303:4 *303:97 4.5 
16 *303:97 *303:99 4.07143 
17 *303:99 *827:CLK 20.3 
18 *303:99 *826:CLK 27.0679 
19 *303:97 *824:CLK 23.3179 
*END

*D_NET *304 0.00947136
*CONN
*I *848:CLK I *D sky130_fd_sc_hd__dfrtp_1
*I *845:CLK I *D sky130_fd_sc_hd__dfrtp_1
*I *844:CLK I *D sky130_fd_sc_hd__dfrtp_1
*I *847:CLK I *D sky130_fd_sc_hd__dfrtp_1
*I *846:CLK I *D sky130_fd_sc_hd__dfrtp_1
*I *841:CLK I *D sky130_fd_sc_hd__dfrtp_1
*I *840:CLK I *D sky130_fd_sc_hd__dfrtp_1
*I *842:CLK I *D sky130_fd_sc_hd__dfrtp_1
*I *843:CLK I *D sky130_fd_sc_hd__dfrtp_1
*I *857:X O *D sky130_fd_sc_hd__clkbuf_16
*CAP
1 *848:CLK 0.00112076
2 *845:CLK 0
3 *844:CLK 0.000173987
4 *847:CLK 2.2335e-05
5 *846:CLK 0.000187426
6 *841:CLK 8.2827e-05
7 *840:CLK 0.000235349
8 *842:CLK 7.07202e-05
9 *843:CLK 0.00032319
10 *857:X 0
11 *304:86 0.000173987
12 *304:84 0.00168236
13 *304:69 0.000833101
14 *304:32 0.000621174
15 *304:28 0.000630059
16 *304:19 0.000467128
17 *304:6 0.000639364
18 *304:4 0.000308564
19 *840:CLK *864:A 0.000143375
20 *840:CLK *370:12 2.36643e-05
21 *842:CLK *346:8 6.34153e-05
22 *844:CLK *720:B 1.92789e-05
23 *846:CLK *346:8 0.000127051
24 *848:CLK *720:A 0
25 *848:CLK *315:12 0
26 *848:CLK *349:21 0
27 *304:28 *346:8 0.00010304
28 *304:84 *720:A 0
29 acc[25] *848:CLK 0.00015799
30 *716:A *842:CLK 6.05161e-06
31 *722:A *304:84 0
32 *725:B *304:84 0
33 *726:B *843:CLK 9.90367e-05
34 *727:A *843:CLK 0.000190193
35 *732:A *304:19 5.80858e-06
36 *734:A *847:CLK 0
37 *734:A *304:84 5.71472e-05
38 *734:C *304:84 1.39726e-05
39 *735:A *304:69 0.000200413
40 *735:B *304:19 7.70035e-05
41 *735:C *843:CLK 5.49489e-05
42 *735:C *304:19 3.12359e-05
43 *735:C *304:69 4.17661e-06
44 *735:D *843:CLK 9.83442e-05
45 *769:A *844:CLK 2.89016e-05
46 *770:A1 *304:84 0
47 *841:D *841:CLK 8.64516e-06
48 *842:D *842:CLK 3.17465e-05
49 *842:D *304:19 7.6644e-05
50 *842:D *304:28 2.89114e-05
51 *842:RESET_B *304:32 2.92927e-05
52 *845:D *304:84 0
53 *847:D *304:69 2.59355e-05
54 *198:16 *840:CLK 0
55 *198:16 *304:32 0
56 *207:8 *844:CLK 7.77751e-05
57 *209:16 *304:84 0
58 *212:35 *304:84 4.77058e-05
59 *214:14 *843:CLK 1.74352e-05
60 *214:14 *304:19 0
61 *218:14 *304:19 4.98968e-05
*RES
1 *857:X *304:4 9.3 
2 *304:4 *304:6 0.946429 
3 *304:6 *843:CLK 15.9964 
4 *304:6 *304:19 13.9821 
5 *304:19 *842:CLK 11.0679 
6 *304:19 *304:28 3 
7 *304:28 *304:32 9.48214 
8 *304:32 *840:CLK 18.2464 
9 *304:32 *841:CLK 15.1571 
10 *304:28 *846:CLK 13.1214 
11 *304:4 *304:69 13.625 
12 *304:69 *847:CLK 9.72857 
13 *304:69 *304:84 12.3036 
14 *304:84 *304:86 4.5 
15 *304:86 *844:CLK 12.7286 
16 *304:86 *845:CLK 9.3 
17 *304:84 *848:CLK 25.0599 
*END

*D_NET *305 0.00817923
*CONN
*I *852:CLK I *D sky130_fd_sc_hd__dfrtp_1
*I *851:CLK I *D sky130_fd_sc_hd__dfrtp_1
*I *849:CLK I *D sky130_fd_sc_hd__dfrtp_1
*I *861:A I *D sky130_fd_sc_hd__clkbuf_8
*I *850:CLK I *D sky130_fd_sc_hd__dfrtp_1
*I *853:CLK I *D sky130_fd_sc_hd__dfrtp_1
*I *822:CLK I *D sky130_fd_sc_hd__dfrtp_1
*I *823:CLK I *D sky130_fd_sc_hd__dfrtp_1
*I *858:X O *D sky130_fd_sc_hd__clkbuf_16
*CAP
1 *852:CLK 0.00029357
2 *851:CLK 0
3 *849:CLK 0.000550604
4 *861:A 8.27988e-05
5 *850:CLK 0.000216385
6 *853:CLK 0.000115176
7 *822:CLK 4.02022e-05
8 *823:CLK 0.000228887
9 *858:X 2.85076e-05
10 *305:96 0.000498434
11 *305:66 0.000900927
12 *305:51 0.000573469
13 *305:38 0.000487978
14 *305:14 0.000484006
15 *305:12 0.000660316
16 *305:8 0.000395529
17 *823:CLK *319:16 0
18 *849:CLK *746:A 0.000102197
19 *849:CLK *754:A 0
20 *849:CLK *316:33 0
21 *849:CLK *353:34 6.05161e-06
22 *849:CLK *354:12 2.79421e-05
23 *852:CLK *742:A 0
24 *305:8 *747:B 5.52238e-05
25 *305:12 *319:16 0
26 *305:14 *319:16 0
27 *305:51 *609:A 0
28 *626:B *849:CLK 0
29 *630:A1 *849:CLK 0.000140597
30 *655:B *823:CLK 0.000197991
31 *743:A_N *849:CLK 0.000100491
32 *744:A *861:A 0.000186662
33 *744:A *305:66 0
34 *749:A2 *849:CLK 0.000118107
35 *753:A1 *852:CLK 7.69776e-06
36 *753:A1 *305:96 0
37 *813:B *823:CLK 0
38 *813:B *853:CLK 1.1979e-05
39 *813:B *305:14 0
40 *813:B *305:38 3.61629e-06
41 *823:D *823:CLK 5.5782e-05
42 *849:D *849:CLK 0.000287842
43 *850:D *850:CLK 7.77751e-05
44 *850:RESET_B *305:51 5.83233e-05
45 *850:RESET_B *305:66 0.000139653
46 *851:D *852:CLK 3.71847e-05
47 *851:D *305:96 2.83284e-06
48 *853:D *305:12 4.78133e-05
49 *853:D *305:14 2.34539e-05
50 *853:D *305:38 0.000141326
51 *878:A *849:CLK 0.000418823
52 *880:A *849:CLK 2.06112e-05
53 *101:25 *305:96 5.97411e-05
54 *101:31 *852:CLK 4.70703e-05
55 *101:31 *305:96 6.87834e-06
56 *102:32 *305:66 3.72716e-05
57 *107:12 *852:CLK 4.46186e-06
58 *141:10 *823:CLK 0.000125717
59 *228:14 *852:CLK 7.13195e-05
60 *232:10 *849:CLK 0
61 *232:10 *305:12 0
62 *232:10 *305:66 0
63 *232:10 *305:96 0
64 *232:35 *852:CLK 0
*RES
1 *858:X *305:8 14.3357 
2 *305:8 *305:12 4.4375 
3 *305:12 *305:14 3.33036 
4 *305:14 *823:CLK 18.4786 
5 *305:14 *822:CLK 14.3357 
6 *305:12 *305:38 8.58036 
7 *305:38 *853:CLK 10.9786 
8 *305:38 *305:51 6.44643 
9 *305:51 *850:CLK 17.6214 
10 *305:51 *305:66 5.03571 
11 *305:66 *861:A 15.5679 
12 *305:66 *849:CLK 27.3357 
13 *305:8 *305:96 3.16071 
14 *305:96 *851:CLK 13.8 
15 *305:96 *852:CLK 18.4786 
*END

*D_NET *306 0.00323735
*CONN
*I *656:A I *D sky130_fd_sc_hd__nand2_1
*I *812:A I *D sky130_fd_sc_hd__or2_1
*I *866:X O *D sky130_fd_sc_hd__clkbuf_1
*CAP
1 *656:A 6.57694e-05
2 *812:A 0.000774559
3 *866:X 8.85054e-05
4 *306:6 0.000928834
5 *656:A *910:A 1.08359e-05
6 *656:A *333:31 0.000170654
7 *812:A *812:B 8.39e-05
8 *812:A *333:31 0.000774611
9 *306:6 *333:31 4.18895e-05
10 *853:RESET_B *656:A 0.000146474
11 *853:RESET_B *812:A 5.52238e-05
12 *853:RESET_B *306:6 9.60939e-05
*RES
1 *866:X *306:6 11.0679 
2 *306:6 *812:A 30.7821 
3 *306:6 *656:A 20.55 
*END

*D_NET *307 0.00184066
*CONN
*I *712:B1 I *D sky130_fd_sc_hd__o211a_1
*I *702:A I *D sky130_fd_sc_hd__or2_1
*I *703:A I *D sky130_fd_sc_hd__nand2_1
*I *867:X O *D sky130_fd_sc_hd__buf_1
*CAP
1 *712:B1 7.27416e-05
2 *702:A 2.84912e-05
3 *703:A 9.26823e-05
4 *867:X 0
5 *307:8 0.000449595
6 *307:6 0.000401163
7 *703:A *703:B 7.83366e-05
8 *703:A *906:A 0
9 *703:A *343:14 4.46186e-06
10 *712:B1 *715:A2 0.000127446
11 *307:8 *715:A2 3.51442e-05
12 *307:8 *308:10 5.5782e-05
13 *307:8 *308:21 5.90443e-06
14 *307:8 *343:14 0.000113894
15 acc[16] *307:8 4.50149e-05
16 *704:B *307:8 0.000103041
17 *715:C1 *307:8 0
18 *35:15 *702:A 5.52302e-05
19 *190:10 *703:A 5.10822e-05
20 *190:10 *307:8 0.000120645
*RES
1 *867:X *307:6 13.8 
2 *307:6 *307:8 8.625 
3 *307:8 *703:A 15.7464 
4 *307:8 *702:A 14.3357 
5 *307:6 *712:B1 15.4429 
*END

*D_NET *308 0.00144026
*CONN
*I *705:A I *D sky130_fd_sc_hd__xnor2_1
*I *712:A1 I *D sky130_fd_sc_hd__o211a_1
*I *715:A1 I *D sky130_fd_sc_hd__a211oi_1
*I *868:X O *D sky130_fd_sc_hd__buf_1
*CAP
1 *705:A 2.89327e-05
2 *712:A1 1.1624e-05
3 *715:A1 0
4 *868:X 0.000185028
5 *308:21 0.000115278
6 *308:10 0.00025975
7 *705:A *712:C1 0.000218045
8 *705:A *344:18 0.000230482
9 *712:A1 *712:C1 5.52238e-05
10 *712:A1 *344:18 5.52238e-05
11 *308:10 *344:10 0
12 *308:21 *715:A2 7.83462e-05
13 *308:21 *344:10 0
14 *704:B *308:10 1.92905e-05
15 *715:B1 *308:10 5.80706e-06
16 *715:B1 *308:21 6.97972e-05
17 *715:C1 *308:10 4.57445e-05
18 *307:8 *308:10 5.5782e-05
19 *307:8 *308:21 5.90443e-06
*RES
1 *868:X *308:10 17.1036 
2 *308:10 *715:A1 13.8 
3 *308:10 *308:21 6.75 
4 *308:21 *712:A1 9.83571 
5 *308:21 *705:A 11.4786 
*END

*D_NET *309 0.00156418
*CONN
*I *654:A I *D sky130_fd_sc_hd__nor2_1
*I *652:A I *D sky130_fd_sc_hd__nand2_1
*I *869:X O *D sky130_fd_sc_hd__clkbuf_1
*CAP
1 *654:A 0.000142771
2 *652:A 0.000163756
3 *869:X 0.000129525
4 *309:8 0.000436052
5 *652:A *652:B 0.00011833
6 *652:A *921:A 0
7 *652:A *345:23 3.92854e-05
8 *654:A *910:A 5.80706e-06
9 *654:A *345:23 0.000124713
10 *654:A *371:51 4.57445e-05
11 *309:8 *319:16 9.40271e-05
12 *823:RESET_B *652:A 0.000175505
13 *823:RESET_B *654:A 3.34366e-05
14 *823:RESET_B *309:8 5.52302e-05
15 *879:A *654:A 0
16 *884:A *652:A 0
17 *144:10 *652:A 0
*RES
1 *869:X *309:8 15.5679 
2 *309:8 *652:A 17.8714 
3 *309:8 *654:A 16.9607 
*END

*D_NET *310 0.00147981
*CONN
*I *729:A I *D sky130_fd_sc_hd__or2_1
*I *728:A I *D sky130_fd_sc_hd__nand2_1
*I *870:X O *D sky130_fd_sc_hd__clkbuf_1
*CAP
1 *729:A 0
2 *728:A 0.000132531
3 *870:X 0.000251087
4 *310:12 0.000383618
5 *728:A *729:B 2.84494e-05
6 *728:A *344:10 9.10431e-06
7 *728:A *346:21 0.000175391
8 *728:A *370:47 0.000198698
9 *310:12 *602:A 5.52238e-05
10 *310:12 *911:A 0.000123512
11 *310:12 *370:47 0.000122191
*RES
1 *870:X *310:12 14.1036 
2 *310:12 *728:A 22.1036 
3 *310:12 *729:A 9.3 
*END

*D_NET *311 0.000901278
*CONN
*I *718:A I *D sky130_fd_sc_hd__or2_1
*I *717:A I *D sky130_fd_sc_hd__nand2_1
*I *871:X O *D sky130_fd_sc_hd__clkbuf_1
*CAP
1 *718:A 0
2 *717:A 6.17353e-05
3 *871:X 0.000101217
4 *311:12 0.000162952
5 *717:A *717:B 4.50908e-05
6 *311:12 *912:A 0
7 *311:12 *370:62 0.000100831
8 *204:6 *717:A 0.00014183
9 *204:6 *311:12 0.000144773
10 *204:15 *311:12 4.18895e-05
11 *205:6 *311:12 0.00010096
*RES
1 *871:X *311:12 21.4071 
2 *311:12 *717:A 11.0857 
3 *311:12 *718:A 9.3 
*END

*D_NET *312 0.00127109
*CONN
*I *720:A I *D sky130_fd_sc_hd__or2_1
*I *721:A I *D sky130_fd_sc_hd__nand2_1
*I *872:X O *D sky130_fd_sc_hd__clkbuf_1
*CAP
1 *720:A 0.000139662
2 *721:A 0.000173452
3 *872:X 0.000122221
4 *312:6 0.000435335
5 *721:A *721:B 5.7661e-06
6 acc[19] *721:A 0
7 *722:A *720:A 0.000175512
8 *722:B *721:A 3.22765e-05
9 *848:CLK *720:A 0
10 *872:A *720:A 1.76039e-05
11 *872:A *721:A 7.31029e-05
12 *872:A *312:6 9.61553e-05
13 *304:84 *720:A 0
*RES
1 *872:X *312:6 11.0679 
2 *312:6 *721:A 12.1036 
3 *312:6 *720:A 21.4607 
*END

*D_NET *313 0.00106919
*CONN
*I *723:A I *D sky130_fd_sc_hd__nand2_1
*I *724:A I *D sky130_fd_sc_hd__or2_1
*I *873:X O *D sky130_fd_sc_hd__clkbuf_1
*CAP
1 *723:A 0.00014614
2 *724:A 0.000212528
3 *873:X 4.22604e-05
4 *313:6 0.000400929
5 *724:A *724:B 7.76132e-05
6 *724:A *349:21 3.48923e-05
7 *725:A *723:A 1.39726e-05
8 *735:A *724:A 3.42301e-05
9 *873:A *723:A 5.68722e-05
10 *873:A *313:6 2.20226e-05
11 *875:A *723:A 0
12 *210:6 *723:A 2.77258e-05
*RES
1 *873:X *313:6 9.83571 
2 *313:6 *724:A 22.675 
3 *313:6 *723:A 11.925 
*END

*D_NET *314 0.00206212
*CONN
*I *632:A I *D sky130_fd_sc_hd__or2_1
*I *631:A I *D sky130_fd_sc_hd__nand2_1
*I *874:X O *D sky130_fd_sc_hd__clkbuf_1
*CAP
1 *632:A 8.67189e-05
2 *631:A 2.78318e-05
3 *874:X 0.000505632
4 *314:16 0.000620183
5 *632:A *631:B 0.000144773
6 *314:16 *916:A 4.6898e-05
7 *619:A *314:16 1.18064e-05
8 *619:B *314:16 0.000127446
9 *624:B *314:16 5.26277e-05
10 *625:A *314:16 4.33438e-05
11 *630:A2 *314:16 0
12 *633:B *632:A 5.71472e-05
13 *633:B *314:16 0.00012501
14 *761:B1 *314:16 0
15 *762:A *314:16 2.72967e-05
16 *763:C *314:16 0
17 *110:23 *314:16 2.84251e-05
18 *118:10 *631:A 7.43578e-06
19 *118:10 *632:A 1.21289e-05
20 *118:10 *314:16 0
21 *118:33 *314:16 5.41794e-05
22 *120:14 *314:16 3.9381e-05
23 *120:18 *632:A 0
24 *240:8 *314:16 4.38511e-05
*RES
1 *874:X *314:16 28.8357 
2 *314:16 *631:A 9.83571 
3 *314:16 *632:A 11.4964 
*END

*D_NET *315 0.00170272
*CONN
*I *618:A I *D sky130_fd_sc_hd__or2_1
*I *617:A I *D sky130_fd_sc_hd__nand2_1
*I *875:X O *D sky130_fd_sc_hd__clkbuf_1
*CAP
1 *618:A 0.000169386
2 *617:A 0
3 *875:X 0.000250928
4 *315:12 0.000420314
5 *618:A *617:B 0.000230841
6 *315:12 *617:B 7.78065e-06
7 *315:12 *916:A 0
8 *315:12 *349:21 0
9 *315:12 *352:10 0
10 *315:12 *370:91 3.01126e-05
11 acc[25] *315:12 0
12 *625:A *618:A 5.52302e-05
13 *760:A1 *618:A 0.000301679
14 *760:A2 *618:A 3.4855e-05
15 *762:B *315:12 0.000125731
16 *848:CLK *315:12 0
17 *104:6 *618:A 5.8868e-05
18 *104:6 *315:12 9.56029e-06
19 *105:6 *618:A 7.43578e-06
*RES
1 *875:X *315:12 22.8357 
2 *315:12 *617:A 9.3 
3 *315:12 *618:A 14.8893 
*END

*D_NET *316 0.00506307
*CONN
*I *622:A I *D sky130_fd_sc_hd__or2_1
*I *621:A I *D sky130_fd_sc_hd__nand2_1
*I *627:B1 I *D sky130_fd_sc_hd__o211a_1
*I *876:X O *D sky130_fd_sc_hd__buf_1
*CAP
1 *622:A 2.23854e-05
2 *621:A 0.000221301
3 *627:B1 0
4 *876:X 0.000766729
5 *316:33 0.000420115
6 *316:20 0.000943157
7 *621:A *621:B 4.35048e-05
8 *621:A *746:A 0
9 *621:A *353:21 3.48705e-05
10 *316:20 *754:A 0.000208819
11 *316:20 *915:A 7.11622e-05
12 *316:20 *320:14 0.000136951
13 *316:20 *353:34 5.80706e-06
14 *316:20 *354:12 0
15 *316:33 *746:A 0.000272371
16 *316:33 *915:A 0.000110571
17 *316:33 *353:21 2.77173e-05
18 *316:33 *353:34 0.000189715
19 acc[24] *621:A 7.43578e-06
20 acc[24] *316:33 4.72818e-05
21 *623:A *621:A 5.71472e-05
22 *623:B *621:A 0.000119664
23 *626:B *316:20 4.63203e-05
24 *630:A1 *316:20 0.000139913
25 *630:A2 *316:20 9.60337e-06
26 *743:A_N *316:20 3.36022e-05
27 *743:B *316:20 5.42359e-05
28 *745:A *316:20 0.00010519
29 *749:A1 *316:20 4.72818e-05
30 *751:A2 *316:20 0.000208135
31 *751:B1 *316:20 0.000183726
32 *849:CLK *316:33 0
33 *849:D *316:20 0
34 *851:D *316:20 0.000354111
35 *874:A *621:A 0.000165667
36 *228:20 *316:20 8.57597e-06
*RES
1 *876:X *316:20 30.0857 
2 *316:20 *627:B1 13.8 
3 *316:20 *316:33 10.4643 
4 *316:33 *621:A 23.9786 
5 *316:33 *622:A 9.72857 
*END

*D_NET *317 0.00284395
*CONN
*I *638:A I *D sky130_fd_sc_hd__nand2_1
*I *639:A I *D sky130_fd_sc_hd__or2_1
*I *877:X O *D sky130_fd_sc_hd__clkbuf_1
*CAP
1 *638:A 5.91904e-05
2 *639:A 0.000498088
3 *877:X 0
4 *317:6 0.000557278
5 *638:A *638:B 2.56601e-05
6 *639:A *638:B 0.000192433
7 *639:A *331:22 0.000346493
8 *639:A *334:8 9.41642e-05
9 *640:B *639:A 0.000182791
10 *646:A2 *639:A 2.42516e-05
11 *681:B *638:A 6.98302e-05
12 *681:B *639:A 0.000192994
13 *792:A1 *639:A 6.97972e-05
14 *794:A2 *639:A 0.000131523
15 *894:A *639:A 2.82057e-05
16 *125:10 *639:A 8.40878e-05
17 *166:18 *638:A 5.52302e-05
18 *167:10 *639:A 7.83659e-05
19 *257:8 *639:A 0.000153563
*RES
1 *877:X *317:6 13.8 
2 *317:6 *639:A 28.2286 
3 *317:6 *638:A 15.3714 
*END

*D_NET *318 0.002371
*CONN
*I *628:A1 I *D sky130_fd_sc_hd__a211o_1
*I *620:A I *D sky130_fd_sc_hd__xnor2_1
*I *627:A1 I *D sky130_fd_sc_hd__o211a_1
*I *878:X O *D sky130_fd_sc_hd__buf_1
*CAP
1 *628:A1 0
2 *620:A 0.000103054
3 *627:A1 0
4 *878:X 0.000261095
5 *318:18 0.000205192
6 *318:12 0.000363232
7 *620:A *627:A2 3.01927e-05
8 *620:A *628:A2 1.74352e-05
9 *620:A *917:A 0.000166679
10 *620:A *354:16 0.000165388
11 *318:12 *621:B 4.46186e-06
12 *318:12 *746:A 8.27966e-05
13 *318:12 *747:A 2.56694e-05
14 *318:18 *627:A2 3.57366e-05
15 *318:18 *628:A2 0.000347958
16 *628:B1 *620:A 0.000153959
17 *628:B1 *318:18 6.3056e-05
18 *628:C1 *620:A 9.7049e-06
19 *628:C1 *318:18 5.92264e-05
20 *629:A *318:12 0.000262678
21 *878:A *318:12 6.05161e-06
22 *110:23 *318:12 0
23 *116:6 *318:12 7.43578e-06
*RES
1 *878:X *318:12 23.6214 
2 *318:12 *318:18 3.85714 
3 *318:18 *627:A1 9.3 
4 *318:18 *620:A 14.1393 
5 *318:12 *628:A1 9.3 
*END

*D_NET *319 0.004838
*CONN
*I *614:A I *D sky130_fd_sc_hd__nand2_1
*I *615:A I *D sky130_fd_sc_hd__or2_1
*I *879:X O *D sky130_fd_sc_hd__clkbuf_1
*CAP
1 *614:A 9.62835e-06
2 *615:A 0.000173389
3 *879:X 0.00072448
4 *319:16 0.000907498
5 *614:A *615:B 5.52302e-05
6 *614:A *747:B 4.27935e-05
7 *615:A *615:B 0.000834261
8 *615:A *747:B 0.000969992
9 *319:16 *611:A 0
10 *319:16 *741:A 0
11 *319:16 *910:A 3.69865e-05
12 *319:16 *345:23 4.038e-06
13 *319:16 *355:10 5.03694e-05
14 *319:16 *371:38 5.72984e-05
15 *319:16 *371:51 3.48705e-05
16 *657:B1 *319:16 9.71197e-05
17 *755:A *319:16 0
18 *813:B *319:16 0.000148182
19 *823:CLK *319:16 0
20 *823:RESET_B *319:16 5.52302e-05
21 *853:D *319:16 7.92879e-05
22 *869:A *319:16 0.000104956
23 *102:32 *615:A 5.52238e-05
24 *139:12 *319:16 1.52978e-05
25 *143:10 *319:16 0.000114759
26 *143:18 *319:16 0.000173083
27 *305:12 *319:16 0
28 *305:14 *319:16 0
29 *309:8 *319:16 9.40271e-05
*RES
1 *879:X *319:16 34.4607 
2 *319:16 *615:A 19.05 
3 *319:16 *614:A 9.83571 
*END

*D_NET *320 0.00521019
*CONN
*I *741:A I *D sky130_fd_sc_hd__nor2_1
*I *742:A I *D sky130_fd_sc_hd__nand2_1
*I *880:X O *D sky130_fd_sc_hd__clkbuf_1
*CAP
1 *741:A 0.000589533
2 *742:A 0.000357888
3 *880:X 0.000586143
4 *320:14 0.00153356
5 *741:A *611:A 0.000125684
6 *741:A *741:B 1.91414e-05
7 *741:A *754:A 0.000258148
8 *741:A *899:A 7.69776e-06
9 *741:A *910:A 5.33005e-05
10 *741:A *919:A 0.000138031
11 *741:A *333:31 3.47641e-06
12 *741:A *355:10 0
13 *741:A *359:8 2.89016e-05
14 *741:A *371:66 0.000123137
15 *745:B *320:14 7.6644e-05
16 *753:A1 *320:14 0.000268396
17 *753:A2 *741:A 7.80714e-06
18 *753:A2 *742:A 0.000168526
19 *753:B1 *741:A 4.56498e-05
20 *849:RESET_B *742:A 0.000191403
21 *851:D *742:A 3.69697e-05
22 *852:CLK *742:A 0
23 *852:RESET_B *741:A 4.66604e-05
24 *876:A *742:A 0.000255006
25 *103:16 *320:14 2.44318e-05
26 *228:14 *742:A 0.000103674
27 *232:10 *320:14 2.34204e-05
28 *316:20 *320:14 0.000136951
29 *319:16 *741:A 0
*RES
1 *880:X *320:14 26.1571 
2 *320:14 *742:A 27.2286 
3 *320:14 *741:A 30.1036 
*END

*D_NET *321 0.00344282
*CONN
*I *650:A I *D sky130_fd_sc_hd__and2_1
*I *651:A I *D sky130_fd_sc_hd__nor2_1
*I *881:X O *D sky130_fd_sc_hd__clkbuf_1
*CAP
1 *650:A 0.000638043
2 *651:A 0.000295916
3 *881:X 0
4 *321:4 0.000933959
5 *650:A *650:B 1.01912e-05
6 *650:A *921:A 4.35131e-05
7 *650:A *357:8 3.32631e-05
8 *650:A *357:10 5.6911e-05
9 *651:A *660:A 2.00751e-05
10 *651:A *332:30 0.000229443
11 *651:A *360:10 0
12 *651:A *360:14 0
13 *804:B *651:A 2.97341e-05
14 *811:A *651:A 0.000142856
15 *824:CLK *650:A 0.000125547
16 *824:CLK *651:A 0.00010096
17 *824:D *650:A 0.000226512
18 *824:D *651:A 0.00010096
19 *826:RESET_B *651:A 2.89016e-05
20 *828:D *651:A 0.000227539
21 *152:16 *651:A 0.000198498
*RES
1 *881:X *321:4 9.3 
2 *321:4 *651:A 27.1571 
3 *321:4 *650:A 30.5679 
*END

*D_NET *322 0.00514681
*CONN
*I *746:A I *D sky130_fd_sc_hd__nor2_1
*I *747:A I *D sky130_fd_sc_hd__nand2_1
*I *882:X O *D sky130_fd_sc_hd__clkbuf_1
*CAP
1 *746:A 0.00118773
2 *747:A 0.000286283
3 *882:X 0
4 *322:6 0.00147402
5 *746:A *621:B 0
6 *746:A *742:B 2.59355e-05
7 *746:A *746:B 5.7661e-06
8 *746:A *915:A 0.00010815
9 *746:A *918:A 1.90111e-05
10 *746:A *353:34 2.3083e-05
11 *746:A *354:12 6.06836e-05
12 *747:A *915:A 8.80979e-05
13 acc[24] *746:A 0.000274294
14 acc[27] *746:A 0.000360894
15 *621:A *746:A 0
16 *629:A *747:A 0
17 *738:A1 *747:A 9.91086e-05
18 *738:A3 *747:A 0
19 *738:B1 *747:A 1.08359e-05
20 *740:A *747:A 1.31516e-05
21 *743:A_N *747:A 2.42334e-05
22 *743:B *747:A 1.28585e-05
23 *849:CLK *746:A 0.000102197
24 *849:RESET_B *746:A 9.84792e-05
25 *874:A *746:A 0
26 *882:A *746:A 1.88336e-05
27 *883:A *746:A 5.32956e-05
28 *883:A *747:A 2.22043e-05
29 *116:10 *747:A 0.000242657
30 *228:14 *746:A 2.77258e-05
31 *301:28 *747:A 0.000126439
32 *316:33 *746:A 0.000272371
33 *318:12 *746:A 8.27966e-05
34 *318:12 *747:A 2.56694e-05
*RES
1 *882:X *322:6 13.8 
2 *322:6 *747:A 20.8357 
3 *322:6 *746:A 36.7464 
*END

*D_NET *323 0.00540431
*CONN
*I *754:A I *D sky130_fd_sc_hd__xnor2_1
*I *883:X O *D sky130_fd_sc_hd__clkbuf_1
*CAP
1 *754:A 0.00171858
2 *883:X 0.00171858
3 *754:A *610:A 5.49489e-05
4 *754:A *611:A 1.32056e-05
5 *754:A *741:B 0.000205842
6 *754:A *915:A 7.00301e-05
7 *741:A *754:A 0.000258148
8 *743:A_N *754:A 8.27552e-05
9 *753:A1 *754:A 0.000395608
10 *764:A *754:A 0
11 *764:B *754:A 5.91452e-05
12 *849:CLK *754:A 0
13 *852:RESET_B *754:A 6.56976e-05
14 *880:A *754:A 0.000138702
15 *883:A *754:A 9.60875e-05
16 *102:32 *754:A 0.000109339
17 *117:12 *754:A 0.000208825
18 *316:20 *754:A 0.000208819
*RES
1 *883:X *754:A 49.5087 
*END

*D_NET *324 0.00481171
*CONN
*I *659:A1 I *D sky130_fd_sc_hd__a21o_1
*I *660:A I *D sky130_fd_sc_hd__xor2_1
*I *661:A1 I *D sky130_fd_sc_hd__o22ai_1
*I *674:A1 I *D sky130_fd_sc_hd__o221ai_4
*I *884:X O *D sky130_fd_sc_hd__clkbuf_2
*CAP
1 *659:A1 0
2 *660:A 0.000123387
3 *661:A1 3.81328e-05
4 *674:A1 2.35836e-05
5 *884:X 0.000521374
6 *324:48 0.000358823
7 *324:35 0.000619206
8 *324:14 0.000890595
9 *660:A *360:14 0.000125724
10 *660:A *360:20 1.92789e-05
11 *324:14 *650:B 6.27272e-06
12 *324:14 *924:A 0.000434
13 *324:14 *930:A 0.00022266
14 *324:14 *357:10 8.42484e-06
15 *324:35 *651:B 0.000337631
16 *324:48 *661:A2 2.13481e-06
17 *324:48 *360:20 1.86292e-05
18 acc[3] *324:14 2.11419e-05
19 acc[9] *324:14 1.32552e-05
20 *651:A *660:A 2.00751e-05
21 *659:B1 *661:A1 3.08382e-06
22 *659:B1 *324:48 3.41686e-05
23 *661:B2 *661:A1 1.24368e-05
24 *797:A *674:A1 5.48198e-05
25 *797:A *324:35 0.000167671
26 *797:B *674:A1 5.32956e-05
27 *797:B *324:35 0.000100474
28 *798:A *324:14 1.74352e-05
29 *798:B *324:14 2.28598e-05
30 *804:A *324:35 4.15526e-05
31 *824:CLK *324:35 4.34627e-05
32 *824:RESET_B *324:14 0
33 *826:RESET_B *660:A 1.32552e-05
34 *881:A *324:35 2.0668e-05
35 *886:A *324:14 0
36 *886:A *324:35 2.06441e-05
37 *137:12 *324:14 0.000296852
38 *146:6 *661:A1 5.33005e-05
39 *146:6 *324:48 1.21258e-05
40 *152:16 *660:A 3.92757e-05
*RES
1 *884:X *324:14 34.3536 
2 *324:14 *674:A1 14.5321 
3 *324:14 *324:35 15.4608 
4 *324:35 *661:A1 10.2643 
5 *324:35 *324:48 3.01786 
6 *324:48 *660:A 20.8893 
7 *324:48 *659:A1 9.3 
*END

*D_NET *325 0.00211631
*CONN
*I *670:A I *D sky130_fd_sc_hd__nand2_1
*I *671:A I *D sky130_fd_sc_hd__or2_1
*I *885:X O *D sky130_fd_sc_hd__clkbuf_1
*CAP
1 *670:A 0.00019593
2 *671:A 0
3 *885:X 0.000387329
4 *325:10 0.000583259
5 *670:A *670:B 0
6 *325:10 *667:B 1.37292e-05
7 *325:10 *668:A 0.000268514
8 *325:10 *925:A 0.000181381
9 *325:10 *927:A 2.59355e-05
10 acc[9] *670:A 6.05161e-06
11 *672:A *670:A 4.56437e-05
12 *672:A *325:10 0.00033763
13 *826:D *670:A 0
14 *885:A *325:10 3.80079e-05
15 *886:A *670:A 0
16 *886:A *325:10 0
17 *157:12 *670:A 3.28967e-05
*RES
1 *885:X *325:10 21.5857 
2 *325:10 *671:A 13.8 
3 *325:10 *670:A 16.9964 
*END

*D_NET *326 0.00297423
*CONN
*I *667:A I *D sky130_fd_sc_hd__nand2_1
*I *668:A I *D sky130_fd_sc_hd__or2_1
*I *886:X O *D sky130_fd_sc_hd__clkbuf_1
*CAP
1 *667:A 0
2 *668:A 0.000501094
3 *886:X 0.000292399
4 *326:14 0.000793493
5 *668:A *667:B 0.000132397
6 *326:14 *815:A 2.13676e-05
7 *326:14 *930:A 4.89027e-05
8 acc[7] *668:A 0.000219711
9 *672:A *668:A 1.3142e-05
10 *672:B *668:A 0.000295123
11 *797:B *326:14 0
12 *798:B *326:14 0.000141782
13 *799:A2 *326:14 5.80706e-06
14 *802:A2 *668:A 0
15 *827:RESET_B *668:A 1.16111e-05
16 *827:RESET_B *326:14 5.49489e-05
17 *154:12 *668:A 5.49544e-05
18 *159:29 *326:14 0
19 *259:12 *326:14 0.000118982
20 *325:10 *668:A 0.000268514
*RES
1 *886:X *326:14 23.4429 
2 *326:14 *668:A 28.4071 
3 *326:14 *667:A 9.3 
*END

*D_NET *327 0.00595869
*CONN
*I *662:A I *D sky130_fd_sc_hd__xnor2_1
*I *805:A1 I *D sky130_fd_sc_hd__a21oi_1
*I *675:A1 I *D sky130_fd_sc_hd__a21oi_1
*I *887:X O *D sky130_fd_sc_hd__buf_1
*CAP
1 *662:A 4.79404e-05
2 *805:A1 0.000360154
3 *675:A1 1.2467e-05
4 *887:X 0.000569706
5 *327:16 0.0012507
6 *327:10 0.00149572
7 *662:A *662:B 0.000139913
8 *675:A1 *364:27 9.54798e-06
9 *327:10 *592:A 2.59355e-05
10 *327:10 *662:B 0.000121418
11 *327:10 *663:A 9.80405e-05
12 *327:10 *664:A 3.14193e-05
13 *327:10 *664:B 9.60875e-05
14 *327:10 *819:A 0.000118205
15 *327:10 *329:10 7.35637e-05
16 *327:10 *332:30 1.90936e-05
17 acc[11] *662:A 0.000139907
18 acc[6] *675:A1 2.11419e-05
19 acc[8] *662:A 1.74352e-05
20 acc[8] *327:10 0
21 acc[8] *327:16 0
22 acc[9] *327:16 0
23 *806:B *805:A1 0.000443429
24 *806:B *327:16 0.000344869
25 *833:RESET_B *327:10 0
26 *889:A *805:A1 3.27026e-05
27 *889:A *327:16 0.000291403
28 *152:16 *327:10 0.000189656
29 *152:16 *327:16 8.22793e-06
*RES
1 *887:X *327:10 25.2643 
2 *327:10 *327:16 5.46339 
3 *327:16 *675:A1 17.4868 
4 *327:16 *805:A1 18.3265 
5 *327:10 *662:A 15.5679 
*END

*D_NET *328 0.00236994
*CONN
*I *635:A I *D sky130_fd_sc_hd__nor2_1
*I *636:A I *D sky130_fd_sc_hd__or2_1
*I *634:A I *D sky130_fd_sc_hd__nand2_1
*I *888:X O *D sky130_fd_sc_hd__clkbuf_1
*CAP
1 *635:A 5.12388e-05
2 *636:A 0.000417051
3 *634:A 0.000143581
4 *888:X 0
5 *328:19 0.000581886
6 *328:4 0.000257178
7 *634:A *634:B 6.46481e-05
8 *635:A *335:25 6.05161e-06
9 *636:A *636:B 4.22908e-05
10 *636:A *900:A 0
11 *636:A *335:25 9.41642e-05
12 *637:B *636:A 3.09758e-05
13 *646:A1 *636:A 8.25843e-06
14 *833:CLK *636:A 6.90525e-05
15 *833:D *636:A 7.83587e-05
16 *887:A *636:A 4.34472e-05
17 *887:A *328:19 0.000126439
18 *888:A *634:A 6.05161e-06
19 *888:A *636:A 4.98872e-05
20 *888:A *328:19 4.58194e-05
21 *890:A *636:A 0
22 *121:8 *634:A 2.2549e-05
23 *124:21 *634:A 2.87555e-06
24 *303:22 *636:A 3.17148e-05
25 *303:22 *328:19 0.000117189
26 *303:37 *635:A 5.33005e-05
27 *303:37 *636:A 2.59355e-05
*RES
1 *888:X *328:4 9.3 
2 *328:4 *634:A 11.3893 
3 *328:4 *328:19 7.08929 
4 *328:19 *636:A 30.05 
5 *328:19 *635:A 14.7464 
*END

*D_NET *329 0.00535828
*CONN
*I *664:A I *D sky130_fd_sc_hd__nor2_1
*I *663:A I *D sky130_fd_sc_hd__and2_1
*I *889:X O *D sky130_fd_sc_hd__clkbuf_1
*CAP
1 *664:A 5.45171e-05
2 *663:A 0.00111282
3 *889:X 0.000666304
4 *329:10 0.00183364
5 *663:A *663:B 4.34584e-05
6 *663:A *364:27 2.81315e-05
7 *663:A *369:23 9.69119e-06
8 *664:A *664:B 3.46677e-05
9 *664:A *819:A 1.82029e-05
10 *664:A *369:6 0.000140933
11 *329:10 *929:A 1.34703e-05
12 *329:10 *332:30 7.9611e-05
13 *329:10 *369:23 4.36481e-05
14 *645:A *329:10 5.33005e-05
15 *669:A *329:10 5.52238e-05
16 *675:B1 *663:A 9.38251e-05
17 *829:D *663:A 1.84523e-06
18 *829:RESET_B *663:A 0.000477857
19 *833:RESET_B *663:A 0
20 *889:A *329:10 0.00021081
21 *150:6 *663:A 9.71197e-05
22 *151:14 *329:10 9.60337e-06
23 *303:37 *663:A 7.65804e-05
24 *327:10 *663:A 9.80405e-05
25 *327:10 *664:A 3.14193e-05
26 *327:10 *329:10 7.35637e-05
*RES
1 *889:X *329:10 23.1571 
2 *329:10 *663:A 29.1393 
3 *329:10 *664:A 15.5857 
*END

*D_NET *330 0.00168583
*CONN
*I *647:A I *D sky130_fd_sc_hd__nand2_1
*I *648:A I *D sky130_fd_sc_hd__or2_1
*I *890:X O *D sky130_fd_sc_hd__clkbuf_1
*CAP
1 *647:A 5.74783e-05
2 *648:A 0
3 *890:X 0.000452372
4 *330:12 0.00050985
5 *647:A *648:B 5.52238e-05
6 *330:12 *364:6 9.90431e-05
7 *330:12 *368:77 0
8 *644:A *330:12 0
9 *828:RESET_B *330:12 0.000103267
10 *887:A *330:12 0
11 *889:A *330:12 0.00012773
12 *890:A *330:12 2.20678e-05
13 *124:21 *330:12 0
14 *134:6 *647:A 3.14078e-05
15 *134:18 *647:A 3.18676e-05
16 *303:20 *647:A 4.59075e-05
17 *303:20 *330:12 9.71123e-06
18 *303:22 *330:12 0
19 *303:37 *330:12 0.000139907
*RES
1 *890:X *330:12 27.0679 
2 *330:12 *648:A 9.3 
3 *330:12 *647:A 11.0857 
*END

*D_NET *331 0.00306781
*CONN
*I *642:A I *D sky130_fd_sc_hd__or2_1
*I *641:A I *D sky130_fd_sc_hd__nand2_1
*I *891:X O *D sky130_fd_sc_hd__clkbuf_1
*CAP
1 *642:A 0.000101582
2 *641:A 0
3 *891:X 0.000558639
4 *331:22 0.000660221
5 *642:A *641:B 0.000137983
6 *642:A *367:22 9.71197e-05
7 *331:22 *638:B 7.96183e-05
8 *639:A *331:22 0.000346493
9 *640:B *331:22 1.18064e-05
10 *645:C *642:A 2.72319e-05
11 *645:C *331:22 5.52302e-05
12 *646:A2 *331:22 0.000135028
13 *792:A1 *642:A 0.000306317
14 *794:A1 *331:22 5.84186e-05
15 *794:A2 *331:22 8.1629e-05
16 *795:B *331:22 0.000260895
17 *836:RESET_B *331:22 7.83659e-05
18 *891:A *331:22 5.1346e-05
19 *128:15 *642:A 1.98839e-05
*RES
1 *891:X *331:22 38.3 
2 *331:22 *641:A 9.3 
3 *331:22 *642:A 12.7286 
*END

*D_NET *332 0.0132493
*CONN
*I *862:A I *D sky130_fd_sc_hd__buf_4
*I *863:A I *D sky130_fd_sc_hd__buf_2
*I *865:A I *D sky130_fd_sc_hd__buf_2
*I *864:A I *D sky130_fd_sc_hd__buf_4
*I *892:X O *D sky130_fd_sc_hd__dlymetal6s2s_1
*CAP
1 *862:A 0.000136922
2 *863:A 0.00014353
3 *865:A 3.62192e-05
4 *864:A 0.000980987
5 *892:X 0.000242562
6 *332:30 0.00178366
7 *332:20 0.0028734
8 *332:12 0.0023429
9 *862:A *368:18 5.10375e-05
10 *862:A *368:132 7.80851e-06
11 *863:A *664:B 9.41642e-05
12 *863:A *929:A 4.04359e-05
13 *863:A *930:A 5.66018e-05
14 *863:A *367:22 1.18141e-05
15 *864:A *370:12 9.99853e-05
16 *864:A *371:10 9.7659e-05
17 *865:A *371:10 5.33433e-05
18 *332:20 *339:22 9.51854e-05
19 *332:20 *367:22 0.000446662
20 *332:30 *360:10 0
21 *332:30 *367:12 2.06178e-05
22 *332:30 *369:23 0
23 *651:A *332:30 0.000229443
24 *669:A *332:30 0.000167892
25 *687:B *332:20 3.82435e-05
26 *785:A *332:12 6.12661e-05
27 *786:A1 *332:12 7.43578e-06
28 *786:A2 *332:12 0.000315165
29 *787:B *862:A 0
30 *787:B *332:12 3.18676e-05
31 *811:A *332:30 0
32 *811:B *332:30 0
33 *829:RESET_B *863:A 4.04359e-05
34 *837:D *862:A 0
35 *840:CLK *864:A 0.000143375
36 *887:A *332:20 0.000111236
37 *893:A *332:20 0.000212418
38 *894:A *332:20 0.000134863
39 *151:14 *863:A 0.000177147
40 *151:14 *332:20 0.000211222
41 *152:16 *332:30 0.000342679
42 *156:14 *332:30 0.00047702
43 *164:12 *332:30 0.000290264
44 *173:27 *332:20 0.000253011
45 *253:8 *862:A 0
46 *301:12 *332:30 0.000216478
47 *301:28 *332:30 7.36267e-05
48 *327:10 *332:30 1.90936e-05
49 *329:10 *332:30 7.9611e-05
*RES
1 *892:X *332:12 19.4071 
2 *332:12 *332:20 8.35753 
3 *332:20 *332:30 30.4011 
4 *332:30 *864:A 27.0857 
5 *332:30 *865:A 10.2464 
6 *332:20 *863:A 19.0721 
7 *332:12 *862:A 16.2018 
*END

*D_NET *333 0.00709169
*CONN
*I *899:A I *D sky130_fd_sc_hd__buf_2
*I *656:B I *D sky130_fd_sc_hd__nand2_1
*I *812:B I *D sky130_fd_sc_hd__or2_1
*I *822:Q O *D sky130_fd_sc_hd__dfrtp_1
*CAP
1 *899:A 0.0019828
2 *656:B 1.40355e-05
3 *812:B 0.000110138
4 *822:Q 4.03476e-05
5 *333:31 0.00251181
6 *333:6 0.000665455
7 *656:B *910:A 5.52302e-05
8 *656:B *359:8 2.89114e-05
9 *899:A *608:A 0.000159782
10 *899:A *746:B 6.71687e-05
11 *899:A *910:A 3.4323e-06
12 *333:31 *910:A 6.8646e-06
13 *333:31 *371:66 5.74336e-05
14 acc[28] *899:A 9.11365e-06
15 *656:A *333:31 0.000170654
16 *741:A *899:A 7.69776e-06
17 *741:A *333:31 3.47641e-06
18 *812:A *812:B 8.39e-05
19 *812:A *333:31 0.000774611
20 *822:D *333:31 8.63686e-05
21 *822:RESET_B *333:6 5.62995e-05
22 *822:RESET_B *333:31 2.0714e-05
23 *882:A *899:A 4.64191e-05
24 *141:10 *333:31 8.71382e-05
25 *301:28 *812:B 0
26 *306:6 *333:31 4.18895e-05
*RES
1 *822:Q *333:6 10.2464 
2 *333:6 *812:B 20.8536 
3 *333:6 *333:31 19.375 
4 *333:31 *656:B 14.3357 
5 *333:31 *899:A 32.9452 
*END

*D_NET *334 0.00352899
*CONN
*I *639:B I *D sky130_fd_sc_hd__or2_1
*I *638:B I *D sky130_fd_sc_hd__nand2_1
*I *900:A I *D sky130_fd_sc_hd__buf_2
*I *832:Q O *D sky130_fd_sc_hd__dfrtp_1
*CAP
1 *639:B 2.9862e-05
2 *638:B 0.000671263
3 *900:A 0.000146167
4 *832:Q 0.000169858
5 *334:10 0.000817431
6 *334:8 0.00019972
7 *638:B *597:A 0
8 *638:B *339:22 3.50825e-05
9 *638:B *368:56 0
10 *636:A *900:A 0
11 *637:B *900:A 0
12 *638:A *638:B 2.56601e-05
13 *639:A *638:B 0.000192433
14 *639:A *334:8 9.41642e-05
15 *640:B *334:8 2.12087e-05
16 *644:B *638:B 0.000205734
17 *646:A2 *639:B 1.92905e-05
18 *646:A2 *334:8 5.74499e-06
19 *680:B1 *638:B 0
20 *792:A1 *638:B 0.000128154
21 *794:A1 *900:A 2.78822e-05
22 *795:B *638:B 0.000158621
23 *795:B *900:A 0.000175818
24 *834:RESET_B *638:B 0
25 *891:A *900:A 5.71472e-05
26 *893:A *638:B 0.000123295
27 *893:A *900:A 6.8194e-05
28 *127:10 *638:B 7.6644e-05
29 *331:22 *638:B 7.96183e-05
*RES
1 *832:Q *334:8 11.4964 
2 *334:8 *334:10 4.5 
3 *334:10 *900:A 17.4964 
4 *334:10 *638:B 28.1929 
5 *334:8 *639:B 9.83571 
*END

*D_NET *335 0.00556878
*CONN
*I *901:A I *D sky130_fd_sc_hd__buf_2
*I *635:B I *D sky130_fd_sc_hd__nor2_1
*I *634:B I *D sky130_fd_sc_hd__nand2_1
*I *636:B I *D sky130_fd_sc_hd__or2_1
*I *833:Q O *D sky130_fd_sc_hd__dfrtp_1
*CAP
1 *901:A 0.00130492
2 *635:B 0
3 *634:B 8.7242e-05
4 *636:B 0.000155262
5 *833:Q 0
6 *335:25 0.000262216
7 *335:6 0.000903123
8 *335:4 0.00187781
9 *901:A *364:27 2.83284e-06
10 acc[6] *901:A 0
11 acc[8] *901:A 2.56601e-05
12 acc[8] *335:6 1.44042e-05
13 *634:A *634:B 6.46481e-05
14 *635:A *335:25 6.05161e-06
15 *636:A *636:B 4.22908e-05
16 *636:A *335:25 9.41642e-05
17 *646:A1 *335:25 2.62395e-05
18 *833:CLK *636:B 4.35336e-05
19 *833:CLK *335:6 1.92905e-05
20 *833:CLK *335:25 0.000146474
21 *833:D *634:B 0.000149911
22 *888:A *634:B 9.32014e-05
23 *888:A *335:25 0.000218734
24 *890:A *335:25 0
25 *121:8 *634:B 1.33343e-05
26 *124:21 *634:B 1.74352e-05
*RES
1 *833:Q *335:4 9.3 
2 *335:4 *335:6 6.69643 
3 *335:6 *636:B 11.4964 
4 *335:6 *335:25 13.5357 
5 *335:25 *634:B 21.2107 
6 *335:25 *635:B 9.3 
7 *335:4 *901:A 42.8357 
*END

*D_NET *336 0.00463727
*CONN
*I *699:A2 I *D sky130_fd_sc_hd__a31o_1
*I *695:B I *D sky130_fd_sc_hd__or2_1
*I *902:A I *D sky130_fd_sc_hd__buf_2
*I *694:B I *D sky130_fd_sc_hd__nand2_1
*I *834:Q O *D sky130_fd_sc_hd__dfrtp_1
*CAP
1 *699:A2 4.32104e-05
2 *695:B 0
3 *902:A 0.000233247
4 *694:B 0
5 *834:Q 0.00110704
6 *336:30 0.000304528
7 *336:24 0.000440358
8 *336:14 0.00151933
9 *902:A *598:A 0.000144773
10 *902:A *694:A 1.97695e-05
11 *902:A *368:132 4.69993e-05
12 *336:24 *694:A 4.01339e-05
13 *336:24 *695:A 4.53834e-05
14 *336:30 *694:A 3.01734e-05
15 *336:30 *368:132 6.89249e-05
16 *696:A *336:30 1.3701e-05
17 *697:A2 *336:14 6.85106e-05
18 *699:B1 *336:24 8.48016e-05
19 *774:A1 *336:24 5.39629e-06
20 *781:A *336:14 2.05612e-05
21 *781:B *699:A2 0
22 *781:B *336:14 2.82217e-05
23 *834:D *336:14 8.75306e-05
24 *838:CLK *336:14 7.6997e-05
25 *839:CLK *336:24 8.06427e-05
26 *168:6 *336:14 3.97677e-05
27 *181:6 *336:24 2.44318e-05
28 *181:6 *336:30 5.52302e-05
29 *186:10 *336:14 7.59753e-06
*RES
1 *834:Q *336:14 31.4964 
2 *336:14 *336:24 14.8929 
3 *336:24 *336:30 2.21429 
4 *336:30 *694:B 9.3 
5 *336:30 *902:A 14.3893 
6 *336:24 *695:B 9.3 
7 *336:14 *699:A2 10.0321 
*END

*D_NET *337 0.00238051
*CONN
*I *682:B I *D sky130_fd_sc_hd__nand2_1
*I *683:B I *D sky130_fd_sc_hd__or2_1
*I *903:A I *D sky130_fd_sc_hd__buf_2
*I *835:Q O *D sky130_fd_sc_hd__dfrtp_1
*CAP
1 *682:B 0.000644259
2 *683:B 6.17105e-05
3 *903:A 0.000150624
4 *835:Q 0
5 *337:8 0.000287991
6 *337:4 0.000719915
7 *682:B *368:132 2.28335e-05
8 acc[13] *903:A 3.18676e-05
9 acc[14] *903:A 3.48705e-05
10 *835:D *682:B 7.6644e-05
11 *835:RESET_B *682:B 2.85276e-05
12 *35:15 *903:A 0.000176751
13 *35:15 *337:8 0.000144512
14 *253:8 *903:A 0
*RES
1 *835:Q *337:4 9.3 
2 *337:4 *337:8 6.44643 
3 *337:8 *903:A 17.4071 
4 *337:8 *683:B 14.7464 
5 *337:4 *682:B 26.5321 
*END

*D_NET *338 0.00369424
*CONN
*I *686:B I *D sky130_fd_sc_hd__nand2_1
*I *904:A I *D sky130_fd_sc_hd__buf_2
*I *685:B I *D sky130_fd_sc_hd__or2_1
*I *836:Q O *D sky130_fd_sc_hd__dfrtp_1
*CAP
1 *686:B 0.00014026
2 *904:A 0.000375612
3 *685:B 5.49253e-05
4 *836:Q 4.9424e-05
5 *338:19 0.00075752
6 *338:6 0.000345998
7 *686:B *685:A 9.9407e-05
8 *686:B *686:A 0.000251487
9 *338:19 *685:A 0.00054023
10 *687:A *685:B 0
11 *693:A *686:B 0.000135931
12 *693:A *904:A 5.33005e-05
13 *693:A *338:19 2.95642e-05
14 *787:A *904:A 0.000131792
15 *787:A *338:19 0.000191412
16 *836:RESET_B *338:6 2.51343e-06
17 *837:D *904:A 1.92789e-05
18 *839:CLK *686:B 1.41029e-05
19 *171:22 *686:B 0.000188967
20 *173:10 *338:19 2.0587e-05
21 *178:14 *338:19 0.000291928
*RES
1 *836:Q *338:6 9.83571 
2 *338:6 *685:B 10.3357 
3 *338:6 *338:19 12.1429 
4 *338:19 *904:A 20.2286 
5 *338:19 *686:B 18.4786 
*END

*D_NET *339 0.00645277
*CONN
*I *699:A1 I *D sky130_fd_sc_hd__a31o_1
*I *694:A I *D sky130_fd_sc_hd__nand2_1
*I *695:A I *D sky130_fd_sc_hd__or2_1
*I *893:X O *D sky130_fd_sc_hd__buf_1
*CAP
1 *699:A1 8.76167e-05
2 *694:A 0.000121375
3 *695:A 1.52795e-05
4 *893:X 0.00198779
5 *339:26 0.00040726
6 *339:22 0.00234601
7 *339:22 *368:56 0.00010347
8 *638:B *339:22 3.50825e-05
9 *644:B *339:22 4.11173e-05
10 *680:B1 *339:22 0
11 *699:A3 *699:A1 0.000162728
12 *699:B1 *694:A 8.22793e-06
13 *699:B1 *695:A 2.28378e-05
14 *699:B1 *699:A1 0
15 *795:A *339:22 6.05161e-06
16 *877:A *339:22 0.000681653
17 *893:A *339:22 9.91399e-05
18 *894:A *339:22 6.58294e-06
19 *898:A *339:26 0
20 *902:A *694:A 1.97695e-05
21 *127:10 *339:22 7.6644e-05
22 *169:21 *339:22 0
23 *169:21 *339:26 0
24 *181:6 *694:A 1.32552e-05
25 *332:20 *339:22 9.51854e-05
26 *336:24 *694:A 4.01339e-05
27 *336:24 *695:A 4.53834e-05
28 *336:30 *694:A 3.01734e-05
*RES
1 *893:X *339:22 32.8837 
2 *339:22 *339:26 3.8894 
3 *339:26 *695:A 14.3804 
4 *339:26 *694:A 16.1661 
5 *339:22 *699:A1 19.3082 
*END

*D_NET *340 0.0039923
*CONN
*I *688:B I *D sky130_fd_sc_hd__nand2_1
*I *689:B I *D sky130_fd_sc_hd__nor2_1
*I *690:B I *D sky130_fd_sc_hd__or2_1
*I *905:A I *D sky130_fd_sc_hd__buf_2
*I *837:Q O *D sky130_fd_sc_hd__dfrtp_1
*CAP
1 *688:B 0.00019943
2 *689:B 0
3 *690:B 0
4 *905:A 0.000235228
5 *837:Q 7.70325e-05
6 *340:50 0.000613691
7 *340:33 0.000475685
8 *340:8 0.000373685
9 *688:B *688:A 6.46107e-05
10 *340:33 *372:6 1.58163e-05
11 *340:50 *591:A 4.10796e-05
12 *340:50 *688:A 9.54798e-06
13 *340:50 *368:37 0
14 *340:50 *372:6 3.42509e-05
15 *340:50 *372:27 0.000167224
16 *691:A *905:A 0.00024661
17 *691:A *340:33 9.15804e-05
18 *691:B *905:A 0
19 *691:B *340:50 5.49489e-05
20 *698:A1 *340:50 1.66706e-05
21 *832:D *905:A 6.46738e-05
22 *832:D *340:33 9.91086e-05
23 *832:D *340:50 1.14416e-05
24 *832:RESET_B *340:50 1.32056e-05
25 *837:RESET_B *340:8 9.41642e-05
26 *894:A *688:B 0.000283955
27 *896:A *905:A 0
28 *41:21 *340:50 0
29 *169:21 *688:B 0.000288638
30 *174:20 *340:33 5.33005e-05
31 *174:20 *340:50 8.42609e-05
32 *175:8 *688:B 0.000107585
33 *178:14 *905:A 5.65955e-05
34 *302:30 *688:B 3.34366e-05
35 *302:34 *688:B 8.48485e-05
*RES
1 *837:Q *340:8 14.7464 
2 *340:8 *905:A 19.1214 
3 *340:8 *340:33 6.375 
4 *340:33 *690:B 9.3 
5 *340:33 *340:50 11.8571 
6 *340:50 *689:B 13.8 
7 *340:50 *688:B 23.4744 
*END

*D_NET *341 0.00647323
*CONN
*I *708:B I *D sky130_fd_sc_hd__nand2_1
*I *709:B I *D sky130_fd_sc_hd__or2_1
*I *714:A2 I *D sky130_fd_sc_hd__a31o_1
*I *906:A I *D sky130_fd_sc_hd__buf_2
*I *838:Q O *D sky130_fd_sc_hd__dfrtp_1
*CAP
1 *708:B 0.000169727
2 *709:B 9.99401e-05
3 *714:A2 0
4 *906:A 0.000268366
5 *838:Q 0.00117789
6 *341:36 0.000269667
7 *341:14 0.000534661
8 *341:6 0.00144419
9 *708:B *708:A 5.71472e-05
10 *906:A *701:A 2.04825e-05
11 *906:A *713:A 0.000127706
12 *906:A *343:14 0.000139907
13 *906:A *373:8 0.000139907
14 *341:14 *714:A1 1.04232e-05
15 *341:14 *373:8 2.14658e-05
16 *341:14 *373:19 7.99364e-05
17 *703:A *906:A 0
18 *704:A *906:A 3.17148e-05
19 *704:B *906:A 1.17968e-05
20 *711:B1 *709:B 0.000137983
21 *714:B1 *341:14 5.52302e-05
22 *715:C1 *906:A 0.000110376
23 *773:A *341:6 1.33472e-05
24 *774:A1 *709:B 7.57946e-05
25 *775:C *709:B 6.63225e-05
26 *776:A *341:6 8.25114e-05
27 *776:B *708:B 1.69115e-05
28 *777:B1 *341:6 7.02611e-05
29 *777:B1 *341:14 3.32774e-05
30 *838:CLK *341:6 9.53534e-05
31 *838:D *341:6 1.02911e-05
32 *838:RESET_B *341:6 4.17828e-05
33 *839:D *708:B 9.62614e-05
34 *839:D *709:B 0.000147325
35 *854:A *708:B 5.71472e-05
36 *897:A *341:14 0
37 *189:12 *906:A 0.000181454
38 *190:10 *906:A 0.000100735
39 *195:8 *708:B 0.000113807
40 *195:14 *708:B 7.1345e-05
41 *195:14 *709:B 6.73939e-05
42 *197:6 *341:6 9.76491e-05
43 *250:14 *708:B 0.000125731
*RES
1 *838:Q *341:6 23.8 
2 *341:6 *341:14 4.69643 
3 *341:14 *906:A 25.9964 
4 *341:14 *714:A2 9.3 
5 *341:6 *341:36 4.5 
6 *341:36 *709:B 17.1036 
7 *341:36 *708:B 18.6929 
*END

*D_NET *342 0.00300568
*CONN
*I *777:A2 I *D sky130_fd_sc_hd__a21o_1
*I *713:B I *D sky130_fd_sc_hd__and3_1
*I *701:B I *D sky130_fd_sc_hd__xnor2_1
*I *907:A I *D sky130_fd_sc_hd__buf_2
*I *839:Q O *D sky130_fd_sc_hd__dfrtp_1
*CAP
1 *777:A2 7.77013e-05
2 *713:B 0.000175819
3 *701:B 0
4 *907:A 0.00020218
5 *839:Q 0
6 *342:36 0.000522344
7 *342:23 0.000419222
8 *342:6 0.000352579
9 *713:B *701:A 0
10 *713:B *374:12 1.17968e-05
11 *713:B *374:20 2.07158e-05
12 *342:23 *701:A 5.71472e-05
13 *342:36 *701:A 0.000186404
14 acc[17] *907:A 1.92905e-05
15 *707:B *777:A2 4.51691e-05
16 *707:B *342:36 0
17 *714:A3 *713:B 5.01876e-06
18 *714:A3 *342:36 0.000113773
19 *714:B1 *713:B 0.000218012
20 *714:B1 *777:A2 9.25014e-06
21 *715:C1 *713:B 6.66939e-05
22 *839:RESET_B *907:A 0
23 *854:A *713:B 1.40306e-05
24 *35:15 *907:A 0.000276802
25 *35:15 *342:23 0.000143307
26 *188:8 *342:36 1.21289e-05
27 *188:15 *342:36 5.62995e-05
*RES
1 *839:Q *342:6 13.8 
2 *342:6 *907:A 18.6214 
3 *342:6 *342:23 7.80357 
4 *342:23 *701:B 9.3 
5 *342:23 *342:36 10.1339 
6 *342:36 *713:B 17.9518 
7 *342:36 *777:A2 15.3268 
*END

*D_NET *343 0.00732643
*CONN
*I *908:A I *D sky130_fd_sc_hd__buf_2
*I *712:C1 I *D sky130_fd_sc_hd__o211a_1
*I *702:B I *D sky130_fd_sc_hd__or2_1
*I *703:B I *D sky130_fd_sc_hd__nand2_1
*I *840:Q O *D sky130_fd_sc_hd__dfrtp_1
*CAP
1 *908:A 0.000480637
2 *712:C1 0.000284451
3 *702:B 2.84912e-05
4 *703:B 5.18616e-05
5 *840:Q 0.000207046
6 *343:40 0.000991189
7 *343:14 0.000566027
8 *343:6 0.00091882
9 *712:C1 *344:18 4.69376e-05
10 *908:A *909:A 0.00111109
11 *908:A *912:A 0
12 *908:A *344:10 5.66157e-05
13 *908:A *348:12 0
14 *908:A *370:62 0.000507757
15 *343:40 *344:10 0.000318323
16 *343:40 *344:14 1.98839e-05
17 *343:40 *344:18 6.05161e-06
18 *343:40 *346:21 6.05161e-06
19 *343:40 *370:47 7.79781e-06
20 acc[16] *343:14 4.50149e-05
21 *703:A *703:B 7.83366e-05
22 *703:A *343:14 4.46186e-06
23 *705:A *712:C1 0.000218045
24 *706:B *343:40 0.00012401
25 *712:A1 *712:C1 5.52238e-05
26 *715:C1 *343:40 0
27 *769:A *908:A 0
28 *778:A *343:6 2.59355e-05
29 *779:A1 *343:14 2.59355e-05
30 *779:A2 *343:14 0.000105163
31 *780:B *343:40 7.73758e-05
32 *840:D *343:6 2.27416e-05
33 *844:D *908:A 5.26091e-05
34 *906:A *343:14 0.000139907
35 *35:15 *702:B 5.52302e-05
36 *35:15 *703:B 0.00015234
37 *35:15 *343:14 2.31791e-05
38 *189:12 *343:14 1.98839e-05
39 *192:8 *343:40 0.000330823
40 *250:14 *343:6 3.98547e-05
41 *250:14 *343:14 7.43578e-06
42 *307:8 *343:14 0.000113894
*RES
1 *840:Q *343:6 11.8893 
2 *343:6 *343:14 13.8571 
3 *343:14 *703:B 15.7464 
4 *343:14 *702:B 14.3357 
5 *343:6 *343:40 16.1429 
6 *343:40 *712:C1 14.3714 
7 *343:40 *908:A 33.3 
*END

*D_NET *344 0.00594298
*CONN
*I *909:A I *D sky130_fd_sc_hd__buf_2
*I *705:B I *D sky130_fd_sc_hd__xnor2_1
*I *712:A2 I *D sky130_fd_sc_hd__o211a_1
*I *715:A2 I *D sky130_fd_sc_hd__a211oi_1
*I *841:Q O *D sky130_fd_sc_hd__dfrtp_1
*CAP
1 *909:A 0.000524233
2 *705:B 0
3 *712:A2 0
4 *715:A2 9.22558e-05
5 *841:Q 0.000322181
6 *344:18 0.000261319
7 *344:14 0.000200174
8 *344:10 0.000877525
9 *909:A *721:B 0.000142856
10 *909:A *729:B 4.66511e-05
11 *909:A *346:21 0.00015134
12 *344:10 *346:21 9.25014e-06
13 *344:10 *370:31 0.000105163
14 *344:10 *370:47 0.000126639
15 acc[19] *909:A 5.52302e-05
16 *705:A *344:18 0.000230482
17 *712:A1 *344:18 5.52238e-05
18 *712:B1 *715:A2 0.000127446
19 *712:C1 *344:18 4.69376e-05
20 *715:B1 *344:10 0
21 *715:C1 *344:10 0
22 *722:A *909:A 0
23 *728:A *344:10 9.10431e-06
24 *780:A *344:10 4.87854e-05
25 *841:D *344:10 0.000575092
26 *843:D *909:A 0
27 *844:RESET_B *909:A 0.000245349
28 *908:A *909:A 0.00111109
29 *908:A *344:10 5.66157e-05
30 *191:10 *344:10 1.21258e-05
31 *208:10 *909:A 0
32 *209:16 *909:A 0
33 *244:10 *909:A 0
34 *245:10 *909:A 5.21676e-05
35 *307:8 *715:A2 3.51442e-05
36 *308:10 *344:10 0
37 *308:21 *715:A2 7.83462e-05
38 *308:21 *344:10 0
39 *343:40 *344:10 0.000318323
40 *343:40 *344:14 1.98839e-05
41 *343:40 *344:18 6.05161e-06
*RES
1 *841:Q *344:10 24.3536 
2 *344:10 *344:14 5.03571 
3 *344:14 *344:18 3.83929 
4 *344:18 *715:A2 20.7821 
5 *344:18 *712:A2 9.3 
6 *344:14 *705:B 9.3 
7 *344:10 *909:A 29.55 
*END

*D_NET *345 0.00362562
*CONN
*I *910:A I *D sky130_fd_sc_hd__buf_2
*I *654:B I *D sky130_fd_sc_hd__nor2_1
*I *652:B I *D sky130_fd_sc_hd__nand2_1
*I *823:Q O *D sky130_fd_sc_hd__dfrtp_1
*CAP
1 *910:A 0.000387614
2 *654:B 0
3 *652:B 0.000153162
4 *823:Q 0.000414303
5 *345:23 0.000514043
6 *345:8 0.000693894
7 *910:A *741:B 5.33005e-05
8 *910:A *359:8 5.51095e-05
9 *910:A *371:66 0
10 *652:A *652:B 0.00011833
11 *652:A *345:23 3.92854e-05
12 *654:A *910:A 5.80706e-06
13 *654:A *345:23 0.000124713
14 *656:A *910:A 1.08359e-05
15 *656:B *910:A 5.52302e-05
16 *741:A *910:A 5.33005e-05
17 *853:RESET_B *910:A 0.000199775
18 *899:A *910:A 3.4323e-06
19 *137:12 *652:B 0.000105163
20 *139:12 *652:B 0.000299955
21 *139:12 *345:23 0.000140368
22 *143:10 *910:A 6.09476e-05
23 *143:18 *910:A 1.41029e-05
24 *143:18 *345:23 7.50601e-05
25 *144:10 *652:B 0
26 *319:16 *910:A 3.69865e-05
27 *319:16 *345:23 4.038e-06
28 *333:31 *910:A 6.8646e-06
*RES
1 *823:Q *345:8 18.4429 
2 *345:8 *652:B 18.8536 
3 *345:8 *345:23 4.07143 
4 *345:23 *654:B 13.8 
5 *345:23 *910:A 21.2107 
*END

*D_NET *346 0.00450532
*CONN
*I *729:B I *D sky130_fd_sc_hd__or2_1
*I *911:A I *D sky130_fd_sc_hd__buf_2
*I *728:B I *D sky130_fd_sc_hd__nand2_1
*I *842:Q O *D sky130_fd_sc_hd__dfrtp_1
*CAP
1 *729:B 2.05209e-05
2 *911:A 0.000267511
3 *728:B 0
4 *842:Q 0.0010089
5 *346:21 0.000503893
6 *346:8 0.00122476
7 *911:A *602:A 2.44318e-05
8 *911:A *370:47 0.000156721
9 *716:A *346:8 0.000311787
10 *716:A *346:21 0
11 *728:A *729:B 2.84494e-05
12 *728:A *346:21 0.000175391
13 *730:B *346:8 6.4443e-05
14 *842:CLK *346:8 6.34153e-05
15 *846:CLK *346:8 0.000127051
16 *870:A *911:A 5.2714e-05
17 *909:A *729:B 4.66511e-05
18 *909:A *346:21 0.00015134
19 *215:6 *346:8 3.61629e-06
20 *215:6 *346:21 3.18676e-05
21 *304:28 *346:8 0.00010304
22 *310:12 *911:A 0.000123512
23 *343:40 *346:21 6.05161e-06
24 *344:10 *346:21 9.25014e-06
*RES
1 *842:Q *346:8 22.8893 
2 *346:8 *728:B 9.3 
3 *346:8 *346:21 9.46429 
4 *346:21 *911:A 19.8714 
5 *346:21 *729:B 14.5321 
*END

*D_NET *347 0.00169346
*CONN
*I *912:A I *D sky130_fd_sc_hd__buf_2
*I *718:B I *D sky130_fd_sc_hd__or2_1
*I *717:B I *D sky130_fd_sc_hd__nand2_1
*I *843:Q O *D sky130_fd_sc_hd__dfrtp_1
*CAP
1 *912:A 0.000313124
2 *718:B 0
3 *717:B 0.000104629
4 *843:Q 0.000247924
5 *347:12 0.000104629
6 *347:10 0.000561048
7 *912:A *348:12 0
8 *912:A *370:62 0
9 *347:10 *370:62 0
10 acc[21] *912:A 0.000162258
11 acc[22] *912:A 0
12 *717:A *717:B 4.50908e-05
13 *769:A *912:A 0.000154762
14 *844:D *912:A 0
15 *871:A *912:A 0
16 *871:A *347:10 0
17 *908:A *912:A 0
18 *311:12 *912:A 0
*RES
1 *843:Q *347:10 17.1036 
2 *347:10 *347:12 4.5 
3 *347:12 *717:B 11.5143 
4 *347:12 *718:B 9.3 
5 *347:10 *912:A 20.9071 
*END

*D_NET *348 0.00269483
*CONN
*I *720:B I *D sky130_fd_sc_hd__or2_1
*I *913:A I *D sky130_fd_sc_hd__buf_2
*I *721:B I *D sky130_fd_sc_hd__nand2_1
*I *844:Q O *D sky130_fd_sc_hd__dfrtp_1
*CAP
1 *720:B 0.000468613
2 *913:A 0
3 *721:B 0.000246001
4 *844:Q 0.000270197
5 *348:12 0.00035632
6 *348:6 0.000849129
7 acc[19] *721:B 0.000113073
8 *721:A *721:B 5.7661e-06
9 *722:B *721:B 5.7661e-06
10 *769:A *720:B 1.47637e-05
11 *769:A *348:6 1.57931e-05
12 *844:CLK *720:B 1.92789e-05
13 *844:D *720:B 9.93235e-05
14 *844:RESET_B *720:B 8.79458e-05
15 *908:A *348:12 0
16 *909:A *721:B 0.000142856
17 *912:A *348:12 0
*RES
1 *844:Q *348:6 12.3 
2 *348:6 *348:12 10.6429 
3 *348:12 *721:B 13.9786 
4 *348:12 *913:A 9.3 
5 *348:6 *720:B 15.4964 
*END

*D_NET *349 0.00103923
*CONN
*I *723:B I *D sky130_fd_sc_hd__nand2_1
*I *914:A I *D sky130_fd_sc_hd__buf_2
*I *724:B I *D sky130_fd_sc_hd__or2_1
*I *845:Q O *D sky130_fd_sc_hd__dfrtp_1
*CAP
1 *723:B 8.41248e-05
2 *914:A 0
3 *724:B 5.81598e-05
4 *845:Q 5.33265e-05
5 *349:21 0.000250936
6 *349:8 0.000278297
7 *724:B *370:91 5.29461e-05
8 *349:21 *370:91 1.76135e-05
9 *724:A *724:B 7.76132e-05
10 *724:A *349:21 3.48923e-05
11 *735:A *349:8 9.33978e-07
12 *735:A *349:21 0.000125731
13 *762:B *349:21 0
14 *848:CLK *349:21 0
15 *873:A *723:B 4.65828e-06
16 *873:A *349:21 0
17 *315:12 *349:21 0
*RES
1 *845:Q *349:8 14.3357 
2 *349:8 *724:B 15.7464 
3 *349:8 *349:21 3.69643 
4 *349:21 *914:A 13.8 
5 *349:21 *723:B 15.1571 
*END

*D_NET *350 0.0031666
*CONN
*I *682:A I *D sky130_fd_sc_hd__nand2_1
*I *683:A I *D sky130_fd_sc_hd__or2_1
*I *894:X O *D sky130_fd_sc_hd__clkbuf_1
*CAP
1 *682:A 2.23854e-05
2 *683:A 0.000232329
3 *894:X 0.000407846
4 *350:12 0.000662561
5 *350:12 *688:A 9.83442e-05
6 *350:12 *361:8 0.000105555
7 *684:B *350:12 0.000456245
8 *783:A *350:12 9.41642e-05
9 *784:A1 *683:A 0.00010096
10 *784:A2 *683:A 0.000171023
11 *784:A2 *350:12 8.54775e-05
12 *784:B1_N *683:A 0.00014285
13 *859:A *350:12 7.61137e-05
14 *41:21 *350:12 0.000484233
15 *170:6 *683:A 2.65105e-05
*RES
1 *894:X *350:12 21.3893 
2 *350:12 *683:A 14.7643 
3 *350:12 *682:A 9.72857 
*END

*D_NET *351 0.00407978
*CONN
*I *915:A I *D sky130_fd_sc_hd__buf_2
*I *632:B I *D sky130_fd_sc_hd__or2_1
*I *631:B I *D sky130_fd_sc_hd__nand2_1
*I *846:Q O *D sky130_fd_sc_hd__dfrtp_1
*CAP
1 *915:A 0.000941527
2 *632:B 0
3 *631:B 5.85068e-05
4 *846:Q 0
5 *351:12 0.000253871
6 *351:4 0.00113689
7 *915:A *609:A 0.000144038
8 *915:A *353:34 5.52302e-05
9 *632:A *631:B 0.000144773
10 *740:A *915:A 0.000384837
11 *740:B *351:12 0
12 *743:A_N *915:A 4.00349e-05
13 *743:B *915:A 1.94945e-05
14 *746:A *915:A 0.00010815
15 *747:A *915:A 8.80979e-05
16 *754:A *915:A 7.00301e-05
17 *850:D *915:A 1.32552e-05
18 *858:A *915:A 0
19 *882:A *915:A 4.37992e-05
20 *883:A *915:A 2.37838e-05
21 *102:32 *915:A 6.8646e-06
22 *117:12 *915:A 0.000208825
23 *118:10 *631:B 0.000126629
24 *118:10 *351:12 2.94103e-05
25 *316:20 *915:A 7.11622e-05
26 *316:33 *915:A 0.000110571
*RES
1 *846:Q *351:4 9.3 
2 *351:4 *351:12 11.8929 
3 *351:12 *631:B 11.4786 
4 *351:12 *632:B 9.3 
5 *351:4 *915:A 37.2643 
*END

*D_NET *352 0.00198374
*CONN
*I *916:A I *D sky130_fd_sc_hd__buf_2
*I *618:B I *D sky130_fd_sc_hd__or2_1
*I *617:B I *D sky130_fd_sc_hd__nand2_1
*I *847:Q O *D sky130_fd_sc_hd__dfrtp_1
*CAP
1 *916:A 0.000126979
2 *618:B 2.50308e-05
3 *617:B 0.000198906
4 *847:Q 0.000243117
5 *352:25 0.000239608
6 *352:10 0.000529621
7 *617:B *370:77 1.04232e-05
8 *916:A *370:97 1.02504e-05
9 acc[25] *916:A 0
10 *618:A *617:B 0.000230841
11 *625:A *618:B 6.76337e-05
12 *625:A *916:A 2.22043e-05
13 *760:A2 *618:B 4.46186e-06
14 *760:A2 *352:10 6.01086e-05
15 *760:A2 *352:25 2.16816e-05
16 *762:B *617:B 9.80173e-05
17 *847:D *352:10 4.01768e-05
18 *847:RESET_B *352:10 0
19 *110:23 *916:A 0
20 *314:16 *916:A 4.6898e-05
21 *315:12 *617:B 7.78065e-06
22 *315:12 *916:A 0
23 *315:12 *352:10 0
*RES
1 *847:Q *352:10 17.6661 
2 *352:10 *617:B 18.2196 
3 *352:10 *352:25 1.35714 
4 *352:25 *618:B 14.6839 
5 *352:25 *916:A 16.2018 
*END

*D_NET *353 0.00399013
*CONN
*I *917:A I *D sky130_fd_sc_hd__buf_2
*I *627:C1 I *D sky130_fd_sc_hd__o211a_1
*I *622:B I *D sky130_fd_sc_hd__or2_1
*I *621:B I *D sky130_fd_sc_hd__nand2_1
*I *848:Q O *D sky130_fd_sc_hd__dfrtp_1
*CAP
1 *917:A 0.000324497
2 *627:C1 0
3 *622:B 0
4 *621:B 0.000130416
5 *848:Q 0
6 *353:34 0.000597703
7 *353:21 0.000452676
8 *353:4 0.000309886
9 *353:34 *354:12 6.32633e-05
10 acc[26] *917:A 0.000353922
11 *620:A *917:A 0.000166679
12 *621:A *621:B 4.35048e-05
13 *621:A *353:21 3.48705e-05
14 *623:B *353:21 5.52302e-05
15 *628:B1 *917:A 0.000392019
16 *629:A *621:B 2.27416e-05
17 *746:A *621:B 0
18 *746:A *353:34 2.3083e-05
19 *748:A_N *917:A 0.000138881
20 *750:A *917:A 0.000242822
21 *752:A2 *917:A 4.59075e-05
22 *849:CLK *353:34 6.05161e-06
23 *849:D *353:34 7.79781e-06
24 *849:RESET_B *917:A 0.000221641
25 *915:A *353:34 5.52302e-05
26 *107:12 *917:A 5.72753e-05
27 *232:35 *917:A 1.63337e-05
28 *316:20 *353:34 5.80706e-06
29 *316:33 *353:21 2.77173e-05
30 *316:33 *353:34 0.000189715
31 *318:12 *621:B 4.46186e-06
*RES
1 *848:Q *353:4 9.3 
2 *353:4 *621:B 20.8893 
3 *353:4 *353:21 2.60714 
4 *353:21 *622:B 9.3 
5 *353:21 *353:34 14.3571 
6 *353:34 *627:C1 9.3 
7 *353:34 *917:A 20.2643 
*END

*D_NET *354 0.00365492
*CONN
*I *918:A I *D sky130_fd_sc_hd__buf_2
*I *620:B I *D sky130_fd_sc_hd__xnor2_1
*I *627:A2 I *D sky130_fd_sc_hd__o211a_1
*I *628:A2 I *D sky130_fd_sc_hd__a211o_1
*I *849:Q O *D sky130_fd_sc_hd__dfrtp_1
*CAP
1 *918:A 0.00020589
2 *620:B 0
3 *627:A2 2.38802e-05
4 *628:A2 0.000229856
5 *849:Q 0
6 *354:16 0.000371636
7 *354:12 0.000773576
8 *354:4 0.000861567
9 *918:A *742:B 2.59355e-05
10 *918:A *746:B 0
11 *620:A *627:A2 3.01927e-05
12 *620:A *628:A2 1.74352e-05
13 *620:A *354:16 0.000165388
14 *623:A *628:A2 0
15 *629:A *628:A2 1.24368e-05
16 *746:A *918:A 1.90111e-05
17 *746:A *354:12 6.06836e-05
18 *849:CLK *354:12 2.79421e-05
19 *849:D *354:12 0.000145753
20 *849:RESET_B *354:12 4.35639e-05
21 *228:14 *918:A 9.60939e-05
22 *228:14 *354:12 9.71197e-05
23 *316:20 *354:12 0
24 *318:18 *627:A2 3.57366e-05
25 *318:18 *628:A2 0.000347958
26 *353:34 *354:12 6.32633e-05
*RES
1 *849:Q *354:4 9.3 
2 *354:4 *354:12 18.0536 
3 *354:12 *354:16 2.60714 
4 *354:16 *628:A2 13.8536 
5 *354:16 *627:A2 10.0321 
6 *354:12 *620:B 9.3 
7 *354:4 *918:A 12.2107 
*END

*D_NET *355 0.00547715
*CONN
*I *919:A I *D sky130_fd_sc_hd__buf_2
*I *615:B I *D sky130_fd_sc_hd__or2_1
*I *614:B I *D sky130_fd_sc_hd__nand2_1
*I *850:Q O *D sky130_fd_sc_hd__dfrtp_1
*CAP
1 *919:A 0.000546709
2 *615:B 0.000311376
3 *614:B 0
4 *850:Q 0.000334229
5 *355:12 0.000311376
6 *355:10 0.000880938
7 *615:B *747:B 4.58976e-05
8 *919:A *742:B 0.000177039
9 *355:10 *611:A 1.78353e-05
10 *614:A *615:B 5.52302e-05
11 *615:A *615:B 0.000834261
12 *741:A *919:A 0.000138031
13 *741:A *355:10 0
14 *744:A *615:B 0.000185643
15 *748:A_N *919:A 9.71197e-05
16 *753:A1 *615:B 5.52238e-05
17 *753:A1 *919:A 7.83659e-05
18 *753:A2 *919:A 0.000123288
19 *753:A2 *355:10 1.02504e-05
20 *753:B1 *919:A 0.000197006
21 *755:A *355:10 5.67206e-05
22 *755:B *355:10 5.71472e-05
23 *849:RESET_B *919:A 0.000139637
24 *852:RESET_B *919:A 0
25 *853:D *355:10 5.39166e-06
26 *876:A *919:A 6.87975e-06
27 *101:6 *615:B 0.000303747
28 *102:32 *615:B 0.000227539
29 *231:12 *919:A 4.25176e-05
30 *231:27 *919:A 0.000187379
31 *319:16 *355:10 5.03694e-05
*RES
1 *850:Q *355:10 18.7464 
2 *355:10 *355:12 4.5 
3 *355:12 *614:B 9.3 
4 *355:12 *615:B 20.2821 
5 *355:10 *919:A 35.4786 
*END

*D_NET *356 0.00432124
*CONN
*I *742:B I *D sky130_fd_sc_hd__nand2_1
*I *920:A I *D sky130_fd_sc_hd__buf_2
*I *741:B I *D sky130_fd_sc_hd__nor2_1
*I *851:Q O *D sky130_fd_sc_hd__dfrtp_1
*CAP
1 *742:B 0.00046996
2 *920:A 0
3 *741:B 0.000317943
4 *851:Q 0.000123814
5 *356:31 0.000521835
6 *356:8 0.000493632
7 *741:B *359:8 2.89016e-05
8 *741:B *371:66 0.000123137
9 *742:B *608:A 0
10 *741:A *741:B 1.91414e-05
11 *746:A *742:B 2.59355e-05
12 *751:A2 *742:B 6.87574e-05
13 *752:A1 *742:B 0.000139907
14 *752:A2 *742:B 5.33005e-05
15 *754:A *741:B 0.000205842
16 *851:RESET_B *356:8 2.0272e-05
17 *852:RESET_B *741:B 0.000185078
18 *852:RESET_B *356:31 7.40975e-05
19 *866:A *741:B 0.000257296
20 *876:A *742:B 0.00051675
21 *910:A *741:B 5.33005e-05
22 *918:A *742:B 2.59355e-05
23 *919:A *742:B 0.000177039
24 *227:10 *741:B 0.000212302
25 *227:10 *356:31 0.000151843
26 *231:27 *742:B 5.52238e-05
*RES
1 *851:Q *356:8 15.1571 
2 *356:8 *741:B 23.675 
3 *356:8 *356:31 6.44643 
4 *356:31 *920:A 9.3 
5 *356:31 *742:B 29.4786 
*END

*D_NET *357 0.00407598
*CONN
*I *921:A I *D sky130_fd_sc_hd__buf_2
*I *651:B I *D sky130_fd_sc_hd__nor2_1
*I *650:B I *D sky130_fd_sc_hd__and2_1
*I *824:Q O *D sky130_fd_sc_hd__dfrtp_1
*CAP
1 *921:A 0.000155314
2 *651:B 0.000702768
3 *650:B 1.06798e-05
4 *824:Q 7.76826e-05
5 *357:10 0.000762656
6 *357:8 0.000282205
7 *651:B *360:14 2.11419e-05
8 acc[3] *651:B 0.000211829
9 *650:A *650:B 1.01912e-05
10 *650:A *921:A 4.35131e-05
11 *650:A *357:8 3.32631e-05
12 *650:A *357:10 5.6911e-05
13 *652:A *921:A 0
14 *665:A *651:B 1.09611e-05
15 *669:B *651:B 0.00106778
16 *884:A *921:A 5.52302e-05
17 *886:A *651:B 4.04355e-05
18 *137:12 *921:A 0.000128941
19 *137:12 *357:10 4.15914e-05
20 *152:16 *651:B 1.0562e-05
21 *324:14 *650:B 6.27272e-06
22 *324:14 *357:10 8.42484e-06
23 *324:35 *651:B 0.000337631
*RES
1 *824:Q *357:8 14.7464 
2 *357:8 *357:10 1.49107 
3 *357:10 *650:B 14.0768 
4 *357:10 *651:B 23.1058 
5 *357:8 *921:A 17.8 
*END

*D_NET *358 0.00628569
*CONN
*I *922:A I *D sky130_fd_sc_hd__buf_2
*I *747:B I *D sky130_fd_sc_hd__nand2_1
*I *746:B I *D sky130_fd_sc_hd__nor2_1
*I *852:Q O *D sky130_fd_sc_hd__dfrtp_1
*CAP
1 *922:A 0
2 *747:B 0.000659879
3 *746:B 0.0003191
4 *852:Q 0
5 *358:31 0.00102555
6 *358:6 0.000684773
7 *746:B *608:A 2.30116e-06
8 *747:B *609:A 0.000177815
9 *747:B *611:A 0.000258403
10 acc[28] *746:B 0.000101545
11 acc[29] *358:31 1.01912e-05
12 acc[30] *358:31 0.00041938
13 *614:A *747:B 4.27935e-05
14 *615:A *747:B 0.000969992
15 *615:B *747:B 4.58976e-05
16 *738:A1 *747:B 3.14386e-05
17 *738:B1 *747:B 4.22908e-05
18 *746:A *746:B 5.7661e-06
19 *752:A2 *746:B 0
20 *753:A1 *747:B 1.02936e-05
21 *753:A2 *747:B 7.25614e-05
22 *850:RESET_B *747:B 0.000482588
23 *851:RESET_B *358:31 1.88482e-05
24 *879:A *358:31 0.000111348
25 *883:A *746:B 0.000120702
26 *883:A *358:31 9.35984e-05
27 *899:A *746:B 6.71687e-05
28 *918:A *746:B 0
29 *102:32 *747:B 1.5424e-05
30 *227:10 *358:31 0.000106587
31 *227:27 *746:B 5.54183e-05
32 *227:27 *358:31 6.95916e-05
33 *232:10 *747:B 0.000209219
34 *305:8 *747:B 5.52238e-05
*RES
1 *852:Q *358:6 13.8 
2 *358:6 *746:B 20.4964 
3 *358:6 *358:31 14.3393 
4 *358:31 *747:B 28.3893 
5 *358:31 *922:A 9.3 
*END

*D_NET *359 0.00185845
*CONN
*I *754:B I *D sky130_fd_sc_hd__xnor2_1
*I *923:A I *D sky130_fd_sc_hd__buf_2
*I *853:Q O *D sky130_fd_sc_hd__dfrtp_1
*CAP
1 *754:B 0.000124596
2 *923:A 6.00809e-05
3 *853:Q 0.00018322
4 *359:8 0.000367898
5 *754:B *610:A 2.59355e-05
6 *656:B *359:8 2.89114e-05
7 *741:A *359:8 2.89016e-05
8 *741:B *359:8 2.89016e-05
9 *853:RESET_B *359:8 2.59355e-05
10 *866:A *754:B 0.000234392
11 *866:A *923:A 0.000175505
12 *879:A *923:A 5.29461e-05
13 *910:A *359:8 5.51095e-05
14 *143:10 *359:8 0.000135028
15 *227:10 *754:B 0.000246071
16 *227:10 *923:A 3.17148e-05
17 *227:10 *359:8 5.33005e-05
*RES
1 *853:Q *359:8 17.6214 
2 *359:8 *923:A 16.05 
3 *359:8 *754:B 17.4964 
*END

*D_NET *360 0.00433626
*CONN
*I *660:B I *D sky130_fd_sc_hd__xor2_1
*I *659:A2 I *D sky130_fd_sc_hd__a21o_1
*I *661:A2 I *D sky130_fd_sc_hd__o22ai_1
*I *924:A I *D sky130_fd_sc_hd__buf_2
*I *674:A2 I *D sky130_fd_sc_hd__o221ai_4
*I *825:Q O *D sky130_fd_sc_hd__dfrtp_4
*CAP
1 *660:B 0
2 *659:A2 0
3 *661:A2 0.000121361
4 *924:A 0.000275652
5 *674:A2 2.30855e-05
6 *825:Q 0.000127592
7 *360:30 0.00045961
8 *360:20 0.000400553
9 *360:14 0.00018739
10 *360:10 0.000196663
11 *924:A *815:A 0.000175358
12 *924:A *930:A 4.22135e-06
13 *360:20 *817:A 0
14 acc[3] *924:A 1.01912e-05
15 *651:A *360:10 0
16 *651:A *360:14 0
17 *651:B *360:14 2.11419e-05
18 *659:B1 *360:10 0
19 *659:B1 *360:20 7.74159e-05
20 *660:A *360:14 0.000125724
21 *660:A *360:20 1.92789e-05
22 *674:B1 *674:A2 0
23 *674:B1 *360:30 0.000216755
24 *674:C1 *360:30 6.05161e-06
25 *796:A *924:A 4.11804e-05
26 *796:B *924:A 5.33433e-05
27 *798:B *924:A 0.000222244
28 *804:B *360:30 9.8045e-05
29 *811:A *360:10 0.000128154
30 *826:RESET_B *360:20 0.000136951
31 *826:RESET_B *360:30 0.000101346
32 *828:D *360:10 5.7616e-05
33 *828:D *360:14 0.000196786
34 *138:16 *360:30 0.000300412
35 *145:26 *360:10 0
36 *146:6 *661:A2 4.58194e-05
37 *148:14 *924:A 3.14048e-05
38 *148:14 *360:30 9.22103e-06
39 *152:16 *360:14 1.09232e-05
40 *324:14 *924:A 0.000434
41 *324:48 *661:A2 2.13481e-06
42 *324:48 *360:20 1.86292e-05
43 *332:30 *360:10 0
*RES
1 *825:Q *360:10 16.5857 
2 *360:10 *360:14 7.05357 
3 *360:14 *360:20 2.92857 
4 *360:20 *360:30 13.7679 
5 *360:30 *674:A2 9.72857 
6 *360:30 *924:A 25.9071 
7 *360:20 *661:A2 10.6571 
8 *360:14 *659:A2 9.3 
9 *360:10 *660:B 13.8 
*END

*D_NET *361 0.00312946
*CONN
*I *686:A I *D sky130_fd_sc_hd__nand2_1
*I *685:A I *D sky130_fd_sc_hd__or2_1
*I *895:X O *D sky130_fd_sc_hd__clkbuf_1
*CAP
1 *686:A 0.000134966
2 *685:A 0.000310837
3 *895:X 0.000236467
4 *361:8 0.000682269
5 *686:B *685:A 9.9407e-05
6 *686:B *686:A 0.000251487
7 *699:B1 *685:A 3.52028e-05
8 *699:B1 *686:A 6.3343e-05
9 *782:B1_N *686:A 7.43578e-06
10 *786:A1 *685:A 0.000161921
11 *859:A *361:8 0.000177545
12 *896:A *685:A 0
13 *171:22 *686:A 5.52302e-05
14 *178:14 *685:A 4.13477e-05
15 *179:10 *685:A 7.45698e-05
16 *252:12 *686:A 0.00012401
17 *302:34 *685:A 2.76397e-05
18 *338:19 *685:A 0.00054023
19 *350:12 *361:8 0.000105555
*RES
1 *895:X *361:8 16.8 
2 *361:8 *685:A 23.0321 
3 *361:8 *686:A 17.8 
*END

*D_NET *362 0.00316371
*CONN
*I *670:B I *D sky130_fd_sc_hd__nand2_1
*I *671:B I *D sky130_fd_sc_hd__or2_1
*I *925:A I *D sky130_fd_sc_hd__buf_2
*I *826:Q O *D sky130_fd_sc_hd__dfrtp_1
*CAP
1 *670:B 0.000199235
2 *671:B 0
3 *925:A 0.000169648
4 *826:Q 0.00034572
5 *362:27 0.000309227
6 *362:8 0.00062536
7 *670:B *667:B 0.000110107
8 *925:A *928:A 5.01213e-05
9 *362:27 *667:B 9.60939e-05
10 *362:27 *928:A 0.000142083
11 acc[4] *925:A 1.59373e-05
12 acc[7] *670:B 1.56e-05
13 *670:A *670:B 0
14 *800:C *925:A 1.89717e-05
15 *827:RESET_B *925:A 9.91086e-05
16 *827:RESET_B *362:27 0.000321815
17 *885:A *925:A 0.000154109
18 *886:A *670:B 7.62687e-05
19 *154:18 *925:A 0
20 *157:12 *670:B 0.000162272
21 *157:14 *670:B 5.52238e-05
22 *157:14 *362:27 1.5424e-05
23 *325:10 *925:A 0.000181381
*RES
1 *826:Q *362:8 17.2107 
2 *362:8 *925:A 18.5679 
3 *362:8 *362:27 8.91071 
4 *362:27 *671:B 9.3 
5 *362:27 *670:B 23.2643 
*END

*D_NET *363 0.00319444
*CONN
*I *667:B I *D sky130_fd_sc_hd__nand2_1
*I *668:B I *D sky130_fd_sc_hd__or2_1
*I *926:A I *D sky130_fd_sc_hd__buf_2
*I *827:Q O *D sky130_fd_sc_hd__dfrtp_1
*CAP
1 *667:B 0.000278458
2 *668:B 0
3 *926:A 0.000217588
4 *827:Q 7.77732e-05
5 *363:21 0.000339575
6 *363:8 0.000356478
7 *926:A *927:A 0
8 acc[5] *926:A 5.59511e-05
9 acc[7] *667:B 0.000348545
10 acc[7] *926:A 0.000123343
11 acc[7] *363:21 5.74562e-05
12 *668:A *667:B 0.000132397
13 *670:B *667:B 0.000110107
14 *672:A *363:8 4.87854e-05
15 *672:B *667:B 0.000286594
16 *672:B *926:A 7.95959e-05
17 *672:B *363:21 0.00016384
18 *827:RESET_B *667:B 0.000103977
19 *885:A *667:B 0.000238961
20 *885:A *363:21 5.83304e-05
21 *886:A *667:B 6.8646e-06
22 *325:10 *667:B 1.37292e-05
23 *362:27 *667:B 9.60939e-05
*RES
1 *827:Q *363:8 14.7464 
2 *363:8 *926:A 18.7286 
3 *363:8 *363:21 2.25 
4 *363:21 *668:B 13.8 
5 *363:21 *667:B 23.6571 
*END

*D_NET *364 0.00618917
*CONN
*I *675:A2 I *D sky130_fd_sc_hd__a21oi_1
*I *805:A2 I *D sky130_fd_sc_hd__a21oi_1
*I *927:A I *D sky130_fd_sc_hd__buf_2
*I *662:B I *D sky130_fd_sc_hd__xnor2_1
*I *828:Q O *D sky130_fd_sc_hd__dfrtp_1
*CAP
1 *675:A2 0
2 *805:A2 9.90688e-05
3 *927:A 0.000371899
4 *662:B 0.000137142
5 *828:Q 0.000363258
6 *364:35 0.000584416
7 *364:27 0.0010508
8 *364:6 0.00143776
9 *927:A *365:10 0
10 acc[11] *364:35 8.93141e-05
11 acc[5] *927:A 3.97925e-05
12 acc[6] *927:A 0
13 acc[6] *364:27 6.22421e-05
14 acc[7] *927:A 0
15 acc[8] *662:B 9.31209e-05
16 *662:A *662:B 0.000139913
17 *663:A *364:27 2.81315e-05
18 *672:A *927:A 0.00019554
19 *672:B *927:A 0
20 *675:A1 *364:27 9.54798e-06
21 *675:B1 *364:27 7.38973e-05
22 *805:B1 *805:A2 2.44318e-05
23 *805:B1 *364:35 0.000281403
24 *806:B *927:A 2.11419e-05
25 *827:RESET_B *927:A 0.000217406
26 *829:CLK *364:27 2.28598e-05
27 *829:D *364:27 0.000122091
28 *829:RESET_B *364:27 2.57487e-05
29 *833:RESET_B *662:B 0
30 *885:A *927:A 5.33005e-05
31 *901:A *364:27 2.83284e-06
32 *926:A *927:A 0
33 *303:37 *364:6 0.000232266
34 *303:37 *364:27 0.00016345
35 *325:10 *927:A 2.59355e-05
36 *327:10 *662:B 0.000121418
37 *330:12 *364:6 9.90431e-05
*RES
1 *828:Q *364:6 14.3536 
2 *364:6 *662:B 21.7107 
3 *364:6 *364:27 21.75 
4 *364:27 *364:35 3.98214 
5 *364:35 *927:A 26.55 
6 *364:35 *805:A2 11.0679 
7 *364:27 *675:A2 9.3 
*END

*D_NET *365 0.00431119
*CONN
*I *663:B I *D sky130_fd_sc_hd__and2_1
*I *928:A I *D sky130_fd_sc_hd__buf_2
*I *664:B I *D sky130_fd_sc_hd__nor2_1
*I *829:Q O *D sky130_fd_sc_hd__dfrtp_1
*CAP
1 *663:B 5.93791e-05
2 *928:A 0.00024191
3 *664:B 0.000897363
4 *829:Q 4.12216e-05
5 *365:10 0.00130105
6 *365:6 0.000262377
7 *664:B *369:6 2.77258e-05
8 *928:A *930:A 0.000109892
9 acc[6] *664:B 5.37332e-06
10 acc[6] *928:A 0
11 acc[6] *365:10 0
12 *663:A *663:B 4.34584e-05
13 *664:A *664:B 3.46677e-05
14 *666:B *664:B 2.89114e-05
15 *666:C *664:B 7.3471e-05
16 *669:B *928:A 1.78394e-05
17 *675:B1 *663:B 0
18 *675:B1 *365:6 1.33343e-05
19 *803:B *664:B 5.52302e-05
20 *804:B *664:B 5.52238e-05
21 *826:D *928:A 0.000197991
22 *827:CLK *664:B 0.000141445
23 *827:RESET_B *928:A 3.85608e-05
24 *827:RESET_B *365:10 3.42457e-05
25 *863:A *664:B 9.41642e-05
26 *925:A *928:A 5.01213e-05
27 *927:A *365:10 0
28 *149:12 *664:B 2.33407e-05
29 *150:6 *663:B 6.05161e-06
30 *150:6 *365:6 4.58976e-05
31 *150:35 *928:A 4.22135e-06
32 *150:35 *365:10 0.000113373
33 *153:10 *664:B 2.59355e-05
34 *159:10 *664:B 2.92473e-05
35 *159:10 *928:A 0
36 *327:10 *664:B 9.60875e-05
37 *362:27 *928:A 0.000142083
*RES
1 *829:Q *365:6 10.2464 
2 *365:6 *365:10 7.96429 
3 *365:10 *664:B 27.9071 
4 *365:10 *928:A 20.6036 
5 *365:6 *663:B 10.675 
*END

*D_NET *366 0.0048414
*CONN
*I *647:B I *D sky130_fd_sc_hd__nand2_1
*I *648:B I *D sky130_fd_sc_hd__or2_1
*I *929:A I *D sky130_fd_sc_hd__buf_2
*I *830:Q O *D sky130_fd_sc_hd__dfrtp_1
*CAP
1 *647:B 0
2 *648:B 9.1267e-05
3 *929:A 0.000969062
4 *830:Q 0.000282736
5 *366:41 0.000124616
6 *366:10 0.00128515
7 *929:A *815:A 9.60337e-06
8 *929:A *367:12 1.58163e-05
9 *929:A *368:77 5.64584e-05
10 *929:A *369:23 0.000126439
11 *366:10 *815:A 0.00017999
12 *366:10 *369:23 9.25014e-06
13 *366:10 *369:32 0.000164547
14 *366:10 *369:47 0.000343415
15 acc[11] *929:A 9.90367e-05
16 acc[8] *929:A 3.32631e-05
17 *647:A *648:B 5.52238e-05
18 *665:B *929:A 4.80729e-05
19 *666:A *929:A 7.4354e-06
20 *666:B *929:A 2.04825e-05
21 *666:C *929:A 2.11419e-05
22 *669:A *929:A 6.3801e-05
23 *669:B *366:10 3.69047e-06
24 *677:B1 *929:A 9.6255e-05
25 *679:A1 *366:10 4.15183e-05
26 *829:RESET_B *929:A 8.09297e-05
27 *863:A *929:A 4.04359e-05
28 *887:A *929:A 2.4227e-05
29 *134:6 *648:B 8.25843e-06
30 *149:8 *929:A 0.00017631
31 *151:35 *929:A 0.000164403
32 *152:16 *929:A 0
33 *153:10 *929:A 9.42191e-05
34 *303:20 *648:B 5.52238e-05
35 *303:73 *366:10 3.56594e-05
36 *329:10 *929:A 1.34703e-05
*RES
1 *830:Q *366:10 21.1393 
2 *366:10 *929:A 40.0857 
3 *366:10 *366:41 5.03571 
4 *366:41 *648:B 11.0857 
5 *366:41 *647:B 9.3 
*END

*D_NET *367 0.00718321
*CONN
*I *930:A I *D sky130_fd_sc_hd__buf_2
*I *642:B I *D sky130_fd_sc_hd__or2_1
*I *641:B I *D sky130_fd_sc_hd__nand2_1
*I *831:Q O *D sky130_fd_sc_hd__dfrtp_1
*CAP
1 *930:A 0.00138993
2 *642:B 0
3 *641:B 3.67366e-05
4 *831:Q 3.00896e-05
5 *367:22 0.000710336
6 *367:12 0.00209362
7 *930:A *815:A 4.11218e-05
8 *367:22 *368:73 0.000232149
9 acc[9] *930:A 1.78625e-05
10 *642:A *641:B 0.000137983
11 *642:A *367:22 9.71197e-05
12 *643:A *641:B 5.33005e-05
13 *643:A *367:22 0.000125547
14 *666:B *930:A 6.43118e-05
15 *669:A *367:12 5.52238e-05
16 *680:B1 *367:22 4.29471e-05
17 *792:A1 *367:22 1.98839e-05
18 *798:A *930:A 5.7661e-06
19 *800:C *930:A 9.85272e-05
20 *826:D *930:A 0.000308437
21 *863:A *930:A 5.66018e-05
22 *863:A *367:22 1.18141e-05
23 *924:A *930:A 4.22135e-06
24 *928:A *930:A 0.000109892
25 *929:A *367:12 1.58163e-05
26 *128:15 *641:B 9.71197e-05
27 *150:35 *930:A 0.000399959
28 *151:14 *930:A 1.38359e-05
29 *152:16 *367:12 1.90936e-05
30 *159:10 *930:A 0
31 *259:12 *930:A 0.000155115
32 *303:22 *367:22 0
33 *324:14 *930:A 0.00022266
34 *326:14 *930:A 4.89027e-05
35 *332:20 *367:22 0.000446662
36 *332:30 *367:12 2.06178e-05
*RES
1 *831:Q *367:12 18.0225 
2 *367:12 *367:22 11.7682 
3 *367:22 *641:B 10.6571 
4 *367:22 *642:B 9.3 
5 *367:12 *930:A 31.1569 
*END

*D_NET *368 0.0152409
*CONN
*I *594:A I *D sky130_fd_sc_hd__inv_2
*I *598:A I *D sky130_fd_sc_hd__inv_2
*I *596:A I *D sky130_fd_sc_hd__inv_2
*I *597:A I *D sky130_fd_sc_hd__inv_2
*I *815:A I *D sky130_fd_sc_hd__inv_2
*I *590:A I *D sky130_fd_sc_hd__inv_2
*I *592:A I *D sky130_fd_sc_hd__inv_2
*I *593:A I *D sky130_fd_sc_hd__inv_2
*I *595:A I *D sky130_fd_sc_hd__inv_2
*I *591:A I *D sky130_fd_sc_hd__inv_2
*I *862:X O *D sky130_fd_sc_hd__buf_4
*CAP
1 *594:A 0
2 *598:A 5.06735e-05
3 *596:A 0
4 *597:A 0.000631061
5 *815:A 0.00122928
6 *590:A 0
7 *592:A 1.77691e-05
8 *593:A 0
9 *595:A 0
10 *591:A 5.18098e-05
11 *862:X 0
12 *368:132 0.000475486
13 *368:77 0.000197609
14 *368:73 0.00197551
15 *368:65 0.00120976
16 *368:56 0.000402194
17 *368:37 0.000576752
18 *368:31 0.000237108
19 *368:18 0.000790447
20 *368:6 0.0011132
21 *591:A *690:A 1.11453e-05
22 *591:A *372:27 9.74665e-05
23 *592:A *819:A 5.52302e-05
24 *368:18 *372:6 0.000141131
25 *368:18 *372:27 0.000225982
26 *368:77 *369:23 2.51894e-05
27 acc[9] *815:A 0.000180487
28 *638:B *597:A 0
29 *638:B *368:56 0
30 *640:A *368:18 7.48927e-06
31 *640:A *368:31 3.47783e-05
32 *640:A *368:37 4.07654e-05
33 *640:B *368:37 6.76246e-05
34 *640:B *368:56 5.33005e-05
35 *644:B *597:A 0
36 *644:B *368:56 0.000105324
37 *644:B *368:65 4.27935e-05
38 *669:B *815:A 0.000395697
39 *679:A1 *815:A 0.000113244
40 *679:A1 *368:73 0
41 *680:A1 *368:73 7.46907e-05
42 *680:B1 *597:A 0.000186304
43 *680:B1 *368:56 0.000164312
44 *680:B1 *368:73 2.04825e-05
45 *682:B *368:132 2.28335e-05
46 *786:A1 *368:18 0.000137427
47 *786:B1_N *368:18 8.97491e-05
48 *790:A *597:A 1.50087e-05
49 *790:B *597:A 0
50 *792:A2 *368:56 9.71197e-05
51 *792:A2 *368:65 5.33005e-05
52 *792:B1_N *368:56 0.000144696
53 *795:A *368:56 5.33433e-05
54 *795:B *368:56 9.60939e-05
55 *825:CLK *597:A 0.000129755
56 *830:D *597:A 0
57 *831:RESET_B *368:77 0.00017382
58 *832:RESET_B *591:A 1.34548e-05
59 *834:RESET_B *597:A 6.35117e-05
60 *835:D *368:132 6.74911e-05
61 *835:RESET_B *368:132 0
62 *837:RESET_B *591:A 3.69047e-06
63 *837:RESET_B *368:31 1.38796e-05
64 *839:CLK *368:132 0.00015304
65 *862:A *368:18 5.10375e-05
66 *862:A *368:132 7.80851e-06
67 *881:A *815:A 0.00015313
68 *886:A *815:A 0.000131658
69 *889:A *368:77 0.000190134
70 *893:A *368:37 0
71 *893:A *368:56 1.98839e-05
72 *902:A *598:A 0.000144773
73 *902:A *368:132 4.69993e-05
74 *924:A *815:A 0.000175358
75 *929:A *815:A 9.60337e-06
76 *929:A *368:77 5.64584e-05
77 *930:A *815:A 4.11218e-05
78 *127:10 *368:56 0.000189212
79 *130:10 *597:A 1.89507e-06
80 *130:10 *368:73 4.19624e-06
81 *134:18 *597:A 3.47737e-05
82 *165:10 *597:A 0
83 *169:21 *368:132 1.90936e-05
84 *171:22 *597:A 5.59013e-05
85 *171:22 *368:132 2.23987e-05
86 *173:10 *368:18 5.98125e-05
87 *173:10 *368:132 0.000330351
88 *174:20 *368:18 1.65308e-05
89 *256:12 *597:A 0
90 *303:10 *815:A 5.58941e-05
91 *303:20 *815:A 0.000221225
92 *303:20 *368:77 4.11173e-05
93 *303:73 *815:A 0.000157357
94 *326:14 *815:A 2.13676e-05
95 *327:10 *592:A 2.59355e-05
96 *330:12 *368:77 0
97 *336:30 *368:132 6.89249e-05
98 *339:22 *368:56 0.00010347
99 *340:50 *591:A 4.10796e-05
100 *340:50 *368:37 0
101 *366:10 *815:A 0.00017999
102 *367:22 *368:73 0.000232149
*RES
1 *862:X *368:6 13.8 
2 *368:6 *368:18 15.6607 
3 *368:18 *591:A 11.0857 
4 *368:18 *368:31 1.375 
5 *368:31 *368:37 3.44643 
6 *368:37 *595:A 9.3 
7 *368:37 *368:56 19 
8 *368:56 *593:A 9.3 
9 *368:56 *368:65 5.03571 
10 *368:65 *368:73 8.44099 
11 *368:73 *368:77 9.33036 
12 *368:77 *592:A 9.83571 
13 *368:77 *590:A 9.3 
14 *368:73 *815:A 32.4655 
15 *368:65 *597:A 26.9071 
16 *368:31 *596:A 9.3 
17 *368:6 *368:132 13.8036 
18 *368:132 *598:A 10.6571 
19 *368:132 *594:A 9.3 
*END

*D_NET *369 0.00593966
*CONN
*I *816:A I *D sky130_fd_sc_hd__inv_2
*I *821:A I *D sky130_fd_sc_hd__inv_2
*I *817:A I *D sky130_fd_sc_hd__inv_2
*I *818:A I *D sky130_fd_sc_hd__inv_2
*I *820:A I *D sky130_fd_sc_hd__inv_2
*I *819:A I *D sky130_fd_sc_hd__inv_2
*I *863:X O *D sky130_fd_sc_hd__buf_2
*CAP
1 *816:A 0
2 *821:A 0.000231264
3 *817:A 0.000126835
4 *818:A 0.000185705
5 *820:A 0
6 *819:A 0.00024283
7 *863:X 0.000157347
8 *369:66 0.000412396
9 *369:47 0.000457116
10 *369:32 0.000393383
11 *369:23 0.000286163
12 *369:6 0.000627812
13 *592:A *819:A 5.52302e-05
14 *649:B *818:A 2.89114e-05
15 *663:A *369:23 9.69119e-06
16 *664:A *819:A 1.82029e-05
17 *664:A *369:6 0.000140933
18 *664:B *369:6 2.77258e-05
19 *669:A *369:23 0.00011796
20 *669:A *369:32 9.24203e-05
21 *669:A *369:47 3.90513e-05
22 *669:B *817:A 1.24368e-05
23 *669:B *369:66 4.38243e-05
24 *684:A *818:A 0
25 *827:RESET_B *818:A 0.000434813
26 *830:RESET_B *369:66 0
27 *831:RESET_B *369:23 8.88938e-05
28 *833:RESET_B *819:A 9.60875e-05
29 *833:RESET_B *369:23 2.8266e-06
30 *855:A *818:A 0.000180317
31 *929:A *369:23 0.000126439
32 *151:14 *369:23 2.22043e-05
33 *156:14 *817:A 4.58194e-05
34 *301:12 *369:47 0.000310675
35 *301:12 *369:66 0.000220094
36 *303:73 *369:47 0
37 *303:73 *369:66 0
38 *327:10 *819:A 0.000118205
39 *329:10 *369:23 4.36481e-05
40 *332:30 *369:23 0
41 *360:20 *817:A 0
42 *366:10 *369:23 9.25014e-06
43 *366:10 *369:32 0.000164547
44 *366:10 *369:47 0.000343415
45 *368:77 *369:23 2.51894e-05
*RES
1 *863:X *369:6 11.4786 
2 *369:6 *819:A 14.1036 
3 *369:6 *369:23 10.0893 
4 *369:23 *820:A 13.8 
5 *369:23 *369:32 2.25 
6 *369:32 *818:A 19.3 
7 *369:32 *369:47 4.98214 
8 *369:47 *817:A 16.0143 
9 *369:47 *369:66 8.30357 
10 *369:66 *821:A 13.1214 
11 *369:66 *816:A 9.3 
*END

*D_NET *370 0.020451
*CONN
*I *605:A I *D sky130_fd_sc_hd__inv_2
*I *601:A I *D sky130_fd_sc_hd__inv_2
*I *600:A I *D sky130_fd_sc_hd__inv_2
*I *606:A I *D sky130_fd_sc_hd__inv_2
*I *607:A I *D sky130_fd_sc_hd__inv_2
*I *608:A I *D sky130_fd_sc_hd__inv_2
*I *604:A I *D sky130_fd_sc_hd__inv_2
*I *603:A I *D sky130_fd_sc_hd__inv_2
*I *602:A I *D sky130_fd_sc_hd__inv_2
*I *599:A I *D sky130_fd_sc_hd__inv_2
*I *864:X O *D sky130_fd_sc_hd__buf_4
*CAP
1 *605:A 0.000392592
2 *601:A 2.23854e-05
3 *600:A 0
4 *606:A 0
5 *607:A 0
6 *608:A 0.00205147
7 *604:A 0.00099049
8 *603:A 3.64675e-05
9 *602:A 9.28009e-06
10 *599:A 0.000193698
11 *864:X 0.000440916
12 *370:148 0.000974628
13 *370:97 0.00322343
14 *370:91 0.000577839
15 *370:77 0.00127619
16 *370:62 0.0012899
17 *370:47 0.00095657
18 *370:31 0.000619143
19 *370:27 0.000787072
20 *370:12 0.000816567
21 acc[0] *608:A 2.56601e-05
22 acc[23] *604:A 0
23 acc[25] *370:91 9.90431e-05
24 acc[25] *370:97 0
25 acc[28] *608:A 5.33433e-05
26 *617:B *370:77 1.04232e-05
27 *623:A *370:91 0
28 *706:B *370:47 2.8266e-06
29 *716:B *370:47 0
30 *724:B *370:91 5.29461e-05
31 *725:A *604:A 5.83233e-05
32 *728:A *370:47 0.000198698
33 *730:B *370:47 0
34 *731:A2 *370:148 6.2773e-05
35 *733:A_N *370:77 0.000658647
36 *733:B *370:77 7.1434e-05
37 *735:C *370:77 9.71197e-05
38 *742:B *608:A 0
39 *746:B *608:A 2.30116e-06
40 *757:A *605:A 5.71472e-05
41 *760:A2 *370:77 0
42 *762:A *370:91 0.000267436
43 *762:B *370:91 5.33882e-05
44 *769:B *370:62 4.51611e-05
45 *769:B *370:77 1.92789e-05
46 *770:A2 *603:A 3.99614e-06
47 *770:A2 *370:77 2.77289e-05
48 *770:B1_N *370:77 5.71472e-05
49 *840:CLK *370:12 2.36643e-05
50 *840:D *370:12 0.00018905
51 *840:RESET_B *599:A 0
52 *840:RESET_B *370:27 0
53 *841:D *370:31 1.39726e-05
54 *841:RESET_B *370:31 0.000186662
55 *842:RESET_B *605:A 7.43578e-06
56 *842:RESET_B *370:148 1.74352e-05
57 *843:RESET_B *370:62 5.56943e-05
58 *846:D *605:A 5.76121e-05
59 *846:RESET_B *605:A 3.18676e-05
60 *847:RESET_B *370:77 5.52238e-05
61 *848:D *370:97 3.2534e-05
62 *848:RESET_B *370:97 3.48139e-05
63 *849:RESET_B *608:A 0.00010096
64 *854:A *599:A 7.49251e-05
65 *864:A *370:12 9.99853e-05
66 *871:A *370:62 2.59355e-05
67 *873:A *604:A 0
68 *874:A *370:91 0
69 *875:A *370:97 0.000150294
70 *876:A *608:A 0.000601651
71 *899:A *608:A 0.000159782
72 *908:A *370:62 0.000507757
73 *911:A *602:A 2.44318e-05
74 *911:A *370:47 0.000156721
75 *912:A *370:62 0
76 *916:A *370:97 1.02504e-05
77 *110:23 *370:97 0
78 *192:8 *370:47 0.000135708
79 *198:16 *599:A 0
80 *198:16 *370:27 0
81 *198:16 *370:148 0.000228931
82 *211:6 *370:77 0.000171187
83 *212:18 *370:77 2.81447e-05
84 *218:14 *370:148 1.03105e-05
85 *231:12 *608:A 0.000102196
86 *231:27 *608:A 6.8646e-06
87 *250:14 *599:A 0
88 *250:14 *370:27 0
89 *310:12 *602:A 5.52238e-05
90 *310:12 *370:47 0.000122191
91 *311:12 *370:62 0.000100831
92 *315:12 *370:91 3.01126e-05
93 *343:40 *370:47 7.79781e-06
94 *344:10 *370:31 0.000105163
95 *344:10 *370:47 0.000126639
96 *347:10 *370:62 0
97 *349:21 *370:91 1.76135e-05
*RES
1 *864:X *370:12 20.5321 
2 *370:12 *599:A 17.2286 
3 *370:12 *370:27 3.16071 
4 *370:27 *370:31 6.67857 
5 *370:31 *370:47 22.2679 
6 *370:47 *602:A 9.83571 
7 *370:47 *370:62 17.2679 
8 *370:62 *603:A 10.0321 
9 *370:62 *370:77 14.6607 
10 *370:77 *370:91 17.6964 
11 *370:91 *370:97 13.0714 
12 *370:97 *604:A 30.2286 
13 *370:97 *608:A 46.4429 
14 *370:91 *607:A 9.3 
15 *370:77 *606:A 9.3 
16 *370:31 *600:A 9.3 
17 *370:27 *370:148 14.6964 
18 *370:148 *601:A 9.72857 
19 *370:148 *605:A 16.8357 
*END

*D_NET *371 0.00780717
*CONN
*I *610:A I *D sky130_fd_sc_hd__inv_2
*I *611:A I *D sky130_fd_sc_hd__inv_2
*I *612:A I *D sky130_fd_sc_hd__inv_2
*I *814:A I *D sky130_fd_sc_hd__inv_2
*I *609:A I *D sky130_fd_sc_hd__inv_2
*I *613:A I *D sky130_fd_sc_hd__inv_2
*I *865:X O *D sky130_fd_sc_hd__buf_2
*CAP
1 *610:A 0.000140221
2 *611:A 0.000290881
3 *612:A 0
4 *814:A 3.82418e-05
5 *609:A 0.00058228
6 *613:A 0
7 *865:X 0
8 *371:66 0.000640655
9 *371:51 0.000350739
10 *371:38 0.00100255
11 *371:10 0.000913084
12 *371:4 0.00115393
13 acc[31] *371:51 0
14 *654:A *371:51 4.57445e-05
15 *657:B1 *371:38 2.14658e-05
16 *740:A *609:A 3.90513e-05
17 *741:A *611:A 0.000125684
18 *741:A *371:66 0.000123137
19 *741:B *371:66 0.000123137
20 *747:B *609:A 0.000177815
21 *747:B *611:A 0.000258403
22 *753:A2 *611:A 9.58181e-05
23 *754:A *610:A 5.49489e-05
24 *754:A *611:A 1.32056e-05
25 *754:B *610:A 2.59355e-05
26 *755:A *611:A 0.000150632
27 *755:B *611:A 3.69047e-06
28 *807:B *371:38 8.002e-05
29 *850:RESET_B *609:A 0
30 *864:A *371:10 9.7659e-05
31 *865:A *371:10 5.33433e-05
32 *866:A *371:66 0.000112222
33 *869:A *814:A 0
34 *879:A *371:51 0
35 *910:A *371:66 0
36 *915:A *609:A 0.000144038
37 *102:32 *609:A 6.85983e-05
38 *143:18 *371:38 0.000269422
39 *301:28 *609:A 0.000315022
40 *301:28 *371:10 0.000128154
41 *305:51 *609:A 0
42 *319:16 *611:A 0
43 *319:16 *371:38 5.72984e-05
44 *319:16 *371:51 3.48705e-05
45 *333:31 *371:66 5.74336e-05
46 *355:10 *611:A 1.78353e-05
*RES
1 *865:X *371:4 9.3 
2 *371:4 *371:10 9.55357 
3 *371:10 *613:A 13.8 
4 *371:10 *609:A 34.175 
5 *371:4 *371:38 10.3929 
6 *371:38 *814:A 10.0321 
7 *371:38 *371:51 7.08929 
8 *371:51 *612:A 13.8 
9 *371:51 *371:66 9.83929 
10 *371:66 *611:A 25.1214 
11 *371:66 *610:A 11.4964 
*END

*D_NET *372 0.00244666
*CONN
*I *689:A I *D sky130_fd_sc_hd__nor2_1
*I *688:A I *D sky130_fd_sc_hd__nand2_1
*I *690:A I *D sky130_fd_sc_hd__or2_1
*I *896:X O *D sky130_fd_sc_hd__buf_1
*CAP
1 *689:A 0
2 *688:A 0.000299394
3 *690:A 3.50353e-05
4 *896:X 4.20907e-05
5 *372:27 0.000539392
6 *372:6 0.000317125
7 *591:A *690:A 1.11453e-05
8 *591:A *372:27 9.74665e-05
9 *684:A *688:A 1.80015e-05
10 *688:B *688:A 6.46107e-05
11 *698:B2 *688:A 7.84703e-05
12 *698:B2 *372:27 5.49489e-05
13 *832:D *688:A 5.65955e-05
14 *832:D *372:27 4.17433e-05
15 *859:A *688:A 9.83442e-05
16 *41:21 *372:27 0
17 *180:10 *688:A 0
18 *340:33 *372:6 1.58163e-05
19 *340:50 *688:A 9.54798e-06
20 *340:50 *372:6 3.42509e-05
21 *340:50 *372:27 0.000167224
22 *350:12 *688:A 9.83442e-05
23 *368:18 *372:6 0.000141131
24 *368:18 *372:27 0.000225982
*RES
1 *896:X *372:6 10.6571 
2 *372:6 *690:A 10.0321 
3 *372:6 *372:27 14.625 
4 *372:27 *688:A 23.3893 
5 *372:27 *689:A 9.3 
*END

*D_NET *373 0.00296104
*CONN
*I *708:A I *D sky130_fd_sc_hd__nand2_1
*I *709:A I *D sky130_fd_sc_hd__or2_1
*I *714:A1 I *D sky130_fd_sc_hd__a31o_1
*I *897:X O *D sky130_fd_sc_hd__buf_1
*CAP
1 *708:A 0.000139271
2 *709:A 0.000112787
3 *714:A1 1.67212e-05
4 *897:X 0.000100262
5 *373:19 0.000493594
6 *373:8 0.00035852
7 *708:A *374:12 2.14658e-05
8 *373:8 *374:20 5.52302e-05
9 *373:19 *777:A1 4.18895e-05
10 *373:19 *374:20 0.000138881
11 *708:B *708:A 5.71472e-05
12 *710:A *373:19 9.71197e-05
13 *710:B *709:A 0.000149911
14 *714:B1 *373:19 5.33005e-05
15 *715:C1 *373:8 9.60939e-05
16 *776:A *708:A 7.83462e-05
17 *776:A *709:A 1.17968e-05
18 *776:A *373:19 1.98839e-05
19 *776:B *708:A 0.000141382
20 *776:B *709:A 0.000168939
21 *777:B1 *714:A1 0
22 *777:B1 *373:19 5.96516e-05
23 *839:D *708:A 0.000144773
24 *854:A *708:A 6.28253e-05
25 *897:A *714:A1 0
26 *897:A *373:8 5.7661e-06
27 *898:A *709:A 0
28 *906:A *373:8 0.000139907
29 *197:12 *709:A 0
30 *248:10 *709:A 3.04495e-05
31 *250:14 *708:A 0
32 *250:14 *373:19 5.33005e-05
33 *341:14 *714:A1 1.04232e-05
34 *341:14 *373:8 2.14658e-05
35 *341:14 *373:19 7.99364e-05
*RES
1 *897:X *373:8 11.9071 
2 *373:8 *714:A1 9.72857 
3 *373:8 *373:19 9.55357 
4 *373:19 *709:A 16.9607 
5 *373:19 *708:A 18.2464 
*END

*D_NET *374 0.0037449
*CONN
*I *777:A1 I *D sky130_fd_sc_hd__a21o_1
*I *713:A I *D sky130_fd_sc_hd__and3_1
*I *701:A I *D sky130_fd_sc_hd__xnor2_1
*I *898:X O *D sky130_fd_sc_hd__buf_1
*CAP
1 *777:A1 4.02044e-05
2 *713:A 7.84352e-05
3 *701:A 0.000209308
4 *898:X 0.000484548
5 *374:20 0.000515033
6 *374:12 0.000752042
7 *706:B *374:12 9.73258e-05
8 *707:B *374:12 7.6644e-05
9 *708:A *374:12 2.14658e-05
10 *713:B *701:A 0
11 *713:B *374:12 1.17968e-05
12 *713:B *374:20 2.07158e-05
13 *714:A3 *701:A 0.000129868
14 *714:B1 *374:12 0.000173083
15 *715:C1 *713:A 0.000101545
16 *715:C1 *374:20 9.25014e-06
17 *776:A *374:12 1.92789e-05
18 *839:D *701:A 0
19 *839:D *374:12 0.000238435
20 *854:A *374:12 5.30154e-05
21 *906:A *701:A 2.04825e-05
22 *906:A *713:A 0.000127706
23 *35:15 *701:A 0
24 *35:15 *713:A 5.33005e-05
25 *188:8 *701:A 3.18676e-05
26 *342:23 *701:A 5.71472e-05
27 *342:36 *701:A 0.000186404
28 *373:8 *374:20 5.52302e-05
29 *373:19 *777:A1 4.18895e-05
30 *373:19 *374:20 0.000138881
*RES
1 *898:X *374:12 26.3179 
2 *374:12 *374:20 7.79464 
3 *374:20 *701:A 18.9875 
4 *374:20 *713:A 16.1304 
5 *374:12 *777:A1 9.83571 
*END
