*SPEF "ieee 1481-1999"
*DESIGN "cla8"
*DATE "04:06:04 Saturday September 19, 2026"
*VENDOR "The OpenROAD Project"
*PROGRAM "OpenROAD"
*VERSION "edf00dff99f6c40d67a30c0e22a8191c5d2ed9d6"
*DESIGN_FLOW "NAME_SCOPE LOCAL" "PIN_CAP NONE"
*DIVIDER /
*DELIMITER :
*BUS_DELIMITER []
*T_UNIT 1 NS
*C_UNIT 1 PF
*R_UNIT 1 OHM
*L_UNIT 1 HENRY

*NAME_MAP
*3 a[0]
*4 a[1]
*5 a[2]
*6 a[3]
*7 a[4]
*8 a[5]
*9 a[6]
*10 a[7]
*11 b[0]
*12 b[1]
*13 b[2]
*14 b[3]
*15 b[4]
*16 b[5]
*17 b[6]
*18 b[7]
*19 cin
*20 cout
*21 sum[0]
*22 sum[1]
*23 sum[2]
*24 sum[3]
*25 sum[4]
*26 sum[5]
*27 sum[6]
*28 sum[7]
*29 _00_
*30 _01_
*31 _02_
*32 _03_
*33 _04_
*34 _05_
*35 _06_
*36 _07_
*37 _08_
*38 _09_
*39 _10_
*40 _11_
*41 _12_
*42 _13_
*43 _14_
*44 _15_
*45 _16_
*46 _17_
*47 _18_
*48 _19_
*49 _20_
*50 _21_
*51 _22_
*52 _23_
*53 _24_
*54 _25_
*55 _26_
*56 _27_
*57 _28_
*58 _29_
*59 _30_
*60 _31_
*61 _32_
*62 _33_
*63 _34_
*64 _35_
*65 _36_
*66 _37_
*67 _38_
*68 net1
*69 net10
*70 net11
*71 net12
*72 net13
*73 net14
*74 net15
*75 net16
*76 net17
*77 net18
*78 net19
*79 net2
*80 net20
*81 net21
*82 net22
*83 net23
*84 net24
*85 net25
*86 net26
*87 net3
*88 net4
*89 net5
*90 net6
*91 net7
*92 net8
*93 net9
*94 FILLER_0_15
*95 FILLER_0_23
*96 FILLER_0_29
*97 FILLER_0_3
*98 FILLER_0_35
*99 FILLER_0_41
*100 FILLER_0_48
*101 FILLER_0_57
*102 FILLER_0_65
*103 FILLER_10_19
*104 FILLER_10_27
*105 FILLER_10_29
*106 FILLER_10_33
*107 FILLER_10_37
*108 FILLER_10_41
*109 FILLER_10_45
*110 FILLER_10_62
*111 FILLER_10_7
*112 FILLER_11_15
*113 FILLER_11_23
*114 FILLER_11_27
*115 FILLER_11_29
*116 FILLER_11_3
*117 FILLER_11_34
*118 FILLER_11_42
*119 FILLER_11_48
*120 FILLER_11_55
*121 FILLER_11_57
*122 FILLER_1_15
*123 FILLER_1_21
*124 FILLER_1_3
*125 FILLER_1_33
*126 FILLER_1_45
*127 FILLER_1_53
*128 FILLER_1_57
*129 FILLER_2_26
*130 FILLER_2_29
*131 FILLER_2_40
*132 FILLER_2_52
*133 FILLER_2_64
*134 FILLER_3_15
*135 FILLER_3_3
*136 FILLER_3_38
*137 FILLER_3_46
*138 FILLER_3_65
*139 FILLER_4_29
*140 FILLER_4_33
*141 FILLER_4_41
*142 FILLER_4_53
*143 FILLER_4_58
*144 FILLER_4_64
*145 FILLER_5_18
*146 FILLER_5_30
*147 FILLER_5_42
*148 FILLER_5_54
*149 FILLER_5_57
*150 FILLER_5_6
*151 FILLER_5_63
*152 FILLER_6_18
*153 FILLER_6_26
*154 FILLER_6_29
*155 FILLER_6_41
*156 FILLER_6_53
*157 FILLER_6_6
*158 FILLER_6_61
*159 FILLER_7_12
*160 FILLER_7_26
*161 FILLER_7_38
*162 FILLER_7_50
*163 FILLER_7_6
*164 FILLER_7_60
*165 FILLER_8_24
*166 FILLER_8_29
*167 FILLER_8_3
*168 FILLER_8_35
*169 FILLER_8_39
*170 FILLER_8_45
*171 FILLER_8_66
*172 FILLER_9_18
*173 FILLER_9_24
*174 FILLER_9_6
*175 FILLER_9_66
*176 PHY_EDGE_ROW_0_Left_12
*177 PHY_EDGE_ROW_0_Right_0
*178 PHY_EDGE_ROW_10_Left_22
*179 PHY_EDGE_ROW_10_Right_10
*180 PHY_EDGE_ROW_11_Left_23
*181 PHY_EDGE_ROW_11_Right_11
*182 PHY_EDGE_ROW_1_Left_13
*183 PHY_EDGE_ROW_1_Right_1
*184 PHY_EDGE_ROW_2_Left_14
*185 PHY_EDGE_ROW_2_Right_2
*186 PHY_EDGE_ROW_3_Left_15
*187 PHY_EDGE_ROW_3_Right_3
*188 PHY_EDGE_ROW_4_Left_16
*189 PHY_EDGE_ROW_4_Right_4
*190 PHY_EDGE_ROW_5_Left_17
*191 PHY_EDGE_ROW_5_Right_5
*192 PHY_EDGE_ROW_6_Left_18
*193 PHY_EDGE_ROW_6_Right_6
*194 PHY_EDGE_ROW_7_Left_19
*195 PHY_EDGE_ROW_7_Right_7
*196 PHY_EDGE_ROW_8_Left_20
*197 PHY_EDGE_ROW_8_Right_8
*198 PHY_EDGE_ROW_9_Left_21
*199 PHY_EDGE_ROW_9_Right_9
*200 TAP_TAPCELL_ROW_0_24
*201 TAP_TAPCELL_ROW_0_25
*202 TAP_TAPCELL_ROW_10_35
*203 TAP_TAPCELL_ROW_11_36
*204 TAP_TAPCELL_ROW_11_37
*205 TAP_TAPCELL_ROW_1_26
*206 TAP_TAPCELL_ROW_2_27
*207 TAP_TAPCELL_ROW_3_28
*208 TAP_TAPCELL_ROW_4_29
*209 TAP_TAPCELL_ROW_5_30
*210 TAP_TAPCELL_ROW_6_31
*211 TAP_TAPCELL_ROW_7_32
*212 TAP_TAPCELL_ROW_8_33
*213 TAP_TAPCELL_ROW_9_34
*214 _39_
*215 _40_
*216 _41_
*217 _42_
*218 _43_
*219 _44_
*220 _45_
*221 _46_
*222 _47_
*223 _48_
*224 _49_
*225 _50_
*226 _51_
*227 _52_
*228 _53_
*229 _54_
*230 _55_
*231 _56_
*232 _57_
*233 _58_
*234 _59_
*235 _60_
*236 _61_
*237 _62_
*238 _63_
*239 _64_
*240 _65_
*241 _66_
*242 _67_
*243 _68_
*244 _69_
*245 _70_
*246 _71_
*247 _72_
*248 _73_
*249 _74_
*250 _75_
*251 _76_
*252 _77_
*253 _78_
*254 _79_
*255 _80_
*256 _81_
*257 _82_
*258 _83_
*259 _84_
*260 _85_
*261 _86_
*262 input1
*263 input10
*264 input11
*265 input12
*266 input13
*267 input14
*268 input15
*269 input16
*270 input17
*271 input2
*272 input3
*273 input4
*274 input5
*275 input6
*276 input7
*277 input8
*278 input9
*279 output18
*280 output19
*281 output20
*282 output21
*283 output22
*284 output23
*285 output24
*286 output25
*287 output26

*PORTS
a[0] I
a[1] I
a[2] I
a[3] I
a[4] I
a[5] I
a[6] I
a[7] I
b[0] I
b[1] I
b[2] I
b[3] I
b[4] I
b[5] I
b[6] I
b[7] I
cin I
cout O
sum[0] O
sum[1] O
sum[2] O
sum[3] O
sum[4] O
sum[5] O
sum[6] O
sum[7] O

*D_NET *3 0.000497608
*CONN
*P a[0] I
*I *262:A I *D sky130_fd_sc_hd__clkbuf_1
*CAP
1 a[0] 0.000215253
2 *262:A 0.000215253
3 *262:A *278:A 6.71009e-05
*RES
1 a[0] *262:A 18.9615 
*END

*D_NET *4 0.00095211
*CONN
*P a[1] I
*I *271:A I *D sky130_fd_sc_hd__clkbuf_1
*CAP
1 a[1] 0.000473029
2 *271:A 0.000473029
3 *271:A *263:A 0
4 *271:A *79:14 6.05161e-06
*RES
1 a[1] *271:A 22.9071 
*END

*D_NET *5 0.000532436
*CONN
*P a[2] I
*I *272:A I *D sky130_fd_sc_hd__buf_1
*CAP
1 a[2] 0.000240536
2 *272:A 0.000240536
3 *272:A *264:A 2.87684e-05
4 *272:A *266:A 0
5 *272:A *274:A 2.25951e-05
*RES
1 a[2] *272:A 18.73 
*END

*D_NET *6 0.000618322
*CONN
*P a[3] I
*I *273:A I *D sky130_fd_sc_hd__clkbuf_1
*CAP
1 a[3] 0.000295572
2 *273:A 0.000295572
3 *273:A *265:A 2.71788e-05
*RES
1 a[3] *273:A 20.7838 
*END

*D_NET *7 0.000576861
*CONN
*P a[4] I
*I *274:A I *D sky130_fd_sc_hd__clkbuf_1
*CAP
1 a[4] 0.000262749
2 *274:A 0.000262749
3 *274:A *266:A 2.87684e-05
4 *272:A *274:A 2.25951e-05
*RES
1 a[4] *274:A 20.4803 
*END

*D_NET *8 0.000837524
*CONN
*P a[5] I
*I *275:A I *D sky130_fd_sc_hd__clkbuf_1
*CAP
1 a[5] 0.000418762
2 *275:A 0.000418762
3 *275:A *267:A 0
*RES
1 a[5] *275:A 21.8357 
*END

*D_NET *9 0.000821866
*CONN
*P a[6] I
*I *276:A I *D sky130_fd_sc_hd__clkbuf_1
*CAP
1 a[6] 0.000410933
2 *276:A 0.000410933
3 *276:A sum[5] 0
4 *276:A *268:A 0
5 *276:A *285:A 0
*RES
1 a[6] *276:A 21.9607 
*END

*D_NET *10 0.000598149
*CONN
*P a[7] I
*I *277:A I *D sky130_fd_sc_hd__clkbuf_1
*CAP
1 a[7] 0.000221731
2 *277:A 0.000221731
3 *277:A sum[1] 7.45338e-05
4 *277:A sum[7] 0
5 *277:A *269:A 8.0154e-05
*RES
1 a[7] *277:A 18.5706 
*END

*D_NET *11 0.000392001
*CONN
*P b[0] I
*I *278:A I *D sky130_fd_sc_hd__clkbuf_1
*CAP
1 b[0] 0.000124439
2 *278:A 0.000124439
3 *278:A *270:A 7.60209e-05
4 *278:A *68:12 0
5 *262:A *278:A 6.71009e-05
*RES
1 b[0] *278:A 18.0508 
*END

*D_NET *12 0.000847046
*CONN
*P b[1] I
*I *263:A I *D sky130_fd_sc_hd__clkbuf_1
*CAP
1 b[1] 0.000419805
2 *263:A 0.000419805
3 *263:A sum[2] 0
4 *263:A *282:A 0
5 *263:A *79:14 7.43578e-06
6 *271:A *263:A 0
*RES
1 b[1] *263:A 21.8357 
*END

*D_NET *13 0.000670164
*CONN
*P b[2] I
*I *264:A I *D sky130_fd_sc_hd__buf_1
*CAP
1 b[2] 0.000305702
2 *264:A 0.000305702
3 *264:A *265:A 2.99915e-05
4 *272:A *264:A 2.87684e-05
*RES
1 b[2] *264:A 21.391 
*END

*D_NET *14 0.000699525
*CONN
*P b[3] I
*I *265:A I *D sky130_fd_sc_hd__clkbuf_1
*CAP
1 b[3] 0.000321177
2 *265:A 0.000321177
3 *265:A *71:8 0
4 *264:A *265:A 2.99915e-05
5 *273:A *265:A 2.71788e-05
*RES
1 b[3] *265:A 21.6946 
*END

*D_NET *15 0.000686284
*CONN
*P b[4] I
*I *266:A I *D sky130_fd_sc_hd__clkbuf_1
*CAP
1 b[4] 0.00031746
2 *266:A 0.00031746
3 *266:A sum[4] 2.25951e-05
4 *266:A *242:A 0
5 *266:A *284:A 0
6 *272:A *266:A 0
7 *274:A *266:A 2.87684e-05
*RES
1 b[4] *266:A 20.2479 
*END

*D_NET *16 0.000848451
*CONN
*P b[5] I
*I *267:A I *D sky130_fd_sc_hd__clkbuf_1
*CAP
1 b[5] 0.000408292
2 *267:A 0.000408292
3 *267:A sum[5] 0
4 *267:A *73:10 3.18676e-05
5 *275:A *267:A 0
*RES
1 b[5] *267:A 21.8357 
*END

*D_NET *17 0.000834863
*CONN
*P b[6] I
*I *268:A I *D sky130_fd_sc_hd__clkbuf_1
*CAP
1 b[6] 0.000417432
2 *268:A 0.000417432
3 *276:A *268:A 0
*RES
1 b[6] *268:A 21.8357 
*END

*D_NET *18 0.000681158
*CONN
*P b[7] I
*I *269:A I *D sky130_fd_sc_hd__clkbuf_1
*CAP
1 b[7] 0.000263778
2 *269:A 0.000263778
3 *269:A sum[7] 7.3448e-05
4 *269:A *261:A1 0
5 *277:A *269:A 8.0154e-05
*RES
1 b[7] *269:A 20.4794 
*END

*D_NET *19 0.000609541
*CONN
*P cin I
*I *270:A I *D sky130_fd_sc_hd__buf_1
*CAP
1 cin 0.000198994
2 *270:A 0.000198994
3 *270:A sum[0] 7.3448e-05
4 *270:A *280:A 0
5 *270:A *76:12 6.20827e-05
6 *278:A *270:A 7.60209e-05
*RES
1 cin *270:A 19.8722 
*END

*D_NET *20 0.000592355
*CONN
*P cout O
*I *279:X O *D sky130_fd_sc_hd__buf_2
*CAP
1 cout 0.000258911
2 *279:X 0.000258911
3 cout sum[6] 7.45338e-05
*RES
1 *279:X cout 19.3371 
*END

*D_NET *21 0.000543149
*CONN
*P sum[0] O
*I *280:X O *D sky130_fd_sc_hd__buf_2
*CAP
1 sum[0] 0.000176336
2 *280:X 0.000176336
3 sum[0] sum[1] 8.31618e-05
4 sum[0] *281:A 3.38674e-05
5 *270:A sum[0] 7.3448e-05
*RES
1 *280:X sum[0] 18.73 
*END

*D_NET *22 0.000453213
*CONN
*P sum[1] O
*I *281:X O *D sky130_fd_sc_hd__buf_2
*CAP
1 sum[1] 0.000141661
2 *281:X 0.000141661
3 sum[1] *281:A 1.21955e-05
4 sum[0] sum[1] 8.31618e-05
5 *277:A sum[1] 7.45338e-05
*RES
1 *281:X sum[1] 18.1229 
*END

*D_NET *23 0.000866881
*CONN
*P sum[2] O
*I *282:X O *D sky130_fd_sc_hd__buf_2
*CAP
1 sum[2] 0.000433441
2 *282:X 0.000433441
3 sum[2] sum[3] 0
4 *263:A sum[2] 0
*RES
1 *282:X sum[2] 23.6393 
*END

*D_NET *24 0.000950737
*CONN
*P sum[3] O
*I *283:X O *D sky130_fd_sc_hd__buf_2
*CAP
1 sum[3] 0.000475368
2 *283:X 0.000475368
3 sum[2] sum[3] 0
*RES
1 *283:X sum[3] 22.05 
*END

*D_NET *25 0.000721917
*CONN
*P sum[4] O
*I *284:X O *D sky130_fd_sc_hd__buf_2
*CAP
1 sum[4] 0.000349661
2 *284:X 0.000349661
3 *266:A sum[4] 2.25951e-05
*RES
1 *284:X sum[4] 20.891 
*END

*D_NET *26 0.000951263
*CONN
*P sum[5] O
*I *285:X O *D sky130_fd_sc_hd__buf_2
*CAP
1 sum[5] 0.000475631
2 *285:X 0.000475631
3 *267:A sum[5] 0
4 *276:A sum[5] 0
*RES
1 *285:X sum[5] 22.05 
*END

*D_NET *27 0.000744148
*CONN
*P sum[6] O
*I *286:X O *D sky130_fd_sc_hd__buf_2
*CAP
1 sum[6] 0.00027029
2 *286:X 0.00027029
3 sum[6] sum[7] 8.57347e-05
4 sum[6] *279:A 4.33002e-05
5 sum[6] *286:A 0
6 cout sum[6] 7.45338e-05
*RES
1 *286:X sum[6] 19.1783 
*END

*D_NET *28 0.000525357
*CONN
*P sum[7] O
*I *287:X O *D sky130_fd_sc_hd__buf_2
*CAP
1 sum[7] 0.000166153
2 *287:X 0.000166153
3 sum[7] *279:A 3.38674e-05
4 sum[6] sum[7] 8.57347e-05
5 *269:A sum[7] 7.3448e-05
6 *277:A sum[7] 0
*RES
1 *287:X sum[7] 18.73 
*END

*D_NET *29 0.000204034
*CONN
*I *217:A I *D sky130_fd_sc_hd__nor2_1
*I *214:Y O *D sky130_fd_sc_hd__nor2_1
*CAP
1 *217:A 7.05603e-05
2 *214:Y 7.05603e-05
3 *217:A *214:B 6.29133e-05
4 *217:A *230:A 0
*RES
1 *214:Y *217:A 19.975 
*END

*D_NET *30 0.00173328
*CONN
*I *245:A1 I *D sky130_fd_sc_hd__a211o_1
*I *247:B1 I *D sky130_fd_sc_hd__o31ai_2
*I *215:X O *D sky130_fd_sc_hd__or2_1
*CAP
1 *245:A1 0.000322156
2 *247:B1 0
3 *215:X 0.000187272
4 *30:14 0.000509429
5 *245:A1 *218:B 0.000143707
6 *245:A1 *245:B1 1.97695e-05
7 *245:A1 *245:C1 6.54624e-05
8 *245:A1 *246:B1 7.83587e-05
9 *245:A1 *33:10 0.000147364
10 *245:A1 *34:14 3.25446e-05
11 *30:14 *217:B 0
12 *30:14 *218:B 9.90431e-05
13 *30:14 *229:B1_N 4.46186e-06
14 *30:14 *230:B 1.92905e-05
15 *30:14 *245:C1 4.58976e-05
16 *30:14 *247:A3 5.10822e-05
17 *30:14 *31:19 7.43578e-06
18 *30:14 *34:14 0
*RES
1 *215:X *30:14 22.1393 
2 *30:14 *247:B1 9.3 
3 *30:14 *245:A1 24.5679 
*END

*D_NET *31 0.00253066
*CONN
*I *245:C1 I *D sky130_fd_sc_hd__a211o_1
*I *247:A3 I *D sky130_fd_sc_hd__o31ai_2
*I *217:B I *D sky130_fd_sc_hd__nor2_1
*I *216:X O *D sky130_fd_sc_hd__and2_1
*CAP
1 *245:C1 0.000433906
2 *247:A3 8.15139e-05
3 *217:B 0.000198746
4 *216:X 6.59684e-05
5 *31:19 0.000622248
6 *31:6 0.000371544
7 *217:B *214:A 0
8 *217:B *220:A 0
9 *217:B *229:B1_N 0
10 *217:B *230:B 0
11 *217:B *71:8 0
12 *217:B *88:21 0
13 *245:C1 *227:A 3.57366e-05
14 *245:C1 *229:A2 5.74986e-05
15 *245:C1 *245:B1 4.22908e-05
16 *245:C1 *33:18 1.38155e-05
17 *245:C1 *43:6 0.000295688
18 *247:A3 *34:14 0
19 *247:A3 *71:8 0
20 *247:A3 *87:10 0
21 *31:6 *215:A 9.90367e-05
22 *31:19 *215:A 4.27935e-05
23 *245:A1 *245:C1 6.54624e-05
24 *30:14 *217:B 0
25 *30:14 *245:C1 4.58976e-05
26 *30:14 *247:A3 5.10822e-05
27 *30:14 *31:19 7.43578e-06
*RES
1 *216:X *31:6 10.2464 
2 *31:6 *217:B 21.7643 
3 *31:6 *31:19 1.35714 
4 *31:19 *247:A3 19.9429 
5 *31:19 *245:C1 17.8357 
*END

*D_NET *32 0.00027386
*CONN
*I *230:A I *D sky130_fd_sc_hd__xnor2_1
*I *217:Y O *D sky130_fd_sc_hd__nor2_1
*CAP
1 *230:A 0.00013693
2 *217:Y 0.00013693
3 *217:A *230:A 0
*RES
1 *217:Y *230:A 20.7964 
*END

*D_NET *33 0.00210372
*CONN
*I *245:A2 I *D sky130_fd_sc_hd__a211o_1
*I *229:B1_N I *D sky130_fd_sc_hd__o21ba_1
*I *220:A I *D sky130_fd_sc_hd__nor2_1
*I *218:X O *D sky130_fd_sc_hd__and2_1
*CAP
1 *245:A2 0
2 *229:B1_N 4.9521e-05
3 *220:A 0.000184653
4 *218:X 0.000182755
5 *33:18 0.000557042
6 *33:10 0.000505622
7 *220:A *220:B 0
8 *220:A *230:B 4.57352e-05
9 *220:A *231:A 0.000127439
10 *220:A *231:B 0
11 *229:B1_N *220:B 0
12 *229:B1_N *231:B 0
13 *33:10 *246:A1 6.05161e-06
14 *33:10 *246:B1 1.31516e-05
15 *33:10 *34:14 1.88206e-05
16 *33:10 *36:12 0
17 *33:10 *40:21 0
18 *33:10 *57:12 1.56e-05
19 *33:18 *220:B 2.88424e-05
20 *33:18 *229:A2 1.69151e-05
21 *33:18 *34:14 4.1331e-06
22 *33:18 *36:12 0
23 *33:18 *43:6 0.000181796
24 *217:B *220:A 0
25 *217:B *229:B1_N 0
26 *245:A1 *33:10 0.000147364
27 *245:C1 *33:18 1.38155e-05
28 *30:14 *229:B1_N 4.46186e-06
*RES
1 *218:X *33:10 17.4071 
2 *33:10 *33:18 13.4464 
3 *33:18 *220:A 17.8714 
4 *33:18 *229:B1_N 14.8357 
5 *33:10 *245:A2 13.8 
*END

*D_NET *34 0.0026145
*CONN
*I *229:A1 I *D sky130_fd_sc_hd__o21ba_1
*I *220:B I *D sky130_fd_sc_hd__nor2_1
*I *219:Y O *D sky130_fd_sc_hd__nor2_1
*CAP
1 *229:A1 0
2 *220:B 0.000313692
3 *219:Y 0.000530051
4 *34:14 0.000843743
5 *220:B *231:A 0
6 *220:B *231:B 0.000150611
7 *220:B *283:A 0.000126439
8 *220:B *36:12 0
9 *34:14 *218:A 0.000257653
10 *34:14 *218:B 4.93265e-05
11 *34:14 *246:B1 0.000102545
12 *34:14 *57:12 0.00014285
13 *34:14 *58:10 0
14 *34:14 *70:18 1.32552e-05
15 *220:A *220:B 0
16 *229:B1_N *220:B 0
17 *245:A1 *34:14 3.25446e-05
18 *247:A3 *34:14 0
19 *30:14 *34:14 0
20 *33:10 *34:14 1.88206e-05
21 *33:18 *220:B 2.88424e-05
22 *33:18 *34:14 4.1331e-06
*RES
1 *219:Y *34:14 23.4964 
2 *34:14 *220:B 20.1393 
3 *34:14 *229:A1 13.8 
*END

*D_NET *35 0.000405241
*CONN
*I *231:A I *D sky130_fd_sc_hd__xnor2_1
*I *220:Y O *D sky130_fd_sc_hd__nor2_1
*CAP
1 *231:A 0.000112229
2 *220:Y 0.000112229
3 *231:A *283:A 5.33433e-05
4 *220:A *231:A 0.000127439
5 *220:B *231:A 0
*RES
1 *220:Y *231:A 30.1893 
*END

*D_NET *36 0.000982578
*CONN
*I *245:B1 I *D sky130_fd_sc_hd__a211o_1
*I *228:B1 I *D sky130_fd_sc_hd__a21oi_1
*I *227:A I *D sky130_fd_sc_hd__nor2_1
*I *221:X O *D sky130_fd_sc_hd__and2_1
*CAP
1 *245:B1 6.04113e-05
2 *228:B1 0
3 *227:A 0.00010883
4 *221:X 0.000185802
5 *36:12 0.000355043
6 *227:A *228:A2 4.50758e-05
7 *227:A *40:10 5.06736e-05
8 *227:A *43:6 1.24368e-05
9 *245:B1 *228:A2 1.3701e-05
10 *245:B1 *43:6 1.02821e-05
11 *36:12 *227:B 0
12 *36:12 *282:A 9.33978e-07
13 *36:12 *40:10 4.15914e-05
14 *220:B *36:12 0
15 *245:A1 *245:B1 1.97695e-05
16 *245:C1 *227:A 3.57366e-05
17 *245:C1 *245:B1 4.22908e-05
18 *33:10 *36:12 0
19 *33:18 *36:12 0
*RES
1 *221:X *36:12 20.7821 
2 *36:12 *227:A 11.925 
3 *36:12 *228:B1 9.3 
4 *36:12 *245:B1 11.1036 
*END

*D_NET *37 0.00146603
*CONN
*I *225:B1_N I *D sky130_fd_sc_hd__a21bo_1
*I *224:A I *D sky130_fd_sc_hd__nand2_1
*I *222:Y O *D sky130_fd_sc_hd__nand2_1
*CAP
1 *225:B1_N 7.4963e-05
2 *224:A 0.000278848
3 *222:Y 0.000140953
4 *37:10 0.000494763
5 *224:A *224:B 0.000125724
6 *224:A *233:A 0.000125057
7 *224:A *233:B 2.56601e-05
8 *224:A *76:12 5.33334e-05
9 *225:B1_N *76:12 4.27437e-05
10 *37:10 *224:B 0
11 *37:10 *280:A 0.000103981
12 *37:10 *38:8 0
*RES
1 *222:Y *37:10 20.8536 
2 *37:10 *224:A 22.9429 
3 *37:10 *225:B1_N 10.2464 
*END

*D_NET *38 0.000997383
*CONN
*I *224:B I *D sky130_fd_sc_hd__nand2_1
*I *225:A2 I *D sky130_fd_sc_hd__a21bo_1
*I *223:X O *D sky130_fd_sc_hd__or2_1
*CAP
1 *224:B 0.000152688
2 *225:A2 2.12584e-05
3 *223:X 0.000109382
4 *38:8 0.000283328
5 *224:B *233:B 0
6 *224:B *280:A 0
7 *224:B *281:A 1.92905e-05
8 *225:A2 *233:A 0.000142856
9 *225:A2 *280:A 0.000142856
10 *38:8 *233:B 0
11 *224:A *224:B 0.000125724
12 *37:10 *224:B 0
13 *37:10 *38:8 0
*RES
1 *223:X *38:8 15.4429 
2 *38:8 *225:A2 15.1571 
3 *38:8 *224:B 16.8893 
*END

*D_NET *39 0.000492648
*CONN
*I *233:B I *D sky130_fd_sc_hd__xnor2_1
*I *224:Y O *D sky130_fd_sc_hd__nand2_1
*CAP
1 *233:B 0.000226292
2 *224:Y 0.000226292
3 *233:B *281:A 1.44042e-05
4 *224:A *233:B 2.56601e-05
5 *224:B *233:B 0
6 *38:8 *233:B 0
*RES
1 *224:Y *233:B 30.9036 
*END

*D_NET *40 0.00316899
*CONN
*I *232:A I *D sky130_fd_sc_hd__xor2_1
*I *246:A1 I *D sky130_fd_sc_hd__a21oi_1
*I *228:A1 I *D sky130_fd_sc_hd__a21oi_1
*I *225:X O *D sky130_fd_sc_hd__a21bo_1
*CAP
1 *232:A 8.65457e-05
2 *246:A1 0.00024254
3 *228:A1 0
4 *225:X 0.000867682
5 *40:21 0.000479775
6 *40:10 0.00101837
7 *232:A *246:A2 7.57394e-05
8 *246:A1 *246:A2 0.00010127
9 *40:10 *227:B 1.80632e-05
10 *40:10 *228:A2 1.02911e-05
11 *40:10 *233:A 6.97409e-05
12 *40:10 *280:A 9.80173e-05
13 *40:10 *42:23 2.64262e-06
14 *227:A *40:10 5.06736e-05
15 *33:10 *246:A1 6.05161e-06
16 *33:10 *40:21 0
17 *36:12 *40:10 4.15914e-05
*RES
1 *225:X *40:10 24.8179 
2 *40:10 *228:A1 13.8 
3 *40:10 *40:21 6.44643 
4 *40:21 *246:A1 12.7286 
5 *40:21 *232:A 11.0857 
*END

*D_NET *41 0.000443051
*CONN
*I *227:B I *D sky130_fd_sc_hd__nor2_1
*I *226:Y O *D sky130_fd_sc_hd__nor2_1
*CAP
1 *227:B 0.000193209
2 *226:Y 0.000193209
3 *227:B *221:A 3.13687e-05
4 *227:B *42:23 7.20217e-06
5 *36:12 *227:B 0
6 *40:10 *227:B 1.80632e-05
*RES
1 *226:Y *227:B 30.6179 
*END

*D_NET *42 0.00121172
*CONN
*I *232:B I *D sky130_fd_sc_hd__xor2_1
*I *246:A2 I *D sky130_fd_sc_hd__a21oi_1
*I *228:A2 I *D sky130_fd_sc_hd__a21oi_1
*I *227:Y O *D sky130_fd_sc_hd__nor2_1
*CAP
1 *232:B 0
2 *246:A2 0.000218156
3 *228:A2 7.72071e-05
4 *227:Y 0
5 *42:23 0.000400693
6 *42:4 0.000259743
7 *246:A2 *218:B 0
8 *227:A *228:A2 4.50758e-05
9 *227:B *42:23 7.20217e-06
10 *232:A *246:A2 7.57394e-05
11 *245:B1 *228:A2 1.3701e-05
12 *246:A1 *246:A2 0.00010127
13 *40:10 *228:A2 1.02911e-05
14 *40:10 *42:23 2.64262e-06
*RES
1 *227:Y *42:4 9.3 
2 *42:4 *228:A2 11.1036 
3 *42:4 *42:23 11.4821 
4 *42:23 *246:A2 13.9607 
5 *42:23 *232:B 9.3 
*END

*D_NET *43 0.00127666
*CONN
*I *229:A2 I *D sky130_fd_sc_hd__o21ba_1
*I *231:B I *D sky130_fd_sc_hd__xnor2_1
*I *228:Y O *D sky130_fd_sc_hd__a21oi_1
*CAP
1 *229:A2 4.40281e-05
2 *231:B 8.74102e-05
3 *228:Y 0.000144278
4 *43:6 0.000275716
5 *220:A *231:B 0
6 *220:B *231:B 0.000150611
7 *227:A *43:6 1.24368e-05
8 *229:B1_N *231:B 0
9 *245:B1 *43:6 1.02821e-05
10 *245:C1 *229:A2 5.74986e-05
11 *245:C1 *43:6 0.000295688
12 *33:18 *229:A2 1.69151e-05
13 *33:18 *43:6 0.000181796
*RES
1 *228:Y *43:6 13.1214 
2 *43:6 *231:B 20.2464 
3 *43:6 *229:A2 10.5991 
*END

*D_NET *44 0.000301445
*CONN
*I *230:B I *D sky130_fd_sc_hd__xnor2_1
*I *229:X O *D sky130_fd_sc_hd__o21ba_1
*CAP
1 *230:B 0.000118209
2 *229:X 0.000118209
3 *217:B *230:B 0
4 *220:A *230:B 4.57352e-05
5 *30:14 *230:B 1.92905e-05
*RES
1 *229:X *230:B 29.7786 
*END

*D_NET *45 0.000671495
*CONN
*I *261:A1 I *D sky130_fd_sc_hd__o221a_1
*I *234:X O *D sky130_fd_sc_hd__and2_1
*CAP
1 *261:A1 0.000172082
2 *234:X 0.000172082
3 *261:A1 *234:B 9.80173e-05
4 *261:A1 *46:10 0.000200413
5 *261:A1 *47:10 2.89016e-05
6 *269:A *261:A1 0
*RES
1 *234:X *261:A1 31.6357 
*END

*D_NET *46 0.00289445
*CONN
*I *237:A I *D sky130_fd_sc_hd__nand2_1
*I *260:A I *D sky130_fd_sc_hd__nand2_1
*I *235:Y O *D sky130_fd_sc_hd__nand2_1
*CAP
1 *237:A 0.000489783
2 *260:A 0
3 *235:Y 0.000391835
4 *46:10 0.000881618
5 *237:A *237:B 0.000392026
6 *237:A *253:A 9.87983e-06
7 *237:A *254:A 0
8 *237:A *260:B 2.88018e-06
9 *237:A *279:A 2.88424e-05
10 *237:A *287:A 7.77652e-05
11 *237:A *74:8 0
12 *237:A *91:8 8.00806e-05
13 *46:10 *235:A 1.74352e-05
14 *46:10 *235:B 5.62995e-05
15 *46:10 *237:B 0
16 *46:10 *261:B2 0.000127446
17 *46:10 *279:A 4.79842e-05
18 *46:10 *286:A 0
19 *46:10 *47:10 0
20 *46:10 *75:23 1.17968e-05
21 *46:10 *92:23 7.83659e-05
22 *261:A1 *46:10 0.000200413
*RES
1 *235:Y *46:10 21.6571 
2 *46:10 *260:A 13.8 
3 *46:10 *237:A 30.3357 
*END

*D_NET *47 0.00217249
*CONN
*I *237:B I *D sky130_fd_sc_hd__nand2_1
*I *261:C1 I *D sky130_fd_sc_hd__o221a_1
*I *236:X O *D sky130_fd_sc_hd__or2_1
*CAP
1 *237:B 0.000309535
2 *261:C1 0
3 *236:X 0.000216249
4 *47:10 0.000525784
5 *237:B *251:A 5.38444e-06
6 *237:B *253:A 0.000165601
7 *237:B *253:B 0.000241034
8 *237:B *254:A 2.89016e-05
9 *237:B *254:B 3.99614e-06
10 *237:B *260:B 2.89912e-05
11 *237:B *261:B2 4.25716e-05
12 *237:B *286:A 1.08359e-05
13 *237:B *50:34 1.55885e-05
14 *47:10 *234:A 1.32552e-05
15 *47:10 *234:B 3.48705e-05
16 *47:10 *253:B 5.59013e-05
17 *47:10 *261:B2 4.1331e-06
18 *47:10 *286:A 4.89264e-05
19 *237:A *237:B 0.000392026
20 *261:A1 *47:10 2.89016e-05
21 *46:10 *237:B 0
22 *46:10 *47:10 0
*RES
1 *236:X *47:10 17.5143 
2 *47:10 *261:C1 13.8 
3 *47:10 *237:B 22.0321 
*END

*D_NET *48 0.000700873
*CONN
*I *253:A I *D sky130_fd_sc_hd__xnor2_1
*I *237:Y O *D sky130_fd_sc_hd__nand2_1
*CAP
1 *253:A 0.000201242
2 *237:Y 0.000201242
3 *253:A *253:B 0
4 *253:A *254:B 0
5 *253:A *257:A 2.86361e-06
6 *253:A *260:B 4.45048e-05
7 *253:A *287:A 0
8 *253:A *50:34 5.33433e-05
9 *253:A *74:8 2.21972e-05
10 *237:A *253:A 9.87983e-06
11 *237:B *253:A 0.000165601
*RES
1 *237:Y *253:A 32.0107 
*END

*D_NET *49 0.00206498
*CONN
*I *261:A2 I *D sky130_fd_sc_hd__o221a_1
*I *254:A I *D sky130_fd_sc_hd__nand2_1
*I *252:B1 I *D sky130_fd_sc_hd__o211a_1
*I *238:X O *D sky130_fd_sc_hd__or2_1
*CAP
1 *261:A2 0.000180892
2 *254:A 8.02048e-05
3 *252:B1 0.000403949
4 *238:X 0
5 *49:10 0.000611769
6 *49:4 0.000308508
7 *252:B1 *239:A 1.01912e-05
8 *252:B1 *252:A1 5.33005e-05
9 *252:B1 *252:C1 4.13122e-06
10 *252:B1 *253:B 2.56934e-05
11 *252:B1 *50:23 1.90936e-05
12 *252:B1 *66:6 1.83053e-05
13 *252:B1 *74:8 1.0945e-05
14 *254:A *257:A 3.82995e-05
15 *254:A *260:B 2.89016e-05
16 *254:A *74:8 6.19181e-05
17 *254:A *91:8 0
18 *261:A2 *261:B1 9.88771e-05
19 *49:10 *238:A 5.52238e-05
20 *49:10 *238:B 0
21 *49:10 *261:B1 2.58706e-05
22 *237:A *254:A 0
23 *237:B *254:A 2.89016e-05
*RES
1 *238:X *49:4 9.3 
2 *49:4 *49:10 6.28571 
3 *49:10 *252:B1 22.6364 
4 *49:10 *254:A 15.9786 
5 *49:4 *261:A2 12.3179 
*END

*D_NET *50 0.00253685
*CONN
*I *254:B I *D sky130_fd_sc_hd__nand2_1
*I *260:B I *D sky130_fd_sc_hd__nand2_1
*I *251:A I *D sky130_fd_sc_hd__nand2_1
*I *241:B I *D sky130_fd_sc_hd__nand2b_1
*I *239:Y O *D sky130_fd_sc_hd__nand2_1
*CAP
1 *254:B 1.50043e-05
2 *260:B 0.000408738
3 *251:A 4.01035e-05
4 *241:B 0.000143826
5 *239:Y 7.82938e-05
6 *50:34 0.000510544
7 *50:23 0.000294074
8 *50:8 0.000389289
9 *241:B *239:B 4.02151e-05
10 *241:B *241:A_N 0
11 *241:B *252:C1 3.4846e-06
12 *251:A *252:A2 5.48009e-05
13 *260:B *253:B 1.58163e-05
14 *260:B *287:A 2.27416e-05
15 *50:8 *239:B 1.92789e-05
16 *50:23 *239:B 4.09925e-05
17 *50:23 *252:A2 0.000167625
18 *50:23 *252:C1 3.84395e-05
19 *50:23 *285:A 0
20 *50:23 *91:8 1.0033e-05
21 *50:34 *252:A2 4.08637e-05
22 *237:A *260:B 2.88018e-06
23 *237:B *251:A 5.38444e-06
24 *237:B *254:B 3.99614e-06
25 *237:B *260:B 2.89912e-05
26 *237:B *50:34 1.55885e-05
27 *252:B1 *50:23 1.90936e-05
28 *253:A *254:B 0
29 *253:A *260:B 4.45048e-05
30 *253:A *50:34 5.33433e-05
31 *254:A *260:B 2.89016e-05
*RES
1 *239:Y *50:8 14.7464 
2 *50:8 *241:B 16.3268 
3 *50:8 *50:23 8.26786 
4 *50:23 *251:A 10.2643 
5 *50:23 *50:34 1.76786 
6 *50:34 *260:B 14.6929 
7 *50:34 *254:B 9.72857 
*END

*D_NET *51 0.00155935
*CONN
*I *256:A1 I *D sky130_fd_sc_hd__a21bo_1
*I *255:A I *D sky130_fd_sc_hd__nand2_1
*I *241:A_N I *D sky130_fd_sc_hd__nand2b_1
*I *240:X O *D sky130_fd_sc_hd__or2_1
*CAP
1 *256:A1 2.09012e-05
2 *255:A 0.00013403
3 *241:A_N 0.000116
4 *240:X 0.00015231
5 *51:23 0.000267884
6 *51:8 0.000381262
7 *241:A_N *60:12 0
8 *255:A *258:B 4.03318e-05
9 *255:A *285:A 4.48647e-05
10 *255:A *60:23 0.000185118
11 *255:A *61:6 5.49544e-05
12 *255:A *61:19 0.000112852
13 *255:A *73:10 0
14 *256:A1 *285:A 6.05161e-06
15 *256:A1 *60:23 4.27935e-05
16 *51:23 *252:C1 0
17 *51:23 *258:B 0
18 *51:23 *60:12 0
19 *241:B *241:A_N 0
*RES
1 *240:X *51:8 15.5679 
2 *51:8 *241:A_N 15.7821 
3 *51:8 *51:23 6.44643 
4 *51:23 *255:A 22.3179 
5 *51:23 *256:A1 9.83571 
*END

*D_NET *52 0.000366363
*CONN
*I *252:C1 I *D sky130_fd_sc_hd__o211a_1
*I *241:Y O *D sky130_fd_sc_hd__nand2b_1
*CAP
1 *252:C1 0.00012352
2 *241:Y 0.00012352
3 *252:C1 *252:A1 5.49544e-05
4 *252:C1 *66:6 1.83136e-05
5 *241:B *252:C1 3.4846e-06
6 *252:B1 *252:C1 4.13122e-06
7 *50:23 *252:C1 3.84395e-05
8 *51:23 *252:C1 0
*RES
1 *241:Y *252:C1 30.0821 
*END

*D_NET *53 0.00180473
*CONN
*I *244:A I *D sky130_fd_sc_hd__nand2_1
*I *249:B1 I *D sky130_fd_sc_hd__o31ai_2
*I *242:Y O *D sky130_fd_sc_hd__nand2_1
*CAP
1 *244:A 0
2 *249:B1 0.000170308
3 *242:Y 0.000460917
4 *53:12 0.000631225
5 *249:B1 *240:A 0
6 *249:B1 *240:B 5.80706e-06
7 *249:B1 *249:A1 0
8 *249:B1 *259:B 0
9 *249:B1 *60:12 5.71472e-05
10 *53:12 *243:A 5.52302e-05
11 *53:12 *243:B 0.000291871
12 *53:12 *244:B 5.71472e-05
13 *53:12 *259:A 9.22103e-06
14 *53:12 *55:6 6.58597e-05
*RES
1 *242:Y *53:12 17.2821 
2 *53:12 *249:B1 21.1929 
3 *53:12 *244:A 9.3 
*END

*D_NET *54 0.000126884
*CONN
*I *244:B I *D sky130_fd_sc_hd__nand2_1
*I *243:X O *D sky130_fd_sc_hd__or2_1
*CAP
1 *244:B 6.29488e-06
2 *243:X 6.29488e-06
3 *244:B *55:6 5.71472e-05
4 *53:12 *244:B 5.71472e-05
*RES
1 *243:X *244:B 19.1357 
*END

*D_NET *55 0.000957467
*CONN
*I *249:A1 I *D sky130_fd_sc_hd__o31ai_2
*I *259:A I *D sky130_fd_sc_hd__xnor2_1
*I *244:Y O *D sky130_fd_sc_hd__nand2_1
*CAP
1 *249:A1 0.000113747
2 *259:A 0.000117165
3 *244:Y 9.525e-05
4 *55:6 0.000326161
5 *249:A1 *259:B 2.79092e-05
6 *249:A1 *57:12 4.1331e-06
7 *249:A1 *58:10 2.8266e-06
8 *259:A *243:A 1.33343e-05
9 *259:A *243:B 6.75657e-05
10 *55:6 *243:A 5.71472e-05
11 *244:B *55:6 5.71472e-05
12 *249:B1 *249:A1 0
13 *53:12 *259:A 9.22103e-06
14 *53:12 *55:6 6.58597e-05
*RES
1 *244:Y *55:6 11.4786 
2 *55:6 *259:A 11.4964 
3 *55:6 *249:A1 20.3714 
*END

*D_NET *56 0.000264861
*CONN
*I *246:B1 I *D sky130_fd_sc_hd__a21oi_1
*I *245:X O *D sky130_fd_sc_hd__a211o_1
*CAP
1 *246:B1 3.54027e-05
2 *245:X 3.54027e-05
3 *245:A1 *246:B1 7.83587e-05
4 *33:10 *246:B1 1.31516e-05
5 *34:14 *246:B1 0.000102545
*RES
1 *245:X *246:B1 28.9393 
*END

*D_NET *57 0.00161586
*CONN
*I *248:A I *D sky130_fd_sc_hd__nor2_1
*I *249:A2 I *D sky130_fd_sc_hd__o31ai_2
*I *246:Y O *D sky130_fd_sc_hd__a21oi_1
*CAP
1 *248:A 0.000137514
2 *249:A2 0
3 *246:Y 0.000515389
4 *57:12 0.000652903
5 *248:A *249:A3 0.000147475
6 *57:12 *58:10 0
7 *57:12 *60:12 0
8 *249:A1 *57:12 4.1331e-06
9 *33:10 *57:12 1.56e-05
10 *34:14 *57:12 0.00014285
*RES
1 *246:Y *57:12 26.8714 
2 *57:12 *249:A2 9.3 
3 *57:12 *248:A 12.3357 
*END

*D_NET *58 0.00142562
*CONN
*I *249:A3 I *D sky130_fd_sc_hd__o31ai_2
*I *248:B I *D sky130_fd_sc_hd__nor2_1
*I *247:Y O *D sky130_fd_sc_hd__o31ai_2
*CAP
1 *249:A3 0.000178636
2 *248:B 3.3433e-05
3 *247:Y 0.000425593
4 *58:10 0.000637661
5 *58:10 *87:10 0
6 *248:A *249:A3 0.000147475
7 *249:A1 *58:10 2.8266e-06
8 *34:14 *58:10 0
9 *57:12 *58:10 0
*RES
1 *247:Y *58:10 25.4071 
2 *58:10 *248:B 9.83571 
3 *58:10 *249:A3 13.1571 
*END

*D_NET *59 0.000268243
*CONN
*I *259:B I *D sky130_fd_sc_hd__xnor2_1
*I *248:Y O *D sky130_fd_sc_hd__nor2_1
*CAP
1 *259:B 0.000113082
2 *248:Y 0.000113082
3 *259:B *242:A 0
4 *259:B *243:A 1.41706e-05
5 *259:B *89:12 0
6 *249:A1 *259:B 2.79092e-05
7 *249:B1 *259:B 0
*RES
1 *248:Y *259:B 29.5464 
*END

*D_NET *60 0.00236717
*CONN
*I *252:A1 I *D sky130_fd_sc_hd__o211a_1
*I *256:A2 I *D sky130_fd_sc_hd__a21bo_1
*I *258:A I *D sky130_fd_sc_hd__xnor2_1
*I *249:Y O *D sky130_fd_sc_hd__o31ai_2
*CAP
1 *252:A1 0.000223881
2 *256:A2 0
3 *258:A 0
4 *249:Y 0.000383897
5 *60:23 0.000424364
6 *60:12 0.00058438
7 *252:A1 *238:B 2.25101e-05
8 *252:A1 *252:A2 2.38426e-05
9 *252:A1 *66:6 2.49804e-05
10 *60:12 *240:A 9.27685e-05
11 *60:12 *258:B 3.34295e-05
12 *60:12 *73:10 4.1331e-06
13 *60:23 *61:6 0.00015567
14 *241:A_N *60:12 0
15 *249:B1 *60:12 5.71472e-05
16 *252:B1 *252:A1 5.33005e-05
17 *252:C1 *252:A1 5.49544e-05
18 *255:A *60:23 0.000185118
19 *256:A1 *60:23 4.27935e-05
20 *51:23 *60:12 0
21 *57:12 *60:12 0
*RES
1 *249:Y *60:12 25.8714 
2 *60:12 *258:A 9.3 
3 *60:12 *60:23 4.78571 
4 *60:23 *256:A2 9.3 
5 *60:23 *252:A1 13.4607 
*END

*D_NET *61 0.00145961
*CONN
*I *251:B I *D sky130_fd_sc_hd__nand2_1
*I *255:B I *D sky130_fd_sc_hd__nand2_1
*I *256:B1_N I *D sky130_fd_sc_hd__a21bo_1
*I *250:Y O *D sky130_fd_sc_hd__nand2_1
*CAP
1 *251:B 0.000178116
2 *255:B 0
3 *256:B1_N 0
4 *250:Y 0.000214492
5 *61:19 0.000268481
6 *61:6 0.000304857
7 *61:6 *285:A 5.49544e-05
8 *61:19 *285:A 0.00011523
9 *255:A *61:6 5.49544e-05
10 *255:A *61:19 0.000112852
11 *60:23 *61:6 0.00015567
*RES
1 *250:Y *61:6 13.1214 
2 *61:6 *256:B1_N 9.3 
3 *61:6 *61:19 11.4821 
4 *61:19 *255:B 9.3 
5 *61:19 *251:B 11.8893 
*END

*D_NET *62 0.000869058
*CONN
*I *252:A2 I *D sky130_fd_sc_hd__o211a_1
*I *251:Y O *D sky130_fd_sc_hd__nand2_1
*CAP
1 *252:A2 0.000203005
2 *251:Y 0.000203005
3 *252:A2 *239:B 0.000101932
4 *252:A2 *261:B1 0
5 *252:A2 *66:6 5.87491e-06
6 *252:A2 *91:8 6.81083e-05
7 *251:A *252:A2 5.48009e-05
8 *252:A1 *252:A2 2.38426e-05
9 *50:23 *252:A2 0.000167625
10 *50:34 *252:A2 4.08637e-05
*RES
1 *251:Y *252:A2 31.667 
*END

*D_NET *63 0.0015102
*CONN
*I *253:B I *D sky130_fd_sc_hd__xnor2_1
*I *252:X O *D sky130_fd_sc_hd__o211a_1
*CAP
1 *253:B 0.000305192
2 *252:X 0.000305192
3 *253:B *239:A 1.71829e-05
4 *253:B *257:A 8.03345e-05
5 *253:B *261:B1 0.00022266
6 *253:B *286:A 0.000241198
7 *237:B *253:B 0.000241034
8 *252:B1 *253:B 2.56934e-05
9 *253:A *253:B 0
10 *260:B *253:B 1.58163e-05
11 *47:10 *253:B 5.59013e-05
*RES
1 *252:X *253:B 44.475 
*END

*D_NET *64 0.00106005
*CONN
*I *257:A I *D sky130_fd_sc_hd__xnor2_1
*I *254:Y O *D sky130_fd_sc_hd__nand2_1
*CAP
1 *257:A 0.000289877
2 *254:Y 0.000289877
3 *257:A *239:A 5.33433e-05
4 *257:A *239:B 0.000134676
5 *257:A *257:B 0.000125724
6 *257:A *286:A 0
7 *257:A *91:8 4.50505e-05
8 *253:A *257:A 2.86361e-06
9 *253:B *257:A 8.03345e-05
10 *254:A *257:A 3.82995e-05
*RES
1 *254:Y *257:A 33.8857 
*END

*D_NET *65 0.000517439
*CONN
*I *258:B I *D sky130_fd_sc_hd__xnor2_1
*I *255:Y O *D sky130_fd_sc_hd__nand2_1
*CAP
1 *258:B 0.000221839
2 *255:Y 0.000221839
3 *258:B *73:10 0
4 *255:A *258:B 4.03318e-05
5 *51:23 *258:B 0
6 *60:12 *258:B 3.34295e-05
*RES
1 *255:Y *258:B 30.9036 
*END

*D_NET *66 0.00175857
*CONN
*I *261:B1 I *D sky130_fd_sc_hd__o221a_1
*I *257:B I *D sky130_fd_sc_hd__xnor2_1
*I *256:X O *D sky130_fd_sc_hd__a21bo_1
*CAP
1 *261:B1 0.000207089
2 *257:B 7.87547e-05
3 *256:X 0.000282911
4 *66:6 0.000568755
5 *257:B *239:A 0
6 *257:B *286:A 0
7 *261:B1 *238:A 2.89016e-05
8 *261:B1 *238:B 2.89016e-05
9 *66:6 *238:B 2.26558e-05
10 *252:A1 *66:6 2.49804e-05
11 *252:A2 *261:B1 0
12 *252:A2 *66:6 5.87491e-06
13 *252:B1 *66:6 1.83053e-05
14 *252:C1 *66:6 1.83136e-05
15 *253:B *261:B1 0.00022266
16 *257:A *257:B 0.000125724
17 *261:A2 *261:B1 9.88771e-05
18 *49:10 *261:B1 2.58706e-05
*RES
1 *256:X *66:6 12.7107 
2 *66:6 *257:B 19.9429 
3 *66:6 *261:B1 14.2821 
*END

*D_NET *67 0.000293707
*CONN
*I *261:B2 I *D sky130_fd_sc_hd__o221a_1
*I *260:Y O *D sky130_fd_sc_hd__nand2_1
*CAP
1 *261:B2 5.97782e-05
2 *260:Y 5.97782e-05
3 *237:B *261:B2 4.25716e-05
4 *46:10 *261:B2 0.000127446
5 *47:10 *261:B2 4.1331e-06
*RES
1 *260:Y *261:B2 29.2429 
*END

*D_NET *68 0.00112928
*CONN
*I *223:B I *D sky130_fd_sc_hd__or2_1
*I *222:B I *D sky130_fd_sc_hd__nand2_1
*I *262:X O *D sky130_fd_sc_hd__clkbuf_1
*CAP
1 *223:B 0.000211753
2 *222:B 0
3 *262:X 0.000204188
4 *68:12 0.00041594
5 *223:B *223:A 0.000245733
6 *223:B *93:10 5.16637e-05
7 *278:A *68:12 0
*RES
1 *262:X *68:12 20.8893 
2 *68:12 *222:B 9.3 
3 *68:12 *223:B 14.4071 
*END

*D_NET *69 0.000844894
*CONN
*I *221:A I *D sky130_fd_sc_hd__and2_1
*I *226:A I *D sky130_fd_sc_hd__nor2_1
*I *263:X O *D sky130_fd_sc_hd__clkbuf_1
*CAP
1 *221:A 7.11272e-05
2 *226:A 0
3 *263:X 0.000206742
4 *69:12 0.000277869
5 *221:A *221:B 2.90487e-05
6 *221:A *79:14 5.49489e-05
7 *69:12 *79:14 0.00017379
8 *227:B *221:A 3.13687e-05
*RES
1 *263:X *69:12 22.9071 
2 *69:12 *226:A 9.3 
3 *69:12 *221:A 11.0857 
*END

*D_NET *70 0.00139678
*CONN
*I *219:A I *D sky130_fd_sc_hd__nor2_1
*I *218:A I *D sky130_fd_sc_hd__and2_1
*I *247:A1 I *D sky130_fd_sc_hd__o31ai_2
*I *264:X O *D sky130_fd_sc_hd__buf_1
*CAP
1 *219:A 0
2 *218:A 9.54763e-05
3 *247:A1 0
4 *264:X 0.000139587
5 *70:18 0.000199507
6 *70:12 0.000243618
7 *218:A *218:B 0.000253613
8 *218:A *87:23 0.00010096
9 *70:12 *87:10 8.15843e-05
10 *70:18 *218:B 1.15299e-05
11 *34:14 *218:A 0.000257653
12 *34:14 *70:18 1.32552e-05
*RES
1 *264:X *70:12 20.7821 
2 *70:12 *70:18 2.21429 
3 *70:18 *247:A1 9.3 
4 *70:18 *218:A 13.9607 
5 *70:12 *219:A 9.3 
*END

*D_NET *71 0.00131809
*CONN
*I *215:A I *D sky130_fd_sc_hd__or2_1
*I *216:A I *D sky130_fd_sc_hd__and2_1
*I *214:A I *D sky130_fd_sc_hd__nor2_1
*I *265:X O *D sky130_fd_sc_hd__clkbuf_1
*CAP
1 *215:A 0.000163217
2 *216:A 0
3 *214:A 0.000193295
4 *265:X 0.000106845
5 *71:21 0.000163217
6 *71:8 0.00030014
7 *214:A *88:6 1.92905e-05
8 *214:A *88:21 8.15939e-05
9 *215:A *215:B 0.000142856
10 *71:8 *88:21 5.80706e-06
11 *217:B *214:A 0
12 *217:B *71:8 0
13 *247:A3 *71:8 0
14 *265:A *71:8 0
15 *31:6 *215:A 9.90367e-05
16 *31:19 *215:A 4.27935e-05
*RES
1 *265:X *71:8 15.4429 
2 *71:8 *214:A 17.1929 
3 *71:8 *71:21 4.5 
4 *71:21 *216:A 9.3 
5 *71:21 *215:A 12.7286 
*END

*D_NET *72 0.00165584
*CONN
*I *243:A I *D sky130_fd_sc_hd__or2_1
*I *242:A I *D sky130_fd_sc_hd__nand2_1
*I *266:X O *D sky130_fd_sc_hd__clkbuf_1
*CAP
1 *243:A 0.000488198
2 *242:A 9.72687e-05
3 *266:X 0.000120688
4 *72:6 0.000706155
5 *242:A *284:A 0.000100823
6 *242:A *89:12 2.8266e-06
7 *243:A *240:B 0
8 *243:A *284:A 0
9 *259:A *243:A 1.33343e-05
10 *259:B *242:A 0
11 *259:B *243:A 1.41706e-05
12 *266:A *242:A 0
13 *53:12 *243:A 5.52302e-05
14 *55:6 *243:A 5.71472e-05
*RES
1 *266:X *72:6 10.6571 
2 *72:6 *242:A 20.2464 
3 *72:6 *243:A 24.6036 
*END

*D_NET *73 0.00169288
*CONN
*I *250:A I *D sky130_fd_sc_hd__nand2_1
*I *240:A I *D sky130_fd_sc_hd__or2_1
*I *267:X O *D sky130_fd_sc_hd__clkbuf_1
*CAP
1 *250:A 0
2 *240:A 0.000214318
3 *267:X 0.000348425
4 *73:10 0.000562743
5 *240:A *240:B 0.000264845
6 *240:A *90:10 5.80706e-06
7 *73:10 *90:10 0.000167973
8 *249:B1 *240:A 0
9 *255:A *73:10 0
10 *258:B *73:10 0
11 *267:A *73:10 3.18676e-05
12 *60:12 *240:A 9.27685e-05
13 *60:12 *73:10 4.1331e-06
*RES
1 *267:X *73:10 20.7643 
2 *73:10 *240:A 19.1393 
3 *73:10 *250:A 13.8 
*END

*D_NET *74 0.00168286
*CONN
*I *238:A I *D sky130_fd_sc_hd__or2_1
*I *239:A I *D sky130_fd_sc_hd__nand2_1
*I *268:X O *D sky130_fd_sc_hd__clkbuf_1
*CAP
1 *238:A 1.40568e-05
2 *239:A 0.000305264
3 *268:X 0.000151309
4 *74:8 0.00047063
5 *239:A *286:A 0.000196276
6 *74:8 *286:A 0.00028542
7 *74:8 *91:8 0
8 *237:A *74:8 0
9 *252:B1 *239:A 1.01912e-05
10 *252:B1 *74:8 1.0945e-05
11 *253:A *74:8 2.21972e-05
12 *253:B *239:A 1.71829e-05
13 *254:A *74:8 6.19181e-05
14 *257:A *239:A 5.33433e-05
15 *257:B *239:A 0
16 *261:B1 *238:A 2.89016e-05
17 *49:10 *238:A 5.52238e-05
*RES
1 *268:X *74:8 17.5679 
2 *74:8 *239:A 19.675 
3 *74:8 *238:A 14.3357 
*END

*D_NET *75 0.0015198
*CONN
*I *236:A I *D sky130_fd_sc_hd__or2_1
*I *234:A I *D sky130_fd_sc_hd__and2_1
*I *235:A I *D sky130_fd_sc_hd__nand2_1
*I *269:X O *D sky130_fd_sc_hd__clkbuf_1
*CAP
1 *236:A 0
2 *234:A 0.000138316
3 *235:A 0.000169089
4 *269:X 7.91904e-05
5 *75:23 0.000207871
6 *75:6 0.000317835
7 *234:A *234:B 0.000227532
8 *234:A *92:23 5.33005e-05
9 *235:A *235:B 0.000205823
10 *75:23 *92:23 7.83587e-05
11 *46:10 *235:A 1.74352e-05
12 *46:10 *75:23 1.17968e-05
13 *47:10 *234:A 1.32552e-05
*RES
1 *269:X *75:6 10.2464 
2 *75:6 *235:A 13.3536 
3 *75:6 *75:23 10.3393 
4 *75:23 *234:A 12.3179 
5 *75:23 *236:A 9.3 
*END

*D_NET *76 0.00118476
*CONN
*I *225:A1 I *D sky130_fd_sc_hd__a21bo_1
*I *233:A I *D sky130_fd_sc_hd__xnor2_1
*I *270:X O *D sky130_fd_sc_hd__buf_1
*CAP
1 *225:A1 0
2 *233:A 0.000116194
3 *270:X 0.000139632
4 *76:12 0.000255826
5 *233:A *280:A 4.72818e-05
6 *76:12 *280:A 0.000130015
7 *224:A *233:A 0.000125057
8 *224:A *76:12 5.33334e-05
9 *225:A2 *233:A 0.000142856
10 *225:B1_N *76:12 4.27437e-05
11 *270:A *76:12 6.20827e-05
12 *40:10 *233:A 6.97409e-05
*RES
1 *270:X *76:12 22.1214 
2 *76:12 *233:A 13.1214 
3 *76:12 *225:A1 9.3 
*END

*D_NET *77 0.00069082
*CONN
*I *279:A I *D sky130_fd_sc_hd__buf_2
*I *261:X O *D sky130_fd_sc_hd__o221a_1
*CAP
1 *279:A 0.000268413
2 *261:X 0.000268413
3 *279:A *286:A 0
4 sum[6] *279:A 4.33002e-05
5 sum[7] *279:A 3.38674e-05
6 *237:A *279:A 2.88424e-05
7 *46:10 *279:A 4.79842e-05
*RES
1 *261:X *279:A 32.5107 
*END

*D_NET *78 0.00154136
*CONN
*I *280:A I *D sky130_fd_sc_hd__buf_2
*I *233:Y O *D sky130_fd_sc_hd__xnor2_1
*CAP
1 *280:A 0.000433937
2 *233:Y 0.000433937
3 *280:A *281:A 0.000151333
4 *224:B *280:A 0
5 *225:A2 *280:A 0.000142856
6 *233:A *280:A 4.72818e-05
7 *270:A *280:A 0
8 *37:10 *280:A 0.000103981
9 *40:10 *280:A 9.80173e-05
10 *76:12 *280:A 0.000130015
*RES
1 *233:Y *280:A 37.1357 
*END

*D_NET *79 0.00135562
*CONN
*I *226:B I *D sky130_fd_sc_hd__nor2_1
*I *221:B I *D sky130_fd_sc_hd__and2_1
*I *271:X O *D sky130_fd_sc_hd__clkbuf_1
*CAP
1 *226:B 0
2 *221:B 0.000105404
3 *271:X 0.000436766
4 *79:14 0.000542171
5 *79:14 *282:A 0
6 *221:A *221:B 2.90487e-05
7 *221:A *79:14 5.49489e-05
8 *263:A *79:14 7.43578e-06
9 *271:A *79:14 6.05161e-06
10 *69:12 *79:14 0.00017379
*RES
1 *271:X *79:14 26.2107 
2 *79:14 *221:B 11.5143 
3 *79:14 *226:B 9.3 
*END

*D_NET *80 0.00232671
*CONN
*I *281:A I *D sky130_fd_sc_hd__buf_2
*I *232:X O *D sky130_fd_sc_hd__xor2_1
*CAP
1 *281:A 0.00104781
2 *232:X 0.00104781
3 sum[0] *281:A 3.38674e-05
4 sum[1] *281:A 1.21955e-05
5 *224:B *281:A 1.92905e-05
6 *233:B *281:A 1.44042e-05
7 *280:A *281:A 0.000151333
*RES
1 *232:X *281:A 41.6536 
*END

*D_NET *81 0.000940434
*CONN
*I *282:A I *D sky130_fd_sc_hd__buf_2
*I *231:Y O *D sky130_fd_sc_hd__xnor2_1
*CAP
1 *282:A 0.00046975
2 *231:Y 0.00046975
3 *282:A *283:A 0
4 *263:A *282:A 0
5 *36:12 *282:A 9.33978e-07
6 *79:14 *282:A 0
*RES
1 *231:Y *282:A 34.5643 
*END

*D_NET *82 0.00107028
*CONN
*I *283:A I *D sky130_fd_sc_hd__buf_2
*I *230:Y O *D sky130_fd_sc_hd__xnor2_1
*CAP
1 *283:A 0.000445248
2 *230:Y 0.000445248
3 *220:B *283:A 0.000126439
4 *231:A *283:A 5.33433e-05
5 *282:A *283:A 0
*RES
1 *230:Y *283:A 34.5643 
*END

*D_NET *83 0.000735131
*CONN
*I *284:A I *D sky130_fd_sc_hd__buf_2
*I *259:Y O *D sky130_fd_sc_hd__xnor2_1
*CAP
1 *284:A 0.000317154
2 *259:Y 0.000317154
3 *242:A *284:A 0.000100823
4 *243:A *284:A 0
5 *266:A *284:A 0
*RES
1 *259:Y *284:A 33.3321 
*END

*D_NET *84 0.000960252
*CONN
*I *285:A I *D sky130_fd_sc_hd__buf_2
*I *258:Y O *D sky130_fd_sc_hd__xnor2_1
*CAP
1 *285:A 0.000369575
2 *258:Y 0.000369575
3 *285:A *91:8 0
4 *255:A *285:A 4.48647e-05
5 *256:A1 *285:A 6.05161e-06
6 *276:A *285:A 0
7 *50:23 *285:A 0
8 *61:6 *285:A 5.49544e-05
9 *61:19 *285:A 0.00011523
*RES
1 *258:Y *285:A 33.7429 
*END

*D_NET *85 0.00171547
*CONN
*I *286:A I *D sky130_fd_sc_hd__buf_2
*I *257:Y O *D sky130_fd_sc_hd__xnor2_1
*CAP
1 *286:A 0.000466405
2 *257:Y 0.000466405
3 sum[6] *286:A 0
4 *237:B *286:A 1.08359e-05
5 *239:A *286:A 0.000196276
6 *253:B *286:A 0.000241198
7 *257:A *286:A 0
8 *257:B *286:A 0
9 *279:A *286:A 0
10 *46:10 *286:A 0
11 *47:10 *286:A 4.89264e-05
12 *74:8 *286:A 0.00028542
*RES
1 *257:Y *286:A 38.1 
*END

*D_NET *86 0.00044997
*CONN
*I *287:A I *D sky130_fd_sc_hd__buf_2
*I *253:Y O *D sky130_fd_sc_hd__xnor2_1
*CAP
1 *287:A 0.000174731
2 *253:Y 0.000174731
3 *237:A *287:A 7.77652e-05
4 *253:A *287:A 0
5 *260:B *287:A 2.27416e-05
*RES
1 *253:Y *287:A 22.0464 
*END

*D_NET *87 0.00193962
*CONN
*I *247:A2 I *D sky130_fd_sc_hd__o31ai_2
*I *218:B I *D sky130_fd_sc_hd__and2_1
*I *219:B I *D sky130_fd_sc_hd__nor2_1
*I *272:X O *D sky130_fd_sc_hd__buf_1
*CAP
1 *247:A2 0
2 *218:B 0.000146881
3 *219:B 0
4 *272:X 0.000348912
5 *87:23 0.000251014
6 *87:10 0.000453045
7 *218:A *218:B 0.000253613
8 *218:A *87:23 0.00010096
9 *245:A1 *218:B 0.000143707
10 *246:A2 *218:B 0
11 *247:A3 *87:10 0
12 *30:14 *218:B 9.90431e-05
13 *34:14 *218:B 4.93265e-05
14 *58:10 *87:10 0
15 *70:12 *87:10 8.15843e-05
16 *70:18 *218:B 1.15299e-05
*RES
1 *272:X *87:10 19.5321 
2 *87:10 *219:B 13.8 
3 *87:10 *87:23 6.39286 
4 *87:23 *218:B 14.6214 
5 *87:23 *247:A2 9.3 
*END

*D_NET *88 0.000888784
*CONN
*I *215:B I *D sky130_fd_sc_hd__or2_1
*I *216:B I *D sky130_fd_sc_hd__and2_1
*I *214:B I *D sky130_fd_sc_hd__nor2_1
*I *273:X O *D sky130_fd_sc_hd__clkbuf_1
*CAP
1 *215:B 5.14873e-05
2 *216:B 0
3 *214:B 6.79859e-05
4 *273:X 7.66596e-05
5 *88:21 0.000143516
6 *88:6 0.000236674
7 *214:A *88:6 1.92905e-05
8 *214:A *88:21 8.15939e-05
9 *215:A *215:B 0.000142856
10 *217:A *214:B 6.29133e-05
11 *217:B *88:21 0
12 *71:8 *88:21 5.80706e-06
*RES
1 *273:X *88:6 10.2464 
2 *88:6 *214:B 10.8714 
3 *88:6 *88:21 10.9464 
4 *88:21 *216:B 9.3 
5 *88:21 *215:B 10.6571 
*END

*D_NET *89 0.00102321
*CONN
*I *243:B I *D sky130_fd_sc_hd__or2_1
*I *242:B I *D sky130_fd_sc_hd__nand2_1
*I *274:X O *D sky130_fd_sc_hd__clkbuf_1
*CAP
1 *243:B 0.000199463
2 *242:B 0
3 *274:X 0.000131009
4 *89:12 0.000330472
5 *242:A *89:12 2.8266e-06
6 *259:A *243:B 6.75657e-05
7 *259:B *89:12 0
8 *53:12 *243:B 0.000291871
*RES
1 *274:X *89:12 20.4786 
2 *89:12 *242:B 9.3 
3 *89:12 *243:B 15.4964 
*END

*D_NET *90 0.00133776
*CONN
*I *250:B I *D sky130_fd_sc_hd__nand2_1
*I *240:B I *D sky130_fd_sc_hd__or2_1
*I *275:X O *D sky130_fd_sc_hd__clkbuf_1
*CAP
1 *250:B 0
2 *240:B 0.000228758
3 *275:X 0.000217904
4 *90:10 0.000446662
5 *240:A *240:B 0.000264845
6 *240:A *90:10 5.80706e-06
7 *243:A *240:B 0
8 *249:B1 *240:B 5.80706e-06
9 *73:10 *90:10 0.000167973
*RES
1 *275:X *90:10 18.4071 
2 *90:10 *240:B 18.8357 
3 *90:10 *250:B 13.8 
*END

*D_NET *91 0.00156919
*CONN
*I *238:B I *D sky130_fd_sc_hd__or2_1
*I *239:B I *D sky130_fd_sc_hd__nand2_1
*I *276:X O *D sky130_fd_sc_hd__clkbuf_1
*CAP
1 *238:B 0.000148192
2 *239:B 0.000158114
3 *276:X 0.000171071
4 *91:8 0.000477376
5 *237:A *91:8 8.00806e-05
6 *241:B *239:B 4.02151e-05
7 *252:A1 *238:B 2.25101e-05
8 *252:A2 *239:B 0.000101932
9 *252:A2 *91:8 6.81083e-05
10 *254:A *91:8 0
11 *257:A *239:B 0.000134676
12 *257:A *91:8 4.50505e-05
13 *261:B1 *238:B 2.89016e-05
14 *285:A *91:8 0
15 *49:10 *238:B 0
16 *50:8 *239:B 1.92789e-05
17 *50:23 *239:B 4.09925e-05
18 *50:23 *91:8 1.0033e-05
19 *66:6 *238:B 2.26558e-05
20 *74:8 *91:8 0
*RES
1 *276:X *91:8 17.2643 
2 *91:8 *239:B 17.8 
3 *91:8 *238:B 16.1214 
*END

*D_NET *92 0.00140976
*CONN
*I *236:B I *D sky130_fd_sc_hd__or2_1
*I *234:B I *D sky130_fd_sc_hd__and2_1
*I *235:B I *D sky130_fd_sc_hd__nand2_1
*I *277:X O *D sky130_fd_sc_hd__clkbuf_1
*CAP
1 *236:B 2.79386e-05
2 *234:B 6.22086e-05
3 *235:B 5.30967e-05
4 *277:X 0
5 *92:23 0.000235497
6 *92:4 0.000198447
7 *234:A *234:B 0.000227532
8 *234:A *92:23 5.33005e-05
9 *235:A *235:B 0.000205823
10 *261:A1 *234:B 9.80173e-05
11 *46:10 *235:B 5.62995e-05
12 *46:10 *92:23 7.83659e-05
13 *47:10 *234:B 3.48705e-05
14 *75:23 *92:23 7.83587e-05
*RES
1 *277:X *92:4 9.3 
2 *92:4 *235:B 11.3893 
3 *92:4 *92:23 11.7143 
4 *92:23 *234:B 11.8893 
5 *92:23 *236:B 9.83571 
*END

*D_NET *93 0.000633048
*CONN
*I *222:A I *D sky130_fd_sc_hd__nand2_1
*I *223:A I *D sky130_fd_sc_hd__or2_1
*I *278:X O *D sky130_fd_sc_hd__clkbuf_1
*CAP
1 *222:A 0
2 *223:A 2.25392e-05
3 *278:X 0.000145287
4 *93:10 0.000167826
5 *223:B *223:A 0.000245733
6 *223:B *93:10 5.16637e-05
*RES
1 *278:X *93:10 11.925 
2 *93:10 *223:A 10.6571 
3 *93:10 *222:A 9.3 
*END
