*SPEF "ieee 1481-1999"
*DESIGN "acc8"
*DATE "12:27:25 Saturday September 19, 2026"
*VENDOR "The OpenROAD Project"
*PROGRAM "OpenROAD"
*VERSION "edf00dff99f6c40d67a30c0e22a8191c5d2ed9d6"
*DESIGN_FLOW "NAME_SCOPE LOCAL" "PIN_CAP NONE"
*DIVIDER /
*DELIMITER :
*BUS_DELIMITER []
*T_UNIT 1 NS
*C_UNIT 1 PF
*R_UNIT 1 OHM
*L_UNIT 1 HENRY

*NAME_MAP
*3 acc[0]
*4 acc[1]
*5 acc[2]
*6 acc[3]
*7 acc[4]
*8 acc[5]
*9 acc[6]
*10 acc[7]
*11 clk
*12 data_in[0]
*13 data_in[1]
*14 data_in[2]
*15 data_in[3]
*16 data_in[4]
*17 data_in[5]
*18 data_in[6]
*19 data_in[7]
*20 rst
*21 _00_
*22 _01_
*23 _02_
*24 _03_
*25 _04_
*26 _05_
*27 _06_
*28 _07_
*29 _08_
*30 _09_
*31 _10_
*32 _11_
*33 _12_
*34 _13_
*35 _14_
*36 _15_
*37 _16_
*38 _17_
*39 _18_
*40 _19_
*41 _20_
*42 _21_
*43 _22_
*44 _23_
*45 _24_
*46 _25_
*47 _26_
*48 _27_
*49 _28_
*50 _29_
*51 _30_
*52 _31_
*53 _32_
*54 _33_
*55 _34_
*56 _35_
*57 _36_
*58 _37_
*59 _38_
*60 _39_
*61 _40_
*62 _41_
*63 adder\.high\.sum\[0\]
*64 adder\.high\.sum\[1\]
*65 adder\.high\.sum\[2\]
*66 adder\.high\.sum\[3\]
*67 adder\.low\.p\[0\]
*68 adder\.low\.sum\[1\]
*69 adder\.low\.sum\[2\]
*70 adder\.low\.sum\[3\]
*71 clknet_0_clk
*72 clknet_1_0__leaf_clk
*73 clknet_1_1__leaf_clk
*74 net1
*75 net10
*76 net11
*77 net12
*78 net13
*79 net14
*80 net15
*81 net16
*82 net17
*83 net2
*84 net3
*85 net4
*86 net5
*87 net6
*88 net7
*89 net8
*90 net9
*91 FILLER_0_15
*92 FILLER_0_27
*93 FILLER_0_29
*94 FILLER_0_3
*95 FILLER_0_34
*96 FILLER_0_42
*97 FILLER_0_50
*98 FILLER_0_55
*99 FILLER_0_62
*100 FILLER_0_77
*101 FILLER_10_15
*102 FILLER_10_27
*103 FILLER_10_3
*104 FILLER_10_55
*105 FILLER_10_67
*106 FILLER_10_75
*107 FILLER_11_15
*108 FILLER_11_19
*109 FILLER_11_23
*110 FILLER_11_3
*111 FILLER_11_35
*112 FILLER_11_57
*113 FILLER_11_69
*114 FILLER_11_73
*115 FILLER_12_29
*116 FILLER_12_3
*117 FILLER_12_50
*118 FILLER_12_58
*119 FILLER_12_7
*120 FILLER_12_79
*121 FILLER_13_15
*122 FILLER_13_27
*123 FILLER_13_29
*124 FILLER_13_3
*125 FILLER_13_35
*126 FILLER_13_41
*127 FILLER_13_54
*128 FILLER_13_57
*129 FILLER_13_65
*130 FILLER_13_70
*131 FILLER_13_78
*132 FILLER_1_15
*133 FILLER_1_27
*134 FILLER_1_3
*135 FILLER_1_33
*136 FILLER_1_48
*137 FILLER_1_52
*138 FILLER_2_15
*139 FILLER_2_27
*140 FILLER_2_29
*141 FILLER_2_3
*142 FILLER_2_42
*143 FILLER_2_67
*144 FILLER_2_75
*145 FILLER_3_3
*146 FILLER_3_33
*147 FILLER_3_45
*148 FILLER_3_53
*149 FILLER_3_64
*150 FILLER_3_76
*151 FILLER_3_80
*152 FILLER_4_15
*153 FILLER_4_27
*154 FILLER_4_29
*155 FILLER_4_3
*156 FILLER_4_41
*157 FILLER_4_62
*158 FILLER_5_17
*159 FILLER_5_25
*160 FILLER_5_3
*161 FILLER_5_48
*162 FILLER_5_55
*163 FILLER_5_57
*164 FILLER_6_10
*165 FILLER_6_23
*166 FILLER_6_27
*167 FILLER_6_32
*168 FILLER_6_37
*169 FILLER_6_41
*170 FILLER_6_45
*171 FILLER_6_57
*172 FILLER_6_69
*173 FILLER_6_77
*174 FILLER_7_30
*175 FILLER_7_34
*176 FILLER_7_55
*177 FILLER_7_57
*178 FILLER_7_69
*179 FILLER_8_18
*180 FILLER_8_26
*181 FILLER_8_29
*182 FILLER_8_3
*183 FILLER_8_41
*184 FILLER_8_49
*185 FILLER_9_15
*186 FILLER_9_27
*187 FILLER_9_3
*188 FILLER_9_36
*189 FILLER_9_48
*190 FILLER_9_57
*191 FILLER_9_69
*192 PHY_EDGE_ROW_0_Left_14
*193 PHY_EDGE_ROW_0_Right_0
*194 PHY_EDGE_ROW_10_Left_24
*195 PHY_EDGE_ROW_10_Right_10
*196 PHY_EDGE_ROW_11_Left_25
*197 PHY_EDGE_ROW_11_Right_11
*198 PHY_EDGE_ROW_12_Left_26
*199 PHY_EDGE_ROW_12_Right_12
*200 PHY_EDGE_ROW_13_Left_27
*201 PHY_EDGE_ROW_13_Right_13
*202 PHY_EDGE_ROW_1_Left_15
*203 PHY_EDGE_ROW_1_Right_1
*204 PHY_EDGE_ROW_2_Left_16
*205 PHY_EDGE_ROW_2_Right_2
*206 PHY_EDGE_ROW_3_Left_17
*207 PHY_EDGE_ROW_3_Right_3
*208 PHY_EDGE_ROW_4_Left_18
*209 PHY_EDGE_ROW_4_Right_4
*210 PHY_EDGE_ROW_5_Left_19
*211 PHY_EDGE_ROW_5_Right_5
*212 PHY_EDGE_ROW_6_Left_20
*213 PHY_EDGE_ROW_6_Right_6
*214 PHY_EDGE_ROW_7_Left_21
*215 PHY_EDGE_ROW_7_Right_7
*216 PHY_EDGE_ROW_8_Left_22
*217 PHY_EDGE_ROW_8_Right_8
*218 PHY_EDGE_ROW_9_Left_23
*219 PHY_EDGE_ROW_9_Right_9
*220 TAP_TAPCELL_ROW_0_28
*221 TAP_TAPCELL_ROW_0_29
*222 TAP_TAPCELL_ROW_10_39
*223 TAP_TAPCELL_ROW_11_40
*224 TAP_TAPCELL_ROW_12_41
*225 TAP_TAPCELL_ROW_13_42
*226 TAP_TAPCELL_ROW_13_43
*227 TAP_TAPCELL_ROW_1_30
*228 TAP_TAPCELL_ROW_2_31
*229 TAP_TAPCELL_ROW_3_32
*230 TAP_TAPCELL_ROW_4_33
*231 TAP_TAPCELL_ROW_5_34
*232 TAP_TAPCELL_ROW_6_35
*233 TAP_TAPCELL_ROW_7_36
*234 TAP_TAPCELL_ROW_8_37
*235 TAP_TAPCELL_ROW_9_38
*236 _42_
*237 _43_
*238 _44_
*239 _45_
*240 _46_
*241 _47_
*242 _48_
*243 _49_
*244 _50_
*245 _51_
*246 _52_
*247 _53_
*248 _54_
*249 _55_
*250 _56_
*251 _57_
*252 _58_
*253 _59_
*254 _60_
*255 _61_
*256 _62_
*257 _63_
*258 _64_
*259 _65_
*260 _66_
*261 _67_
*262 _68_
*263 _69_
*264 _70_
*265 _71_
*266 _72_
*267 _73_
*268 _74_
*269 _75_
*270 _76_
*271 _77_
*272 _78_
*273 _79_
*274 _80_
*275 _81_
*276 _82_
*277 _83_
*278 _84_
*279 _85_
*280 _86_
*281 _87_
*282 _88_
*283 _89_
*284 _90_
*285 _91_
*286 _92_
*287 _93_
*288 _94_
*289 _95_
*290 _96_
*291 _97_
*292 _98_
*293 _99_
*294 clkbuf_0_clk
*295 clkbuf_1_0__f_clk
*296 clkbuf_1_1__f_clk
*297 input1
*298 input2
*299 input3
*300 input4
*301 input5
*302 input6
*303 input7
*304 input8
*305 input9
*306 output10
*307 output11
*308 output12
*309 output13
*310 output14
*311 output15
*312 output16
*313 output17

*PORTS
acc[0] O
acc[1] O
acc[2] O
acc[3] O
acc[4] O
acc[5] O
acc[6] O
acc[7] O
clk I
data_in[0] I
data_in[1] I
data_in[2] I
data_in[3] I
data_in[4] I
data_in[5] I
data_in[6] I
data_in[7] I
rst I

*D_NET *3 0.000595835
*CONN
*P acc[0] O
*I *306:X O *D sky130_fd_sc_hd__buf_2
*CAP
1 acc[0] 0.000183981
2 *306:X 0.000183981
3 acc[0] acc[1] 9.12895e-05
4 acc[0] *279:A 4.40358e-05
5 acc[0] *297:A 9.25475e-05
*RES
1 *306:X acc[0] 5.92503 
*END

*D_NET *4 0.000607949
*CONN
*P acc[1] O
*I *307:X O *D sky130_fd_sc_hd__buf_2
*CAP
1 acc[1] 0.000248612
2 *307:X 0.000248612
3 acc[1] *279:A 1.94351e-05
4 acc[0] acc[1] 9.12895e-05
*RES
1 *307:X acc[1] 5.16003 
*END

*D_NET *5 0.000898897
*CONN
*P acc[2] O
*I *308:X O *D sky130_fd_sc_hd__buf_2
*CAP
1 acc[2] 0.00042325
2 *308:X 0.00042325
3 acc[2] *299:A 0
4 acc[2] *308:A 5.2397e-05
*RES
1 *308:X acc[2] 10.53 
*END

*D_NET *6 0.000698037
*CONN
*P acc[3] O
*I *309:X O *D sky130_fd_sc_hd__buf_2
*CAP
1 acc[3] 0.000289525
2 *309:X 0.000289525
3 acc[3] *300:A 6.19406e-05
4 acc[3] *78:12 5.70454e-05
*RES
1 *309:X acc[3] 6.89023 
*END

*D_NET *7 0.000473164
*CONN
*P acc[4] O
*I *310:X O *D sky130_fd_sc_hd__buf_2
*CAP
1 acc[4] 0.000147152
2 *310:X 0.000147152
3 acc[4] acc[7] 9.25475e-05
4 acc[4] *297:A 0
5 acc[4] *301:A 7.70436e-05
6 acc[4] *90:10 9.26907e-06
*RES
1 *310:X acc[4] 4.90503 
*END

*D_NET *8 0.00100024
*CONN
*P acc[5] O
*I *311:X O *D sky130_fd_sc_hd__buf_2
*CAP
1 acc[5] 0.000459693
2 *311:X 0.000459693
3 acc[5] *302:A 0
4 acc[5] *311:A 8.08557e-05
*RES
1 *311:X acc[5] 11.715 
*END

*D_NET *9 0.00095011
*CONN
*P acc[6] O
*I *312:X O *D sky130_fd_sc_hd__buf_2
*CAP
1 acc[6] 0.000475055
2 *312:X 0.000475055
3 acc[6] *312:A 0
*RES
1 *312:X acc[6] 11.715 
*END

*D_NET *10 0.000604785
*CONN
*P acc[7] O
*I *313:X O *D sky130_fd_sc_hd__buf_2
*CAP
1 acc[7] 0.000185558
2 *313:X 0.000185558
3 acc[7] *304:A 8.53361e-05
4 acc[7] *305:A 0
5 acc[7] *82:10 4.05358e-05
6 acc[7] *90:8 1.52491e-05
7 acc[4] acc[7] 9.25475e-05
*RES
1 *313:X acc[7] 5.92503 
*END

*D_NET *11 0.00313942
*CONN
*P clk I
*I *294:A I *D sky130_fd_sc_hd__clkbuf_16
*CAP
1 clk 0.00147253
2 *294:A 0.00147253
3 *294:A *260:B 0.000135079
4 *294:A *289:CLK 0
5 *294:A *46:14 5.92849e-05
*RES
1 clk *294:A 14.613 
*END

*D_NET *12 0.0012939
*CONN
*P data_in[0] I
*I *297:A I *D sky130_fd_sc_hd__clkbuf_1
*CAP
1 data_in[0] 0.00042058
2 *297:A 0.00042058
3 *297:A *301:A 0.000127313
4 *297:A *75:12 3.19349e-05
5 *297:A *86:10 0.000118294
6 *297:A *90:12 8.26527e-05
7 acc[0] *297:A 9.25475e-05
8 acc[4] *297:A 0
*RES
1 data_in[0] *297:A 10.245 
*END

*D_NET *13 0.000786471
*CONN
*P data_in[1] I
*I *298:A I *D sky130_fd_sc_hd__clkbuf_1
*CAP
1 data_in[1] 0.000393236
2 *298:A 0.000393236
*RES
1 data_in[1] *298:A 10.35 
*END

*D_NET *14 0.000786797
*CONN
*P data_in[2] I
*I *299:A I *D sky130_fd_sc_hd__buf_1
*CAP
1 data_in[2] 0.000390936
2 *299:A 0.000390936
3 *299:A *84:10 4.9253e-06
4 acc[2] *299:A 0
*RES
1 data_in[2] *299:A 10.35 
*END

*D_NET *15 0.000745697
*CONN
*P data_in[3] I
*I *300:A I *D sky130_fd_sc_hd__clkbuf_1
*CAP
1 data_in[3] 0.000337085
2 *300:A 0.000337085
3 *300:A *78:22 0
4 *300:A *85:12 9.58678e-06
5 acc[3] *300:A 6.19406e-05
*RES
1 data_in[3] *300:A 5.58983 
*END

*D_NET *16 0.000503175
*CONN
*P data_in[4] I
*I *301:A I *D sky130_fd_sc_hd__clkbuf_1
*CAP
1 data_in[4] 0.000149409
2 *301:A 0.000149409
3 *301:A *90:10 0
4 *301:A *90:12 0
5 acc[4] *301:A 7.70436e-05
6 *297:A *301:A 0.000127313
*RES
1 data_in[4] *301:A 5.35677 
*END

*D_NET *17 0.000941905
*CONN
*P data_in[5] I
*I *302:A I *D sky130_fd_sc_hd__clkbuf_1
*CAP
1 data_in[5] 0.000470952
2 *302:A 0.000470952
3 *302:A *303:A 0
4 acc[5] *302:A 0
*RES
1 data_in[5] *302:A 11.55 
*END

*D_NET *18 0.00139449
*CONN
*P data_in[6] I
*I *303:A I *D sky130_fd_sc_hd__clkbuf_1
*CAP
1 data_in[6] 0.000660567
2 *303:A 0.000660567
3 *303:A *263:B 2.77283e-05
4 *303:A *52:12 1.1392e-05
5 *303:A *88:18 3.42367e-05
6 *302:A *303:A 0
*RES
1 data_in[6] *303:A 13.935 
*END

*D_NET *19 0.000535719
*CONN
*P data_in[7] I
*I *304:A I *D sky130_fd_sc_hd__clkbuf_1
*CAP
1 data_in[7] 0.000182523
2 *304:A 0.000182523
3 *304:A *305:A 8.53361e-05
4 *304:A *90:8 0
5 acc[7] *304:A 8.53361e-05
*RES
1 data_in[7] *304:A 5.86677 
*END

*D_NET *20 0.0005476
*CONN
*P rst I
*I *305:A I *D sky130_fd_sc_hd__clkbuf_4
*CAP
1 rst 0.000221714
2 *305:A 0.000221714
3 *305:A *90:8 1.88358e-05
4 acc[7] *305:A 0
5 *304:A *305:A 8.53361e-05
*RES
1 rst *305:A 5.67003 
*END

*D_NET *21 0.000192052
*CONN
*I *286:RESET_B I *D sky130_fd_sc_hd__dfrtp_1
*I *236:Y O *D sky130_fd_sc_hd__inv_2
*CAP
1 *286:RESET_B 4.74729e-05
2 *236:Y 4.74729e-05
3 *286:RESET_B *74:10 0
4 *286:RESET_B *90:12 9.71067e-05
*RES
1 *236:Y *286:RESET_B 6.725 
*END

*D_NET *22 0.000313596
*CONN
*I *287:RESET_B I *D sky130_fd_sc_hd__dfrtp_1
*I *279:Y O *D sky130_fd_sc_hd__inv_2
*CAP
1 *287:RESET_B 7.36252e-05
2 *279:Y 7.36252e-05
3 *287:RESET_B *279:A 0.000166346
*RES
1 *279:Y *287:RESET_B 7.49 
*END

*D_NET *23 0.000560806
*CONN
*I *288:RESET_B I *D sky130_fd_sc_hd__dfrtp_1
*I *280:Y O *D sky130_fd_sc_hd__inv_2
*CAP
1 *288:RESET_B 0.000199585
2 *280:Y 0.000199585
3 *288:RESET_B *288:CLK 4.82863e-05
4 *288:RESET_B *77:6 0.00011335
*RES
1 *280:Y *288:RESET_B 5.1025 
*END

*D_NET *24 0.000258647
*CONN
*I *289:RESET_B I *D sky130_fd_sc_hd__dfrtp_1
*I *281:Y O *D sky130_fd_sc_hd__inv_2
*CAP
1 *289:RESET_B 0.000129323
2 *281:Y 0.000129323
3 *289:RESET_B *289:CLK 0
*RES
1 *281:Y *289:RESET_B 7.4675 
*END

*D_NET *25 0.000340555
*CONN
*I *290:RESET_B I *D sky130_fd_sc_hd__dfrtp_1
*I *282:Y O *D sky130_fd_sc_hd__inv_2
*CAP
1 *290:RESET_B 3.99645e-05
2 *282:Y 3.99645e-05
3 *290:RESET_B *280:A 0.000166346
4 *290:RESET_B *286:CLK 9.428e-05
*RES
1 *282:Y *290:RESET_B 7.49 
*END

*D_NET *26 0.000304751
*CONN
*I *291:RESET_B I *D sky130_fd_sc_hd__dfrtp_1
*I *283:Y O *D sky130_fd_sc_hd__inv_2
*CAP
1 *291:RESET_B 9.50413e-05
2 *283:Y 9.50413e-05
3 *291:RESET_B *291:CLK 3.39064e-05
4 *291:RESET_B *80:8 8.07616e-05
*RES
1 *283:Y *291:RESET_B 7.4675 
*END

*D_NET *27 0.000244899
*CONN
*I *292:RESET_B I *D sky130_fd_sc_hd__dfrtp_1
*I *284:Y O *D sky130_fd_sc_hd__inv_2
*CAP
1 *292:RESET_B 0.00010743
2 *284:Y 0.00010743
3 *292:RESET_B *90:73 3.00381e-05
*RES
1 *284:Y *292:RESET_B 7.175 
*END

*D_NET *28 0.000316937
*CONN
*I *293:RESET_B I *D sky130_fd_sc_hd__dfrtp_1
*I *285:Y O *D sky130_fd_sc_hd__inv_2
*CAP
1 *293:RESET_B 0.000115171
2 *285:Y 0.000115171
3 *293:RESET_B *285:A 8.65961e-05
*RES
1 *285:Y *293:RESET_B 3.3775 
*END

*D_NET *29 0.00432344
*CONN
*I *264:A1 I *D sky130_fd_sc_hd__a31o_1
*I *266:C1 I *D sky130_fd_sc_hd__o211a_1
*I *259:A I *D sky130_fd_sc_hd__nand2_1
*I *239:A I *D sky130_fd_sc_hd__nand2_1
*I *237:Y O *D sky130_fd_sc_hd__nand2_1
*CAP
1 *264:A1 0.000158938
2 *266:C1 1.36534e-05
3 *259:A 0.000198322
4 *239:A 0.000158492
5 *237:Y 0.000222037
6 *29:36 0.000362439
7 *29:19 0.000678191
8 *29:6 0.000670551
9 *239:A *239:B 4.86163e-05
10 *239:A *31:6 1.87038e-05
11 *259:A *268:A2 0.000161467
12 *259:A *46:25 0.000139196
13 *259:A *46:34 1.31227e-05
14 *264:A1 *264:A2 0.000380114
15 *264:A1 *264:A3 1.91597e-05
16 *264:A1 *264:B1 3.13354e-05
17 *264:A1 *52:18 0.000325667
18 *266:C1 *267:A1 4.66108e-05
19 *266:C1 *267:A2 4.66108e-05
20 *29:6 *238:A 4.60584e-05
21 *29:6 *238:B 4.99619e-05
22 *29:6 *239:B 6.71882e-05
23 *29:19 *255:B 0.000332564
24 *29:36 *255:B 4.20983e-05
25 *29:36 *264:A2 8.28378e-05
26 *29:36 *52:18 9.50342e-06
*RES
1 *237:Y *29:6 4.465 
2 *29:6 *239:A 3.7 
3 *29:6 *29:19 8.735 
4 *29:19 *259:A 7.86 
5 *29:19 *29:36 2.7 
6 *29:36 *266:C1 4.05 
7 *29:36 *264:A1 8.685 
*END

*D_NET *30 0.000311709
*CONN
*I *239:B I *D sky130_fd_sc_hd__nand2_1
*I *238:X O *D sky130_fd_sc_hd__or2_1
*CAP
1 *239:B 9.79521e-05
2 *238:X 9.79521e-05
3 *239:A *239:B 4.86163e-05
4 *29:6 *239:B 6.71882e-05
*RES
1 *238:X *239:B 5.03 
*END

*D_NET *31 0.00096999
*CONN
*I *254:C1 I *D sky130_fd_sc_hd__a311o_1
*I *253:A I *D sky130_fd_sc_hd__nand2_1
*I *239:Y O *D sky130_fd_sc_hd__nand2_1
*CAP
1 *254:C1 9.54013e-05
2 *253:A 4.40503e-05
3 *239:Y 0.000157682
4 *31:6 0.000297133
5 *253:A *252:A1 3.19761e-05
6 *254:C1 *253:B 0.00015439
7 *254:C1 *254:B1 1.79536e-05
8 *254:C1 *34:19 4.63098e-05
9 *254:C1 *46:14 0
10 *31:6 *252:A1 0.00010639
11 *239:A *31:6 1.87038e-05
*RES
1 *239:Y *31:6 4.465 
2 *31:6 *253:A 2.41 
3 *31:6 *254:C1 7.745 
*END

*D_NET *32 0.002621
*CONN
*I *251:A_N I *D sky130_fd_sc_hd__nand2b_1
*I *252:B1 I *D sky130_fd_sc_hd__a31o_1
*I *254:B1 I *D sky130_fd_sc_hd__a311o_1
*I *240:Y O *D sky130_fd_sc_hd__nor2_1
*CAP
1 *251:A_N 5.7157e-05
2 *252:B1 0.00033395
3 *254:B1 2.16899e-05
4 *240:Y 0.000157838
5 *32:14 0.000876327
6 *32:8 0.000735682
7 *251:A_N *251:B 0.00011852
8 *251:A_N *78:22 0
9 *252:B1 *252:A1 3.92416e-05
10 *252:B1 *295:A 0
11 *254:B1 *252:A3 1.3153e-05
12 *254:B1 *34:8 4.55864e-06
13 *254:B1 *34:19 1.00941e-05
14 *32:8 *250:A 0.000162311
15 *32:8 *42:6 3.23663e-05
16 *32:14 *251:B 4.01535e-05
17 *254:C1 *254:B1 1.79536e-05
*RES
1 *240:Y *32:8 5.775 
2 *32:8 *32:14 1.95777 
3 *32:14 *254:B1 4.53875 
4 *32:14 *252:B1 5.03337 
5 *32:8 *251:A_N 4.98 
*END

*D_NET *33 0.000914232
*CONN
*I *273:A1 I *D sky130_fd_sc_hd__o211ai_1
*I *249:B1 I *D sky130_fd_sc_hd__a211o_1
*I *241:X O *D sky130_fd_sc_hd__and2_1
*CAP
1 *273:A1 5.05234e-05
2 *249:B1 0.000181944
3 *241:X 0
4 *33:4 0.000232468
5 *249:B1 *249:A1 8.37081e-05
6 *249:B1 *249:C1 7.12048e-05
7 *249:B1 *273:C1 0
8 *249:B1 *308:A 1.0183e-05
9 *273:A1 *243:A 4.82919e-05
10 *273:A1 *273:A2 2.3256e-05
11 *273:A1 *274:B 0.000161005
12 *273:A1 *77:25 5.16488e-05
*RES
1 *241:X *33:4 1.6 
2 *33:4 *249:B1 9.13625 
3 *33:4 *273:A1 3.445 
*END

*D_NET *34 0.00176215
*CONN
*I *252:A1 I *D sky130_fd_sc_hd__a31o_1
*I *275:A I *D sky130_fd_sc_hd__nand2_1
*I *254:A1 I *D sky130_fd_sc_hd__a311o_1
*I *242:Y O *D sky130_fd_sc_hd__nand2_1
*CAP
1 *252:A1 0.000286107
2 *275:A 3.00522e-05
3 *254:A1 0
4 *242:Y 0.000219462
5 *34:19 0.000399592
6 *34:8 0.000302895
7 *252:A1 *252:A2 9.50342e-06
8 *252:A1 *255:A 0.000118778
9 *252:A1 *255:B 0
10 *34:8 *288:CLK 0
11 *34:8 *41:35 7.33703e-05
12 *34:19 *275:B 8.38187e-05
13 *252:B1 *252:A1 3.92416e-05
14 *253:A *252:A1 3.19761e-05
15 *254:B1 *34:8 4.55864e-06
16 *254:B1 *34:19 1.00941e-05
17 *254:C1 *34:19 4.63098e-05
18 *31:6 *252:A1 0.00010639
*RES
1 *242:Y *34:8 7.275 
2 *34:8 *254:A1 3.6 
3 *34:8 *34:19 3.89 
4 *34:19 *275:A 2.05 
5 *34:19 *252:A1 10.715 
*END

*D_NET *35 0.000641383
*CONN
*I *273:A2 I *D sky130_fd_sc_hd__o211ai_1
*I *249:C1 I *D sky130_fd_sc_hd__a211o_1
*I *243:Y O *D sky130_fd_sc_hd__nor2_1
*CAP
1 *273:A2 0.000111029
2 *249:C1 0.000110336
3 *243:Y 0
4 *35:4 0.000221365
5 *249:C1 *249:A1 1.35324e-05
6 *273:A2 *273:B1 1.75875e-05
7 *273:A2 *274:B 1.16854e-05
8 *273:A2 *77:25 6.13873e-05
9 *249:B1 *249:C1 7.12048e-05
10 *273:A1 *273:A2 2.3256e-05
*RES
1 *243:Y *35:4 1.6 
2 *35:4 *249:C1 7.4525 
3 *35:4 *273:A2 3.355 
*END

*D_NET *36 0.00285748
*CONN
*I *245:A I *D sky130_fd_sc_hd__inv_2
*I *248:C_N I *D sky130_fd_sc_hd__or3b_1
*I *249:A1 I *D sky130_fd_sc_hd__a211o_1
*I *273:B1 I *D sky130_fd_sc_hd__o211ai_1
*I *244:Y O *D sky130_fd_sc_hd__nand2_1
*CAP
1 *245:A 2.42975e-05
2 *248:C_N 9.12357e-05
3 *249:A1 0.000157816
4 *273:B1 0.000134043
5 *244:Y 0
6 *36:34 0.000351507
7 *36:21 0.000466372
8 *36:4 0.000206625
9 *245:A *271:A1 2.05056e-05
10 *248:C_N *271:B1 0.000186099
11 *248:C_N *287:CLK 4.20983e-05
12 *248:C_N *39:14 0
13 *248:C_N *72:10 0
14 *249:A1 *249:A2 0.000419612
15 *249:A1 *295:A 0.000197628
16 *273:B1 *244:A 3.00381e-05
17 *273:B1 *244:B 3.26889e-05
18 *273:B1 *273:C1 8.65905e-05
19 *36:21 *272:A 0
20 *36:21 *273:C1 6.10941e-05
21 *36:21 *295:A 8.53113e-06
22 *36:34 *271:A1 0.000134938
23 *36:34 *287:CLK 4.43682e-05
24 *36:34 *72:10 4.65607e-05
25 *249:B1 *249:A1 8.37081e-05
26 *249:C1 *249:A1 1.35324e-05
27 *273:A2 *273:B1 1.75875e-05
*RES
1 *244:Y *36:4 1.6 
2 *36:4 *273:B1 4.15 
3 *36:4 *36:21 5.38 
4 *36:21 *249:A1 6.565 
5 *36:21 *36:34 4.59 
6 *36:34 *248:C_N 8 
7 *36:34 *245:A 2.05 
*END

*D_NET *37 0.000924323
*CONN
*I *271:A1 I *D sky130_fd_sc_hd__o21ai_1
*I *245:Y O *D sky130_fd_sc_hd__inv_2
*CAP
1 *271:A1 0.000269813
2 *245:Y 0.000269813
3 *271:A1 *248:B 0.00011379
4 *271:A1 *272:A 0.000115464
5 *245:A *271:A1 2.05056e-05
6 *36:34 *271:A1 0.000134938
*RES
1 *245:Y *271:A1 11.445 
*END

*D_NET *38 0.00104449
*CONN
*I *271:A2 I *D sky130_fd_sc_hd__o21ai_1
*I *248:B I *D sky130_fd_sc_hd__or3b_1
*I *246:Y O *D sky130_fd_sc_hd__nor2_1
*CAP
1 *271:A2 0
2 *248:B 0.000187507
3 *246:Y 5.38201e-05
4 *38:8 0.000241328
5 *248:B *272:A 9.49958e-05
6 *248:B *287:CLK 8.60609e-05
7 *38:8 *244:B 0.00015806
8 *38:8 *246:B 0.00010893
9 *271:A1 *248:B 0.00011379
*RES
1 *246:Y *38:8 3.445 
2 *38:8 *248:B 9.47 
3 *38:8 *271:A2 1.6 
*END

*D_NET *39 0.0021354
*CONN
*I *278:A I *D sky130_fd_sc_hd__and2_1
*I *271:B1 I *D sky130_fd_sc_hd__o21ai_1
*I *248:A I *D sky130_fd_sc_hd__or3b_1
*I *247:Y O *D sky130_fd_sc_hd__nand2_1
*CAP
1 *278:A 0
2 *271:B1 0.000256812
3 *248:A 0.000108409
4 *247:Y 0.000129676
5 *39:14 0.000619757
6 *39:6 0.000384213
7 *271:B1 *246:B 5.58436e-05
8 *271:B1 *287:CLK 4.62396e-05
9 *271:B1 *76:6 0.000160635
10 *39:6 *247:A 0.0001249
11 *39:6 *277:B 2.30292e-05
12 *39:6 *278:B 2.75229e-05
13 *39:14 *279:A 0
14 *39:14 *74:10 1.22676e-05
15 *248:C_N *271:B1 0.000186099
16 *248:C_N *39:14 0
*RES
1 *247:Y *39:6 4.12 
2 *39:6 *39:14 7.885 
3 *39:14 *248:A 3.085 
4 *39:14 *271:B1 11.375 
5 *39:6 *278:A 1.6 
*END

*D_NET *40 0.00321352
*CONN
*I *272:A I *D sky130_fd_sc_hd__and2_1
*I *249:A2 I *D sky130_fd_sc_hd__a211o_1
*I *273:C1 I *D sky130_fd_sc_hd__o211ai_1
*I *248:X O *D sky130_fd_sc_hd__or3b_1
*CAP
1 *272:A 0.000263287
2 *249:A2 0.000219073
3 *273:C1 0.000165811
4 *248:X 3.73071e-05
5 *40:12 0.000688329
6 *40:6 0.000604039
7 *249:A2 *41:27 4.94474e-05
8 *272:A *272:B 4.7043e-05
9 *272:A *287:D 0
10 *272:A *295:A 0
11 *272:A *72:10 7.06865e-05
12 *272:A *83:12 5.4256e-05
13 *273:C1 *295:A 4.9968e-05
14 *40:12 *280:A 9.2741e-05
15 *40:12 *295:A 9.37731e-05
16 *40:12 *41:27 0
17 *248:B *272:A 9.49958e-05
18 *249:A1 *249:A2 0.000419612
19 *249:B1 *273:C1 0
20 *271:A1 *272:A 0.000115464
21 *273:B1 *273:C1 8.65905e-05
22 *36:21 *272:A 0
23 *36:21 *273:C1 6.10941e-05
*RES
1 *248:X *40:6 2.05 
2 *40:6 *40:12 5.99 
3 *40:12 *273:C1 6.795 
4 *40:12 *249:A2 8.115 
5 *40:6 *272:A 11.51 
*END

*D_NET *41 0.00262033
*CONN
*I *252:A2 I *D sky130_fd_sc_hd__a31o_1
*I *254:A2 I *D sky130_fd_sc_hd__a311o_1
*I *275:B I *D sky130_fd_sc_hd__nand2_1
*I *274:A I *D sky130_fd_sc_hd__and2_1
*I *249:X O *D sky130_fd_sc_hd__a211o_1
*CAP
1 *252:A2 3.86256e-05
2 *254:A2 0
3 *275:B 0.000125107
4 *274:A 8.90773e-05
5 *249:X 0
6 *41:35 0.000404175
7 *41:27 0.000769506
8 *41:4 0.000540889
9 *252:A2 *295:A 0
10 *274:A *242:A 3.04982e-05
11 *274:A *274:B 5.18317e-06
12 *275:B *276:B 1.56428e-05
13 *275:B *46:14 0.000116853
14 *41:27 *242:A 0
15 *41:27 *290:D 0
16 *41:27 *295:A 0
17 *41:35 *252:A3 0.00025518
18 *41:35 *255:A 1.34503e-05
19 *249:A2 *41:27 4.94474e-05
20 *252:A1 *252:A2 9.50342e-06
21 *34:8 *41:35 7.33703e-05
22 *34:19 *275:B 8.38187e-05
23 *40:12 *41:27 0
*RES
1 *249:X *41:4 1.6 
2 *41:4 *274:A 6.92 
3 *41:4 *41:27 8.645 
4 *41:27 *41:35 7.735 
5 *41:35 *275:B 6.39 
6 *41:35 *254:A2 3.6 
7 *41:27 *252:A2 4.215 
*END

*D_NET *42 0.00177568
*CONN
*I *254:A3 I *D sky130_fd_sc_hd__a311o_1
*I *252:A3 I *D sky130_fd_sc_hd__a31o_1
*I *251:B I *D sky130_fd_sc_hd__nand2b_1
*I *250:Y O *D sky130_fd_sc_hd__nand2_1
*CAP
1 *254:A3 2.37695e-05
2 *252:A3 0.000147782
3 *251:B 0.000116191
4 *250:Y 7.5971e-05
5 *42:21 0.000415695
6 *42:6 0.000436305
7 *251:B *46:14 0
8 *252:A3 *255:A 4.94474e-05
9 *42:6 *250:A 3.00381e-05
10 *42:21 *46:14 2.11084e-05
11 *251:A_N *251:B 0.00011852
12 *254:B1 *252:A3 1.3153e-05
13 *32:8 *42:6 3.23663e-05
14 *32:14 *251:B 4.01535e-05
15 *41:35 *252:A3 0.00025518
*RES
1 *250:Y *42:6 3.085 
2 *42:6 *251:B 7.85375 
3 *42:6 *42:21 3.9 
4 *42:21 *252:A3 5.29 
5 *42:21 *254:A3 1.96 
*END

*D_NET *43 0.000571181
*CONN
*I *276:A I *D sky130_fd_sc_hd__xnor2_1
*I *251:Y O *D sky130_fd_sc_hd__nand2b_1
*CAP
1 *276:A 0.00021151
2 *251:Y 0.00021151
3 *276:A *276:B 0.000120186
4 *276:A *289:CLK 2.97004e-06
5 *276:A *46:14 2.50049e-05
*RES
1 *251:Y *276:A 10.92 
*END

*D_NET *44 0.000517536
*CONN
*I *253:B I *D sky130_fd_sc_hd__nand2_1
*I *252:X O *D sky130_fd_sc_hd__a31o_1
*CAP
1 *253:B 0.000125203
2 *252:X 0.000125203
3 *253:B *255:A 0.00011274
4 *254:C1 *253:B 0.00015439
*RES
1 *252:X *253:B 9.705 
*END

*D_NET *45 0.000808148
*CONN
*I *255:A I *D sky130_fd_sc_hd__and2_1
*I *253:Y O *D sky130_fd_sc_hd__nand2_1
*CAP
1 *255:A 0.000256866
2 *253:Y 0.000256866
3 *252:A1 *255:A 0.000118778
4 *252:A3 *255:A 4.94474e-05
5 *253:B *255:A 0.00011274
6 *41:35 *255:A 1.34503e-05
*RES
1 *253:Y *255:A 11.55 
*END

*D_NET *46 0.00551715
*CONN
*I *264:A2 I *D sky130_fd_sc_hd__a31o_1
*I *255:B I *D sky130_fd_sc_hd__and2_1
*I *268:A1 I *D sky130_fd_sc_hd__a21oi_1
*I *259:B I *D sky130_fd_sc_hd__nand2_1
*I *254:X O *D sky130_fd_sc_hd__a311o_1
*CAP
1 *264:A2 0.000212568
2 *255:B 0.000295038
3 *268:A1 0
4 *259:B 0
5 *254:X 0.000523115
6 *46:34 0.000601869
7 *46:25 0.000368303
8 *46:14 0.000797154
9 *255:B *290:D 3.45679e-05
10 *255:B *295:A 0.000409132
11 *255:B *296:A 0.000353455
12 *264:A2 *264:A3 4.82919e-05
13 *264:A2 *265:A 4.43871e-06
14 *264:A2 *292:CLK 0
15 *264:A2 *296:A 0.000305687
16 *264:A2 *52:18 1.07797e-05
17 *264:A2 *81:20 1.34503e-05
18 *46:14 *276:B 0.00011852
19 *46:14 *289:CLK 0
20 *46:25 *268:A2 0.000160314
21 *46:34 *268:B1 4.82863e-05
22 *251:B *46:14 0
23 *252:A1 *255:B 0
24 *254:C1 *46:14 0
25 *259:A *46:25 0.000139196
26 *259:A *46:34 1.31227e-05
27 *264:A1 *264:A2 0.000380114
28 *275:B *46:14 0.000116853
29 *276:A *46:14 2.50049e-05
30 *294:A *46:14 5.92849e-05
31 *29:19 *255:B 0.000332564
32 *29:36 *255:B 4.20983e-05
33 *29:36 *264:A2 8.28378e-05
34 *42:21 *46:14 2.11084e-05
*RES
1 *254:X *46:14 15.29 
2 *46:14 *259:B 1.6 
3 *46:14 *46:25 4.965 
4 *46:25 *268:A1 1.6 
5 *46:25 *46:34 3.14 
6 *46:34 *255:B 13.515 
7 *46:34 *264:A2 9.855 
*END

*D_NET *47 0.00268884
*CONN
*I *264:B1 I *D sky130_fd_sc_hd__a31o_1
*I *267:A1 I *D sky130_fd_sc_hd__a21o_1
*I *258:A_N I *D sky130_fd_sc_hd__nand2b_1
*I *256:Y O *D sky130_fd_sc_hd__nor2_1
*CAP
1 *264:B1 0.000140483
2 *267:A1 0.000228657
3 *258:A_N 0
4 *256:Y 0.000233505
5 *47:14 0.000412531
6 *47:10 0.000557862
7 *264:B1 *261:A 0.000102428
8 *264:B1 *264:A3 1.43396e-05
9 *264:B1 *88:18 2.14005e-05
10 *267:A1 *266:A1 0.000104236
11 *267:A1 *267:A2 5.03773e-05
12 *267:A1 *267:B1 3.57172e-05
13 *47:10 *264:A3 4.66108e-05
14 *47:10 *48:6 0.000196045
15 *47:10 *48:12 8.59365e-05
16 *47:10 *52:12 8.30853e-06
17 *47:10 *81:20 4.95833e-05
18 *47:10 *87:12 1.07797e-05
19 *47:14 *48:12 0.00031209
20 *264:A1 *264:B1 3.13354e-05
21 *266:C1 *267:A1 4.66108e-05
*RES
1 *256:Y *47:10 7.155 
2 *47:10 *47:14 5.675 
3 *47:14 *258:A_N 1.6 
4 *47:14 *267:A1 5.875 
5 *47:10 *264:B1 5.7 
*END

*D_NET *48 0.00253722
*CONN
*I *264:A3 I *D sky130_fd_sc_hd__a31o_1
*I *266:A1 I *D sky130_fd_sc_hd__o211a_1
*I *258:B I *D sky130_fd_sc_hd__nand2b_1
*I *257:Y O *D sky130_fd_sc_hd__nand2_1
*CAP
1 *264:A3 0.000132642
2 *266:A1 0.000120393
3 *258:B 4.56794e-06
4 *257:Y 7.55302e-05
5 *48:12 0.000315377
6 *48:6 0.000398588
7 *264:A3 *261:A 1.53053e-05
8 *264:A3 *261:B 2.42043e-05
9 *264:A3 *81:20 0.00015548
10 *264:A3 *88:18 4.77719e-05
11 *266:A1 *267:B1 3.13354e-05
12 *266:A1 *268:A2 4.75991e-05
13 *48:6 *256:B 1.52352e-05
14 *48:6 *257:A 0.000123955
15 *48:6 *261:A 9.80032e-06
16 *48:6 *261:B 5.83121e-06
17 *48:6 *87:12 8.52845e-05
18 *48:12 *291:D 0
19 *48:12 *311:A 0
20 *48:12 *51:14 7.23602e-05
21 *48:12 *87:12 2.92496e-05
22 *264:A1 *264:A3 1.91597e-05
23 *264:A2 *264:A3 4.82919e-05
24 *264:B1 *264:A3 1.43396e-05
25 *267:A1 *266:A1 0.000104236
26 *47:10 *264:A3 4.66108e-05
27 *47:10 *48:6 0.000196045
28 *47:10 *48:12 8.59365e-05
29 *47:14 *48:12 0.00031209
*RES
1 *257:Y *48:6 4.12 
2 *48:6 *48:12 8.695 
3 *48:12 *258:B 1.70875 
4 *48:12 *266:A1 4.15 
5 *48:6 *264:A3 4.93 
*END

*D_NET *49 0.000171933
*CONN
*I *260:A I *D sky130_fd_sc_hd__xnor2_1
*I *258:Y O *D sky130_fd_sc_hd__nand2b_1
*CAP
1 *260:A 8.59666e-05
2 *258:Y 8.59666e-05
*RES
1 *258:Y *260:A 4.34 
*END

*D_NET *50 0.000284346
*CONN
*I *260:B I *D sky130_fd_sc_hd__xnor2_1
*I *259:Y O *D sky130_fd_sc_hd__nand2_1
*CAP
1 *260:B 7.46333e-05
2 *259:Y 7.46333e-05
3 *294:A *260:B 0.000135079
*RES
1 *259:Y *260:B 8.835 
*END

*D_NET *51 0.00263602
*CONN
*I *263:A_N I *D sky130_fd_sc_hd__and2b_1
*I *266:A2 I *D sky130_fd_sc_hd__o211a_1
*I *267:B1 I *D sky130_fd_sc_hd__a21o_1
*I *261:Y O *D sky130_fd_sc_hd__nor2_1
*CAP
1 *263:A_N 0.000177499
2 *266:A2 0
3 *267:B1 0.000249792
4 *261:Y 0.000241182
5 *51:18 0.000391324
6 *51:14 0.000560212
7 *263:A_N *52:18 0.000255821
8 *263:A_N *88:18 6.72636e-05
9 *267:B1 *267:A2 0.000160819
10 *51:14 *291:D 0
11 *51:14 *296:A 0.00015385
12 *51:18 *52:18 0.000238848
13 *266:A1 *267:B1 3.13354e-05
14 *267:A1 *267:B1 3.57172e-05
15 *48:12 *51:14 7.23602e-05
*RES
1 *261:Y *51:14 10.99 
2 *51:14 *51:18 4.91 
3 *51:18 *267:B1 5.35 
4 *51:18 *266:A2 1.6 
5 *51:14 *263:A_N 7.02 
*END

*D_NET *52 0.00224955
*CONN
*I *263:B I *D sky130_fd_sc_hd__and2b_1
*I *266:B1 I *D sky130_fd_sc_hd__o211a_1
*I *267:A2 I *D sky130_fd_sc_hd__a21o_1
*I *262:Y O *D sky130_fd_sc_hd__nand2_1
*CAP
1 *263:B 1.8951e-05
2 *266:B1 0
3 *267:A2 4.59544e-05
4 *262:Y 0.000154452
5 *52:18 0.000247859
6 *52:12 0.000375308
7 *263:B *88:18 7.57202e-05
8 *52:12 *311:A 0
9 *52:12 *81:20 9.09788e-06
10 *52:12 *87:12 2.37321e-05
11 *52:12 *88:18 0.000152618
12 *52:18 *265:A 0
13 *263:A_N *52:18 0.000255821
14 *264:A1 *52:18 0.000325667
15 *264:A2 *52:18 1.07797e-05
16 *266:C1 *267:A2 4.66108e-05
17 *267:A1 *267:A2 5.03773e-05
18 *267:B1 *267:A2 0.000160819
19 *303:A *263:B 2.77283e-05
20 *303:A *52:12 1.1392e-05
21 *29:36 *52:18 9.50342e-06
22 *47:10 *52:12 8.30853e-06
23 *51:18 *52:18 0.000238848
*RES
1 *262:Y *52:12 8.555 
2 *52:12 *52:18 9.97 
3 *52:18 *267:A2 3.46 
4 *52:18 *266:B1 1.6 
5 *52:12 *263:B 2.395 
*END

*D_NET *53 0.000430738
*CONN
*I *265:A I *D sky130_fd_sc_hd__xnor2_1
*I *263:X O *D sky130_fd_sc_hd__and2b_1
*CAP
1 *265:A 0.00016176
2 *263:X 0.00016176
3 *265:A *265:B 8.65961e-05
4 *265:A *81:20 1.61831e-05
5 *264:A2 *265:A 4.43871e-06
6 *52:18 *265:A 0
*RES
1 *263:X *265:A 9.975 
*END

*D_NET *54 0.000224268
*CONN
*I *265:B I *D sky130_fd_sc_hd__xnor2_1
*I *264:X O *D sky130_fd_sc_hd__a31o_1
*CAP
1 *265:B 3.27185e-05
2 *264:X 3.27185e-05
3 *265:B *81:20 7.22354e-05
4 *265:A *265:B 8.65961e-05
*RES
1 *264:X *265:B 4.34 
*END

*D_NET *55 0.000684395
*CONN
*I *268:A2 I *D sky130_fd_sc_hd__a21oi_1
*I *266:X O *D sky130_fd_sc_hd__o211a_1
*CAP
1 *268:A2 0.000157508
2 *266:X 0.000157508
3 *259:A *268:A2 0.000161467
4 *266:A1 *268:A2 4.75991e-05
5 *46:25 *268:A2 0.000160314
*RES
1 *266:X *268:A2 10.515 
*END

*D_NET *56 0.000572798
*CONN
*I *268:B1 I *D sky130_fd_sc_hd__a21oi_1
*I *267:X O *D sky130_fd_sc_hd__a21o_1
*CAP
1 *268:B1 0.000226329
2 *267:X 0.000226329
3 *268:B1 *270:A 7.18547e-05
4 *268:B1 *293:CLK 0
5 *268:B1 *296:A 0
6 *46:34 *268:B1 4.82863e-05
*RES
1 *267:X *268:B1 10.845 
*END

*D_NET *57 0.000638451
*CONN
*I *270:A I *D sky130_fd_sc_hd__xnor2_1
*I *268:Y O *D sky130_fd_sc_hd__a21oi_1
*CAP
1 *270:A 0.000283298
2 *268:Y 0.000283298
3 *270:A *293:CLK 0
4 *270:A *296:A 0
5 *268:B1 *270:A 7.18547e-05
*RES
1 *268:Y *270:A 11.01 
*END

*D_NET *58 0.00107586
*CONN
*I *270:B I *D sky130_fd_sc_hd__xnor2_1
*I *269:Y O *D sky130_fd_sc_hd__xnor2_1
*CAP
1 *270:B 0.00050552
2 *269:Y 0.00050552
3 *270:B *293:CLK 0
4 *270:B *293:D 6.48187e-05
*RES
1 *269:Y *270:B 15.495 
*END

*D_NET *59 0.000209892
*CONN
*I *272:B I *D sky130_fd_sc_hd__and2_1
*I *271:Y O *D sky130_fd_sc_hd__o21ai_1
*CAP
1 *272:B 8.14244e-05
2 *271:Y 8.14244e-05
3 *272:B *287:D 0
4 *272:A *272:B 4.7043e-05
*RES
1 *271:Y *272:B 8.835 
*END

*D_NET *60 0.00129871
*CONN
*I *274:B I *D sky130_fd_sc_hd__and2_1
*I *273:Y O *D sky130_fd_sc_hd__o211ai_1
*CAP
1 *274:B 0.000345513
2 *273:Y 0.000345513
3 *274:B *242:A 0.000185405
4 *274:B *243:A 0.000128203
5 *274:B *84:10 3.09164e-05
6 *274:B *84:14 8.52883e-05
7 *273:A1 *274:B 0.000161005
8 *273:A2 *274:B 1.16854e-05
9 *274:A *274:B 5.18317e-06
*RES
1 *273:Y *274:B 13.845 
*END

*D_NET *61 0.000461563
*CONN
*I *276:B I *D sky130_fd_sc_hd__xnor2_1
*I *275:Y O *D sky130_fd_sc_hd__nand2_1
*CAP
1 *276:B 0.000103607
2 *275:Y 0.000103607
3 *275:B *276:B 1.56428e-05
4 *276:A *276:B 0.000120186
5 *46:14 *276:B 0.00011852
*RES
1 *275:Y *276:B 9.375 
*END

*D_NET *62 0.000227616
*CONN
*I *278:B I *D sky130_fd_sc_hd__and2_1
*I *277:X O *D sky130_fd_sc_hd__or2_1
*CAP
1 *278:B 0.000100047
2 *277:X 0.000100047
3 *39:6 *278:B 2.75229e-05
*RES
1 *277:X *278:B 4.7 
*END

*D_NET *63 0.000346716
*CONN
*I *290:D I *D sky130_fd_sc_hd__dfrtp_1
*I *255:X O *D sky130_fd_sc_hd__and2_1
*CAP
1 *290:D 0.000156074
2 *255:X 0.000156074
3 *255:B *290:D 3.45679e-05
4 *41:27 *290:D 0
*RES
1 *255:X *290:D 9.375 
*END

*D_NET *64 0.000838628
*CONN
*I *291:D I *D sky130_fd_sc_hd__dfrtp_1
*I *260:Y O *D sky130_fd_sc_hd__xnor2_1
*CAP
1 *291:D 0.000282607
2 *260:Y 0.000282607
3 *291:D *289:CLK 0
4 *291:D *291:CLK 7.35813e-05
5 *291:D *80:8 0.000199833
6 *48:12 *291:D 0
7 *51:14 *291:D 0
*RES
1 *260:Y *291:D 12.45 
*END

*D_NET *65 0.000397102
*CONN
*I *292:D I *D sky130_fd_sc_hd__dfrtp_1
*I *265:Y O *D sky130_fd_sc_hd__xnor2_1
*CAP
1 *292:D 0.000174997
2 *265:Y 0.000174997
3 *292:D *292:CLK 2.75229e-05
4 *292:D *81:20 1.95851e-05
*RES
1 *265:Y *292:D 5.39 
*END

*D_NET *66 0.000325026
*CONN
*I *293:D I *D sky130_fd_sc_hd__dfrtp_1
*I *270:Y O *D sky130_fd_sc_hd__xnor2_1
*CAP
1 *293:D 0.000130104
2 *270:Y 0.000130104
3 *270:B *293:D 6.48187e-05
*RES
1 *270:Y *293:D 5.045 
*END

*D_NET *67 0.000182663
*CONN
*I *286:D I *D sky130_fd_sc_hd__dfrtp_1
*I *278:X O *D sky130_fd_sc_hd__and2_1
*CAP
1 *286:D 9.13317e-05
2 *278:X 9.13317e-05
3 *286:D *74:10 0
4 *286:D *79:10 0
*RES
1 *278:X *286:D 8.58 
*END

*D_NET *68 0.00038618
*CONN
*I *287:D I *D sky130_fd_sc_hd__dfrtp_1
*I *272:X O *D sky130_fd_sc_hd__and2_1
*CAP
1 *287:D 0.00019309
2 *272:X 0.00019309
3 *272:A *287:D 0
4 *272:B *287:D 0
*RES
1 *272:X *287:D 9.72 
*END

*D_NET *69 0.00065304
*CONN
*I *288:D I *D sky130_fd_sc_hd__dfrtp_1
*I *274:X O *D sky130_fd_sc_hd__and2_1
*CAP
1 *288:D 0.00032652
2 *274:X 0.00032652
3 *288:D *242:A 0
*RES
1 *274:X *288:D 11.1 
*END

*D_NET *70 0.000265773
*CONN
*I *289:D I *D sky130_fd_sc_hd__dfrtp_1
*I *276:Y O *D sky130_fd_sc_hd__xnor2_1
*CAP
1 *289:D 0.000107905
2 *276:Y 0.000107905
3 *289:D *289:CLK 4.99619e-05
*RES
1 *276:Y *289:D 5.045 
*END

*D_NET *71 0.00444569
*CONN
*I *296:A I *D sky130_fd_sc_hd__clkbuf_16
*I *295:A I *D sky130_fd_sc_hd__clkbuf_16
*I *294:X O *D sky130_fd_sc_hd__clkbuf_16
*CAP
1 *296:A 0.000531646
2 *295:A 0.000581068
3 *294:X 0
4 *71:6 0.00111271
5 *295:A *280:A 0.000160185
6 *295:A *286:CLK 0
7 *295:A *310:A 0
8 *295:A *72:10 0
9 *295:A *79:10 0
10 *296:A *293:CLK 0
11 *296:A *90:81 0.000488056
12 *249:A1 *295:A 0.000197628
13 *252:A2 *295:A 0
14 *252:B1 *295:A 0
15 *255:B *295:A 0.000409132
16 *255:B *296:A 0.000353455
17 *264:A2 *296:A 0.000305687
18 *268:B1 *296:A 0
19 *270:A *296:A 0
20 *272:A *295:A 0
21 *273:C1 *295:A 4.9968e-05
22 *36:21 *295:A 8.53113e-06
23 *40:12 *295:A 9.37731e-05
24 *41:27 *295:A 0
25 *51:14 *296:A 0.00015385
*RES
1 *294:X *71:6 3.6 
2 *71:6 *295:A 16.5 
3 *71:6 *296:A 15.945 
*END

*D_NET *72 0.00425486
*CONN
*I *287:CLK I *D sky130_fd_sc_hd__dfrtp_1
*I *286:CLK I *D sky130_fd_sc_hd__dfrtp_1
*I *290:CLK I *D sky130_fd_sc_hd__dfrtp_1
*I *288:CLK I *D sky130_fd_sc_hd__dfrtp_1
*I *295:X O *D sky130_fd_sc_hd__clkbuf_16
*CAP
1 *287:CLK 0.000199828
2 *286:CLK 0.000291099
3 *290:CLK 0
4 *288:CLK 0.000509405
5 *295:X 0
6 *72:16 0.000976536
7 *72:10 0.00100172
8 *72:4 0.000443314
9 *286:CLK *280:A 3.35338e-05
10 *286:CLK *79:10 0.000159957
11 *286:CLK *90:29 8.46678e-05
12 *288:CLK *77:6 2.11084e-05
13 *72:10 *280:A 5.51158e-05
14 *248:B *287:CLK 8.60609e-05
15 *248:C_N *287:CLK 4.20983e-05
16 *248:C_N *72:10 0
17 *271:B1 *287:CLK 4.62396e-05
18 *272:A *72:10 7.06865e-05
19 *288:RESET_B *288:CLK 4.82863e-05
20 *290:RESET_B *286:CLK 9.428e-05
21 *295:A *286:CLK 0
22 *295:A *72:10 0
23 *34:8 *288:CLK 0
24 *36:34 *287:CLK 4.43682e-05
25 *36:34 *72:10 4.65607e-05
*RES
1 *295:X *72:4 1.6 
2 *72:4 *72:10 6.05 
3 *72:10 *72:16 7.205 
4 *72:16 *288:CLK 13.22 
5 *72:16 *290:CLK 1.6 
6 *72:10 *286:CLK 9.3 
7 *72:4 *287:CLK 9.395 
*END

*D_NET *73 0.00524088
*CONN
*I *292:CLK I *D sky130_fd_sc_hd__dfrtp_1
*I *293:CLK I *D sky130_fd_sc_hd__dfrtp_1
*I *291:CLK I *D sky130_fd_sc_hd__dfrtp_1
*I *289:CLK I *D sky130_fd_sc_hd__dfrtp_1
*I *296:X O *D sky130_fd_sc_hd__clkbuf_16
*CAP
1 *292:CLK 0.000168175
2 *293:CLK 0.000363829
3 *291:CLK 0.000201617
4 *289:CLK 0.000415515
5 *296:X 0
6 *73:34 0.00067124
7 *73:8 0.00112606
8 *73:4 0.000648162
9 *289:CLK *281:A 0.000292057
10 *291:CLK *281:A 2.4997e-05
11 *291:CLK *311:A 0
12 *292:CLK *81:20 1.83847e-05
13 *73:8 *90:81 0.000806489
14 *73:34 *90:81 0.000316415
15 *264:A2 *292:CLK 0
16 *268:B1 *293:CLK 0
17 *270:A *293:CLK 0
18 *270:B *293:CLK 0
19 *276:A *289:CLK 2.97004e-06
20 *289:D *289:CLK 4.99619e-05
21 *289:RESET_B *289:CLK 0
22 *291:D *289:CLK 0
23 *291:D *291:CLK 7.35813e-05
24 *291:RESET_B *291:CLK 3.39064e-05
25 *292:D *292:CLK 2.75229e-05
26 *294:A *289:CLK 0
27 *296:A *293:CLK 0
28 *46:14 *289:CLK 0
*RES
1 *296:X *73:4 1.6 
2 *73:4 *73:8 11.075 
3 *73:8 *289:CLK 12.15 
4 *73:8 *291:CLK 7.395 
5 *73:4 *73:34 4.865 
6 *73:34 *293:CLK 9.315 
7 *73:34 *292:CLK 6.45 
*END

*D_NET *74 0.000711463
*CONN
*I *247:A I *D sky130_fd_sc_hd__nand2_1
*I *277:A I *D sky130_fd_sc_hd__or2_1
*I *297:X O *D sky130_fd_sc_hd__clkbuf_1
*CAP
1 *247:A 3.60292e-05
2 *277:A 0
3 *297:X 0.000226138
4 *74:10 0.000262167
5 *247:A *277:B 4.99619e-05
6 *74:10 *279:A 0
7 *74:10 *90:12 0
8 *286:D *74:10 0
9 *286:RESET_B *74:10 0
10 *39:6 *247:A 0.0001249
11 *39:14 *74:10 1.22676e-05
*RES
1 *297:X *74:10 9.275 
2 *74:10 *277:A 1.6 
3 *74:10 *247:A 2.74 
*END

*D_NET *75 0.000836148
*CONN
*I *306:A I *D sky130_fd_sc_hd__buf_2
*I *247:B I *D sky130_fd_sc_hd__nand2_1
*I *277:B I *D sky130_fd_sc_hd__or2_1
*I *286:Q O *D sky130_fd_sc_hd__dfrtp_1
*CAP
1 *306:A 0
2 *247:B 0
3 *277:B 8.59062e-05
4 *286:Q 0.000173406
5 *75:14 0.000117973
6 *75:12 0.000205473
7 *75:12 *279:A 0.000139933
8 *75:12 *90:12 8.53113e-06
9 *247:A *277:B 4.99619e-05
10 *297:A *75:12 3.19349e-05
11 *39:6 *277:B 2.30292e-05
*RES
1 *286:Q *75:12 8.375 
2 *75:12 *75:14 0.45 
3 *75:14 *277:B 3.1 
4 *75:14 *247:B 1.6 
5 *75:12 *306:A 1.6 
*END

*D_NET *76 0.00332215
*CONN
*I *307:A I *D sky130_fd_sc_hd__buf_2
*I *246:B I *D sky130_fd_sc_hd__nor2_1
*I *244:B I *D sky130_fd_sc_hd__nand2_1
*I *287:Q O *D sky130_fd_sc_hd__dfrtp_1
*CAP
1 *307:A 0.000366141
2 *246:B 0.000109072
3 *244:B 0.000244522
4 *287:Q 0
5 *76:6 0.00100488
6 *76:4 0.00101742
7 *244:B *244:A 4.53897e-05
8 *246:B *244:A 1.85674e-05
9 *271:B1 *246:B 5.58436e-05
10 *271:B1 *76:6 0.000160635
11 *273:B1 *244:B 3.26889e-05
12 *38:8 *244:B 0.00015806
13 *38:8 *246:B 0.00010893
*RES
1 *287:Q *76:4 1.6 
2 *76:4 *76:6 7.35 
3 *76:6 *244:B 5.08 
4 *76:6 *246:B 4.315 
5 *76:4 *307:A 6.985 
*END

*D_NET *77 0.00360686
*CONN
*I *242:B I *D sky130_fd_sc_hd__nand2_1
*I *243:B I *D sky130_fd_sc_hd__nor2_1
*I *308:A I *D sky130_fd_sc_hd__buf_2
*I *241:B I *D sky130_fd_sc_hd__and2_1
*I *288:Q O *D sky130_fd_sc_hd__dfrtp_1
*CAP
1 *242:B 4.0368e-05
2 *243:B 0
3 *308:A 0.000225916
4 *241:B 0
5 *288:Q 0.000676927
6 *77:25 0.000337505
7 *77:14 0.000371122
8 *77:6 0.000976828
9 *242:B *280:A 4.22232e-05
10 *308:A *84:10 0
11 *77:6 *280:A 1.4389e-05
12 *77:14 *242:A 0.000294414
13 *77:14 *243:A 8.64421e-05
14 *77:14 *84:14 0.000121023
15 *77:25 *243:A 0.000109633
16 acc[2] *308:A 5.2397e-05
17 *249:B1 *308:A 1.0183e-05
18 *273:A1 *77:25 5.16488e-05
19 *273:A2 *77:25 6.13873e-05
20 *288:CLK *77:6 2.11084e-05
21 *288:RESET_B *77:6 0.00011335
*RES
1 *288:Q *77:6 9.64 
2 *77:6 *77:14 9.595 
3 *77:14 *241:B 1.6 
4 *77:14 *77:25 2.55 
5 *77:25 *308:A 9.14 
6 *77:25 *243:B 1.6 
7 *77:6 *242:B 2.47 
*END

*D_NET *78 0.00112038
*CONN
*I *309:A I *D sky130_fd_sc_hd__buf_2
*I *250:B I *D sky130_fd_sc_hd__nand2_1
*I *240:B I *D sky130_fd_sc_hd__nor2_1
*I *289:Q O *D sky130_fd_sc_hd__dfrtp_1
*CAP
1 *309:A 0
2 *250:B 1.91843e-05
3 *240:B 0
4 *289:Q 0.000158684
5 *78:22 0.00034884
6 *78:12 0.000488339
7 *250:B *250:A 4.82919e-05
8 *78:22 *85:12 0
9 acc[3] *78:12 5.70454e-05
10 *251:A_N *78:22 0
11 *300:A *78:22 0
*RES
1 *289:Q *78:12 8.375 
2 *78:12 *78:22 8.515 
3 *78:22 *240:B 1.6 
4 *78:22 *250:B 2.05 
5 *78:12 *309:A 1.6 
*END

*D_NET *79 0.00245712
*CONN
*I *310:A I *D sky130_fd_sc_hd__buf_2
*I *237:B I *D sky130_fd_sc_hd__nand2_1
*I *238:B I *D sky130_fd_sc_hd__or2_1
*I *290:Q O *D sky130_fd_sc_hd__dfrtp_1
*CAP
1 *310:A 0.000643826
2 *237:B 0
3 *238:B 6.46046e-05
4 *290:Q 0.000365712
5 *79:12 6.46046e-05
6 *79:10 0.00100954
7 *238:B *238:A 4.99619e-05
8 *238:B *86:10 4.89503e-05
9 *286:CLK *79:10 0.000159957
10 *286:D *79:10 0
11 *295:A *310:A 0
12 *295:A *79:10 0
13 *29:6 *238:B 4.99619e-05
*RES
1 *290:Q *79:10 8.85 
2 *79:10 *79:12 2 
3 *79:12 *238:B 3.1 
4 *79:12 *237:B 1.6 
5 *79:10 *310:A 13.35 
*END

*D_NET *80 0.0024449
*CONN
*I *256:B I *D sky130_fd_sc_hd__nor2_1
*I *257:B I *D sky130_fd_sc_hd__nand2_1
*I *311:A I *D sky130_fd_sc_hd__buf_2
*I *291:Q O *D sky130_fd_sc_hd__dfrtp_1
*CAP
1 *256:B 6.97747e-05
2 *257:B 0
3 *311:A 0.000216808
4 *291:Q 0.000704358
5 *80:10 0.000231532
6 *80:8 0.000788857
7 *256:B *256:A 5.12969e-06
8 *256:B *257:A 3.7837e-05
9 *256:B *261:A 8.50369e-06
10 *311:A *87:12 0
11 *80:10 *257:A 5.4155e-06
12 acc[5] *311:A 8.08557e-05
13 *291:CLK *311:A 0
14 *291:D *80:8 0.000199833
15 *291:RESET_B *80:8 8.07616e-05
16 *48:6 *256:B 1.52352e-05
17 *48:12 *311:A 0
18 *52:12 *311:A 0
*RES
1 *291:Q *80:8 10 
2 *80:8 *80:10 0.36 
3 *80:10 *311:A 9.14 
4 *80:10 *257:B 1.6 
5 *80:8 *256:B 3.1 
*END

*D_NET *81 0.00313658
*CONN
*I *312:A I *D sky130_fd_sc_hd__buf_2
*I *262:B I *D sky130_fd_sc_hd__nand2_1
*I *261:B I *D sky130_fd_sc_hd__nor2_1
*I *292:Q O *D sky130_fd_sc_hd__dfrtp_1
*CAP
1 *312:A 0.000104026
2 *262:B 0
3 *261:B 1.58383e-05
4 *292:Q 0.000293355
5 *81:20 0.000909367
6 *81:6 0.00129091
7 *261:B *261:A 4.66108e-05
8 *81:20 *261:A 3.68999e-05
9 *81:20 *88:18 5.55412e-05
10 acc[6] *312:A 0
11 *264:A2 *81:20 1.34503e-05
12 *264:A3 *261:B 2.42043e-05
13 *264:A3 *81:20 0.00015548
14 *265:A *81:20 1.61831e-05
15 *265:B *81:20 7.22354e-05
16 *292:CLK *81:20 1.83847e-05
17 *292:D *81:20 1.95851e-05
18 *47:10 *81:20 4.95833e-05
19 *48:6 *261:B 5.83121e-06
20 *52:12 *81:20 9.09788e-06
*RES
1 *292:Q *81:6 4.81 
2 *81:6 *81:20 15.295 
3 *81:20 *261:B 2.05 
4 *81:20 *262:B 1.6 
5 *81:6 *312:A 7.235 
*END

*D_NET *82 0.0004558
*CONN
*I *313:A I *D sky130_fd_sc_hd__buf_2
*I *269:B I *D sky130_fd_sc_hd__xnor2_1
*I *293:Q O *D sky130_fd_sc_hd__dfrtp_1
*CAP
1 *313:A 0
2 *269:B 8.34442e-05
3 *293:Q 5.33884e-05
4 *82:10 0.000136833
5 *82:10 *90:8 0.000141599
6 acc[7] *82:10 4.05358e-05
*RES
1 *293:Q *82:10 7.235 
2 *82:10 *269:B 2.755 
3 *82:10 *313:A 1.6 
*END

*D_NET *83 0.000617744
*CONN
*I *246:A I *D sky130_fd_sc_hd__nor2_1
*I *244:A I *D sky130_fd_sc_hd__nand2_1
*I *298:X O *D sky130_fd_sc_hd__clkbuf_1
*CAP
1 *246:A 0
2 *244:A 0.000100766
3 *298:X 0.00013398
4 *83:12 0.000234746
5 *244:B *244:A 4.53897e-05
6 *246:B *244:A 1.85674e-05
7 *272:A *83:12 5.4256e-05
8 *273:B1 *244:A 3.00381e-05
*RES
1 *298:X *83:12 7.685 
2 *83:12 *244:A 3.805 
3 *83:12 *246:A 1.6 
*END

*D_NET *84 0.00204508
*CONN
*I *242:A I *D sky130_fd_sc_hd__nand2_1
*I *243:A I *D sky130_fd_sc_hd__nor2_1
*I *241:A I *D sky130_fd_sc_hd__and2_1
*I *299:X O *D sky130_fd_sc_hd__buf_1
*CAP
1 *242:A 0.000217602
2 *243:A 5.19993e-05
3 *241:A 0
4 *299:X 0.000155719
5 *84:14 8.66985e-05
6 *84:10 0.00040802
7 *273:A1 *243:A 4.82919e-05
8 *274:A *242:A 3.04982e-05
9 *274:B *242:A 0.000185405
10 *274:B *243:A 0.000128203
11 *274:B *84:10 3.09164e-05
12 *274:B *84:14 8.52883e-05
13 *288:D *242:A 0
14 *299:A *84:10 4.9253e-06
15 *308:A *84:10 0
16 *41:27 *242:A 0
17 *77:14 *242:A 0.000294414
18 *77:14 *243:A 8.64421e-05
19 *77:14 *84:14 0.000121023
20 *77:25 *243:A 0.000109633
*RES
1 *299:X *84:10 5.775 
2 *84:10 *84:14 3.14 
3 *84:14 *241:A 1.6 
4 *84:14 *243:A 3.895 
5 *84:10 *242:A 8.49 
*END

*D_NET *85 0.000709712
*CONN
*I *250:A I *D sky130_fd_sc_hd__nand2_1
*I *240:A I *D sky130_fd_sc_hd__nor2_1
*I *300:X O *D sky130_fd_sc_hd__clkbuf_1
*CAP
1 *250:A 9.17929e-05
2 *240:A 0
3 *300:X 0.000137949
4 *85:12 0.000229742
5 *250:B *250:A 4.82919e-05
6 *300:A *85:12 9.58678e-06
7 *32:8 *250:A 0.000162311
8 *42:6 *250:A 3.00381e-05
9 *78:22 *85:12 0
*RES
1 *300:X *85:12 7.775 
2 *85:12 *240:A 1.6 
3 *85:12 *250:A 4.15 
*END

*D_NET *86 0.00145355
*CONN
*I *237:A I *D sky130_fd_sc_hd__nand2_1
*I *238:A I *D sky130_fd_sc_hd__or2_1
*I *301:X O *D sky130_fd_sc_hd__clkbuf_1
*CAP
1 *237:A 0
2 *238:A 4.28139e-05
3 *301:X 0.000552327
4 *86:10 0.000595141
5 *238:B *238:A 4.99619e-05
6 *238:B *86:10 4.89503e-05
7 *297:A *86:10 0.000118294
8 *29:6 *238:A 4.60584e-05
*RES
1 *301:X *86:10 10.705 
2 *86:10 *238:A 2.74 
3 *86:10 *237:A 1.6 
*END

*D_NET *87 0.00065585
*CONN
*I *256:A I *D sky130_fd_sc_hd__nor2_1
*I *257:A I *D sky130_fd_sc_hd__nand2_1
*I *302:X O *D sky130_fd_sc_hd__clkbuf_1
*CAP
1 *256:A 1.16014e-05
2 *257:A 4.70641e-05
3 *302:X 8.93135e-05
4 *87:12 0.000147979
5 *256:A *261:A 9.13949e-06
6 *87:12 *261:A 2.937e-05
7 *256:B *256:A 5.12969e-06
8 *256:B *257:A 3.7837e-05
9 *311:A *87:12 0
10 *47:10 *87:12 1.07797e-05
11 *48:6 *257:A 0.000123955
12 *48:6 *87:12 8.52845e-05
13 *48:12 *87:12 2.92496e-05
14 *52:12 *87:12 2.37321e-05
15 *80:10 *257:A 5.4155e-06
*RES
1 *302:X *87:12 7.775 
2 *87:12 *257:A 3.1 
3 *87:12 *256:A 1.96 
*END

*D_NET *88 0.00152093
*CONN
*I *262:A I *D sky130_fd_sc_hd__nand2_1
*I *261:A I *D sky130_fd_sc_hd__nor2_1
*I *303:X O *D sky130_fd_sc_hd__clkbuf_1
*CAP
1 *262:A 0
2 *261:A 9.98119e-05
3 *303:X 0.00030435
4 *88:18 0.000404162
5 *256:A *261:A 9.13949e-06
6 *256:B *261:A 8.50369e-06
7 *261:B *261:A 4.66108e-05
8 *263:A_N *88:18 6.72636e-05
9 *263:B *88:18 7.57202e-05
10 *264:A3 *261:A 1.53053e-05
11 *264:A3 *88:18 4.77719e-05
12 *264:B1 *261:A 0.000102428
13 *264:B1 *88:18 2.14005e-05
14 *303:A *88:18 3.42367e-05
15 *48:6 *261:A 9.80032e-06
16 *52:12 *88:18 0.000152618
17 *81:20 *261:A 3.68999e-05
18 *81:20 *88:18 5.55412e-05
19 *87:12 *261:A 2.937e-05
*RES
1 *303:X *88:18 11.015 
2 *88:18 *261:A 4.15 
3 *88:18 *262:A 1.6 
*END

*D_NET *89 0.000482329
*CONN
*I *269:A I *D sky130_fd_sc_hd__xnor2_1
*I *304:X O *D sky130_fd_sc_hd__clkbuf_1
*CAP
1 *269:A 0.000208402
2 *304:X 0.000208402
3 *269:A *90:8 6.5525e-05
*RES
1 *304:X *269:A 10.065 
*END

*D_NET *90 0.0116456
*CONN
*I *284:A I *D sky130_fd_sc_hd__inv_2
*I *283:A I *D sky130_fd_sc_hd__inv_2
*I *281:A I *D sky130_fd_sc_hd__inv_2
*I *285:A I *D sky130_fd_sc_hd__inv_2
*I *236:A I *D sky130_fd_sc_hd__inv_2
*I *282:A I *D sky130_fd_sc_hd__inv_2
*I *280:A I *D sky130_fd_sc_hd__inv_2
*I *279:A I *D sky130_fd_sc_hd__inv_2
*I *305:X O *D sky130_fd_sc_hd__clkbuf_4
*CAP
1 *284:A 0
2 *283:A 0
3 *281:A 0.000418417
4 *285:A 3.4408e-05
5 *236:A 0
6 *282:A 0
7 *280:A 0.000702054
8 *279:A 0.000519204
9 *305:X 0
10 *90:81 0.00120384
11 *90:73 0.000942102
12 *90:29 0.00148944
13 *90:12 0.00140455
14 *90:10 0.000369205
15 *90:8 0.000604498
16 *90:4 0.000455526
17 acc[0] *279:A 4.40358e-05
18 acc[1] *279:A 1.94351e-05
19 acc[4] *90:10 9.26907e-06
20 acc[7] *90:8 1.52491e-05
21 *242:B *280:A 4.22232e-05
22 *269:A *90:8 6.5525e-05
23 *286:CLK *280:A 3.35338e-05
24 *286:CLK *90:29 8.46678e-05
25 *286:RESET_B *90:12 9.71067e-05
26 *287:RESET_B *279:A 0.000166346
27 *289:CLK *281:A 0.000292057
28 *290:RESET_B *280:A 0.000166346
29 *291:CLK *281:A 2.4997e-05
30 *292:RESET_B *90:73 3.00381e-05
31 *293:RESET_B *285:A 8.65961e-05
32 *295:A *280:A 0.000160185
33 *296:A *90:81 0.000488056
34 *297:A *90:12 8.26527e-05
35 *301:A *90:10 0
36 *301:A *90:12 0
37 *304:A *90:8 0
38 *305:A *90:8 1.88358e-05
39 *39:14 *279:A 0
40 *40:12 *280:A 9.2741e-05
41 *72:10 *280:A 5.51158e-05
42 *73:8 *90:81 0.000806489
43 *73:34 *90:81 0.000316415
44 *74:10 *279:A 0
45 *74:10 *90:12 0
46 *75:12 *279:A 0.000139933
47 *75:12 *90:12 8.53113e-06
48 *77:6 *280:A 1.4389e-05
49 *82:10 *90:8 0.000141599
*RES
1 *305:X *90:4 1.6 
2 *90:4 *90:8 7.97 
3 *90:8 *90:10 4.185 
4 *90:10 *90:12 2.655 
5 *90:12 *279:A 13.395 
6 *90:12 *90:29 11.36 
7 *90:29 *280:A 19.16 
8 *90:29 *282:A 1.6 
9 *90:10 *236:A 3.6 
10 *90:8 *285:A 4.395 
11 *90:4 *90:73 2.79 
12 *90:73 *90:81 17.46 
13 *90:81 *281:A 14.045 
14 *90:81 *283:A 1.6 
15 *90:73 *284:A 1.6 
*END
