*SPEF "ieee 1481-1999"
*DESIGN "acc32"
*DATE "16:17:31 Saturday September 19, 2026"
*VENDOR "The OpenROAD Project"
*PROGRAM "OpenROAD"
*VERSION "edf00dff99f6c40d67a30c0e22a8191c5d2ed9d6"
*DESIGN_FLOW "NAME_SCOPE LOCAL" "PIN_CAP NONE"
*DIVIDER /
*DELIMITER :
*BUS_DELIMITER []
*T_UNIT 1 NS
*C_UNIT 1 PF
*R_UNIT 1 OHM
*L_UNIT 1 HENRY

*NAME_MAP
*3 acc[0]
*4 acc[10]
*5 acc[11]
*6 acc[12]
*7 acc[13]
*8 acc[14]
*9 acc[15]
*10 acc[16]
*11 acc[17]
*12 acc[18]
*13 acc[19]
*14 acc[1]
*15 acc[20]
*16 acc[21]
*17 acc[22]
*18 acc[23]
*19 acc[24]
*20 acc[25]
*21 acc[26]
*22 acc[27]
*23 acc[28]
*24 acc[29]
*25 acc[2]
*26 acc[30]
*27 acc[31]
*28 acc[3]
*29 acc[4]
*30 acc[5]
*31 acc[6]
*32 acc[7]
*33 acc[8]
*34 acc[9]
*35 clk
*36 data_in[0]
*37 data_in[10]
*38 data_in[11]
*39 data_in[12]
*40 data_in[13]
*41 data_in[14]
*42 data_in[15]
*43 data_in[16]
*44 data_in[17]
*45 data_in[18]
*46 data_in[19]
*47 data_in[1]
*48 data_in[20]
*49 data_in[21]
*50 data_in[22]
*51 data_in[23]
*52 data_in[24]
*53 data_in[25]
*54 data_in[26]
*55 data_in[27]
*56 data_in[28]
*57 data_in[29]
*58 data_in[2]
*59 data_in[30]
*60 data_in[31]
*61 data_in[3]
*62 data_in[4]
*63 data_in[5]
*64 data_in[6]
*65 data_in[7]
*66 data_in[8]
*67 data_in[9]
*68 rst
*69 _000_
*70 _001_
*71 _002_
*72 _003_
*73 _004_
*74 _005_
*75 _006_
*76 _007_
*77 _008_
*78 _009_
*79 _010_
*80 _011_
*81 _012_
*82 _013_
*83 _014_
*84 _015_
*85 _016_
*86 _017_
*87 _018_
*88 _019_
*89 _020_
*90 _021_
*91 _022_
*92 _023_
*93 _024_
*94 _025_
*95 _026_
*96 _027_
*97 _028_
*98 _029_
*99 _030_
*100 _031_
*101 _032_
*102 _033_
*103 _034_
*104 _035_
*105 _036_
*106 _037_
*107 _038_
*108 _039_
*109 _040_
*110 _041_
*111 _042_
*112 _043_
*113 _044_
*114 _045_
*115 _046_
*116 _047_
*117 _048_
*118 _049_
*119 _050_
*120 _051_
*121 _052_
*122 _053_
*123 _054_
*124 _055_
*125 _056_
*126 _057_
*127 _058_
*128 _059_
*129 _060_
*130 _061_
*131 _062_
*132 _063_
*133 _064_
*134 _065_
*135 _066_
*136 _067_
*137 _068_
*138 _069_
*139 _070_
*140 _071_
*141 _072_
*142 _073_
*143 _074_
*144 _075_
*145 _076_
*146 _077_
*147 _078_
*148 _079_
*149 _080_
*150 _081_
*151 _082_
*152 _083_
*153 _084_
*154 _085_
*155 _086_
*156 _087_
*157 _088_
*158 _089_
*159 _090_
*160 _091_
*161 _092_
*162 _093_
*163 _094_
*164 _095_
*165 _096_
*166 _097_
*167 _098_
*168 _099_
*169 _100_
*170 _101_
*171 _102_
*172 _103_
*173 _104_
*174 _105_
*175 _106_
*176 _107_
*177 _108_
*178 _109_
*179 _110_
*180 _111_
*181 _112_
*182 _113_
*183 _114_
*184 _115_
*185 _116_
*186 _117_
*187 _118_
*188 _119_
*189 _120_
*190 _121_
*191 _122_
*192 _123_
*193 _124_
*194 _125_
*195 _126_
*196 _127_
*197 _128_
*198 _129_
*199 _130_
*200 _131_
*201 _132_
*202 _133_
*203 _134_
*204 _135_
*205 _136_
*206 _137_
*207 _138_
*208 _139_
*209 _140_
*210 _141_
*211 _142_
*212 _143_
*213 _144_
*214 _145_
*215 _146_
*216 _147_
*217 _148_
*218 _149_
*219 _150_
*220 _151_
*221 _152_
*222 _153_
*223 _154_
*224 _155_
*225 _156_
*226 _157_
*227 _158_
*228 _159_
*229 _160_
*230 _161_
*231 _162_
*232 _163_
*233 _164_
*234 _165_
*235 _166_
*236 _167_
*237 _168_
*238 _169_
*239 _170_
*240 _171_
*241 _172_
*242 _173_
*243 _174_
*244 _175_
*245 _176_
*246 _177_
*247 _178_
*248 _179_
*249 _180_
*250 _181_
*251 _182_
*252 _183_
*253 _184_
*254 _185_
*255 _186_
*256 _187_
*257 _188_
*258 _189_
*259 _190_
*260 _191_
*261 _192_
*262 _193_
*263 _194_
*264 _195_
*265 _196_
*266 _197_
*267 _198_
*268 _199_
*269 adder\.cla_blocks\[0\]\.block\.p\[0\]
*270 adder\.cla_blocks\[0\]\.block\.sum\[1\]
*271 adder\.cla_blocks\[0\]\.block\.sum\[2\]
*272 adder\.cla_blocks\[0\]\.block\.sum\[3\]
*273 adder\.cla_blocks\[1\]\.block\.sum\[0\]
*274 adder\.cla_blocks\[1\]\.block\.sum\[1\]
*275 adder\.cla_blocks\[1\]\.block\.sum\[2\]
*276 adder\.cla_blocks\[1\]\.block\.sum\[3\]
*277 adder\.cla_blocks\[2\]\.block\.sum\[0\]
*278 adder\.cla_blocks\[2\]\.block\.sum\[1\]
*279 adder\.cla_blocks\[2\]\.block\.sum\[2\]
*280 adder\.cla_blocks\[2\]\.block\.sum\[3\]
*281 adder\.cla_blocks\[3\]\.block\.sum\[0\]
*282 adder\.cla_blocks\[3\]\.block\.sum\[1\]
*283 adder\.cla_blocks\[3\]\.block\.sum\[2\]
*284 adder\.cla_blocks\[3\]\.block\.sum\[3\]
*285 adder\.cla_blocks\[4\]\.block\.sum\[0\]
*286 adder\.cla_blocks\[4\]\.block\.sum\[1\]
*287 adder\.cla_blocks\[4\]\.block\.sum\[2\]
*288 adder\.cla_blocks\[4\]\.block\.sum\[3\]
*289 adder\.cla_blocks\[5\]\.block\.sum\[0\]
*290 adder\.cla_blocks\[5\]\.block\.sum\[1\]
*291 adder\.cla_blocks\[5\]\.block\.sum\[2\]
*292 adder\.cla_blocks\[5\]\.block\.sum\[3\]
*293 adder\.cla_blocks\[6\]\.block\.sum\[0\]
*294 adder\.cla_blocks\[6\]\.block\.sum\[1\]
*295 adder\.cla_blocks\[6\]\.block\.sum\[2\]
*296 adder\.cla_blocks\[6\]\.block\.sum\[3\]
*297 adder\.cla_blocks\[7\]\.block\.sum\[0\]
*298 adder\.cla_blocks\[7\]\.block\.sum\[1\]
*299 adder\.cla_blocks\[7\]\.block\.sum\[2\]
*300 adder\.cla_blocks\[7\]\.block\.sum\[3\]
*301 clknet_0_clk
*302 clknet_2_0__leaf_clk
*303 clknet_2_1__leaf_clk
*304 clknet_2_2__leaf_clk
*305 clknet_2_3__leaf_clk
*306 net1
*307 net10
*308 net11
*309 net12
*310 net13
*311 net14
*312 net15
*313 net16
*314 net17
*315 net18
*316 net19
*317 net2
*318 net20
*319 net21
*320 net22
*321 net23
*322 net24
*323 net25
*324 net26
*325 net27
*326 net28
*327 net29
*328 net3
*329 net30
*330 net31
*331 net32
*332 net33
*333 net34
*334 net35
*335 net36
*336 net37
*337 net38
*338 net39
*339 net4
*340 net40
*341 net41
*342 net42
*343 net43
*344 net44
*345 net45
*346 net46
*347 net47
*348 net48
*349 net49
*350 net5
*351 net50
*352 net51
*353 net52
*354 net53
*355 net54
*356 net55
*357 net56
*358 net57
*359 net58
*360 net59
*361 net6
*362 net60
*363 net61
*364 net62
*365 net63
*366 net64
*367 net65
*368 net66
*369 net67
*370 net68
*371 net69
*372 net7
*373 net8
*374 net9
*375 FILLER_0_111
*376 FILLER_0_117
*377 FILLER_0_122
*378 FILLER_0_29
*379 FILLER_0_57
*380 FILLER_0_83
*381 FILLER_0_85
*382 FILLER_0_98
*383 FILLER_10_101
*384 FILLER_10_123
*385 FILLER_10_19
*386 FILLER_10_27
*387 FILLER_10_3
*388 FILLER_10_32
*389 FILLER_10_36
*390 FILLER_10_48
*391 FILLER_10_56
*392 FILLER_10_77
*393 FILLER_10_83
*394 FILLER_10_9
*395 FILLER_10_92
*396 FILLER_11_111
*397 FILLER_11_113
*398 FILLER_11_120
*399 FILLER_11_48
*400 FILLER_11_57
*401 FILLER_11_69
*402 FILLER_11_81
*403 FILLER_11_91
*404 FILLER_12_110
*405 FILLER_12_18
*406 FILLER_12_24
*407 FILLER_12_49
*408 FILLER_12_6
*409 FILLER_12_61
*410 FILLER_12_73
*411 FILLER_13_116
*412 FILLER_13_13
*413 FILLER_13_25
*414 FILLER_13_38
*415 FILLER_13_49
*416 FILLER_13_57
*417 FILLER_13_6
*418 FILLER_13_68
*419 FILLER_13_80
*420 FILLER_13_86
*421 FILLER_14_112
*422 FILLER_14_18
*423 FILLER_14_23
*424 FILLER_14_29
*425 FILLER_14_74
*426 FILLER_14_82
*427 FILLER_15_13
*428 FILLER_15_29
*429 FILLER_15_42
*430 FILLER_15_54
*431 FILLER_15_62
*432 FILLER_15_72
*433 FILLER_16_103
*434 FILLER_16_23
*435 FILLER_16_60
*436 FILLER_16_67
*437 FILLER_16_83
*438 FILLER_16_85
*439 FILLER_17_119
*440 FILLER_17_34
*441 FILLER_17_72
*442 FILLER_18_18
*443 FILLER_18_3
*444 FILLER_18_41
*445 FILLER_18_67
*446 FILLER_18_92
*447 FILLER_19_111
*448 FILLER_19_28
*449 FILLER_19_57
*450 FILLER_19_97
*451 FILLER_1_122
*452 FILLER_1_55
*453 FILLER_1_57
*454 FILLER_1_67
*455 FILLER_20_22
*456 FILLER_20_26
*457 FILLER_20_32
*458 FILLER_20_52
*459 FILLER_20_82
*460 FILLER_2_13
*461 FILLER_2_52
*462 FILLER_2_89
*463 FILLER_3_117
*464 FILLER_3_123
*465 FILLER_3_24
*466 FILLER_3_38
*467 FILLER_3_51
*468 FILLER_3_55
*469 FILLER_3_88
*470 FILLER_4_3
*471 FILLER_4_80
*472 FILLER_4_85
*473 FILLER_4_97
*474 FILLER_5_111
*475 FILLER_5_122
*476 FILLER_5_23
*477 FILLER_5_55
*478 FILLER_5_69
*479 FILLER_6_11
*480 FILLER_6_18
*481 FILLER_6_62
*482 FILLER_6_85
*483 FILLER_7_104
*484 FILLER_7_122
*485 FILLER_7_27
*486 FILLER_7_54
*487 FILLER_7_57
*488 FILLER_7_80
*489 FILLER_8_10
*490 FILLER_8_122
*491 FILLER_8_17
*492 FILLER_8_29
*493 FILLER_8_45
*494 FILLER_8_57
*495 FILLER_8_69
*496 FILLER_8_73
*497 FILLER_8_82
*498 FILLER_8_92
*499 FILLER_9_22
*500 FILLER_9_60
*501 FILLER_9_68
*502 PHY_EDGE_ROW_0_Left_21
*503 PHY_EDGE_ROW_0_Right_0
*504 PHY_EDGE_ROW_10_Left_31
*505 PHY_EDGE_ROW_10_Right_10
*506 PHY_EDGE_ROW_11_Left_32
*507 PHY_EDGE_ROW_11_Right_11
*508 PHY_EDGE_ROW_12_Left_33
*509 PHY_EDGE_ROW_12_Right_12
*510 PHY_EDGE_ROW_13_Left_34
*511 PHY_EDGE_ROW_13_Right_13
*512 PHY_EDGE_ROW_14_Left_35
*513 PHY_EDGE_ROW_14_Right_14
*514 PHY_EDGE_ROW_15_Left_36
*515 PHY_EDGE_ROW_15_Right_15
*516 PHY_EDGE_ROW_16_Left_37
*517 PHY_EDGE_ROW_16_Right_16
*518 PHY_EDGE_ROW_17_Left_38
*519 PHY_EDGE_ROW_17_Right_17
*520 PHY_EDGE_ROW_18_Left_39
*521 PHY_EDGE_ROW_18_Right_18
*522 PHY_EDGE_ROW_19_Left_40
*523 PHY_EDGE_ROW_19_Right_19
*524 PHY_EDGE_ROW_1_Left_22
*525 PHY_EDGE_ROW_1_Right_1
*526 PHY_EDGE_ROW_20_Left_41
*527 PHY_EDGE_ROW_20_Right_20
*528 PHY_EDGE_ROW_2_Left_23
*529 PHY_EDGE_ROW_2_Right_2
*530 PHY_EDGE_ROW_3_Left_24
*531 PHY_EDGE_ROW_3_Right_3
*532 PHY_EDGE_ROW_4_Left_25
*533 PHY_EDGE_ROW_4_Right_4
*534 PHY_EDGE_ROW_5_Left_26
*535 PHY_EDGE_ROW_5_Right_5
*536 PHY_EDGE_ROW_6_Left_27
*537 PHY_EDGE_ROW_6_Right_6
*538 PHY_EDGE_ROW_7_Left_28
*539 PHY_EDGE_ROW_7_Right_7
*540 PHY_EDGE_ROW_8_Left_29
*541 PHY_EDGE_ROW_8_Right_8
*542 PHY_EDGE_ROW_9_Left_30
*543 PHY_EDGE_ROW_9_Right_9
*544 TAP_TAPCELL_ROW_0_42
*545 TAP_TAPCELL_ROW_0_43
*546 TAP_TAPCELL_ROW_0_44
*547 TAP_TAPCELL_ROW_0_45
*548 TAP_TAPCELL_ROW_10_64
*549 TAP_TAPCELL_ROW_10_65
*550 TAP_TAPCELL_ROW_11_66
*551 TAP_TAPCELL_ROW_11_67
*552 TAP_TAPCELL_ROW_12_68
*553 TAP_TAPCELL_ROW_12_69
*554 TAP_TAPCELL_ROW_13_70
*555 TAP_TAPCELL_ROW_13_71
*556 TAP_TAPCELL_ROW_14_72
*557 TAP_TAPCELL_ROW_14_73
*558 TAP_TAPCELL_ROW_15_74
*559 TAP_TAPCELL_ROW_15_75
*560 TAP_TAPCELL_ROW_16_76
*561 TAP_TAPCELL_ROW_16_77
*562 TAP_TAPCELL_ROW_17_78
*563 TAP_TAPCELL_ROW_17_79
*564 TAP_TAPCELL_ROW_18_80
*565 TAP_TAPCELL_ROW_18_81
*566 TAP_TAPCELL_ROW_19_82
*567 TAP_TAPCELL_ROW_19_83
*568 TAP_TAPCELL_ROW_1_46
*569 TAP_TAPCELL_ROW_1_47
*570 TAP_TAPCELL_ROW_20_84
*571 TAP_TAPCELL_ROW_20_85
*572 TAP_TAPCELL_ROW_20_86
*573 TAP_TAPCELL_ROW_20_87
*574 TAP_TAPCELL_ROW_2_48
*575 TAP_TAPCELL_ROW_2_49
*576 TAP_TAPCELL_ROW_3_50
*577 TAP_TAPCELL_ROW_3_51
*578 TAP_TAPCELL_ROW_4_52
*579 TAP_TAPCELL_ROW_4_53
*580 TAP_TAPCELL_ROW_5_54
*581 TAP_TAPCELL_ROW_5_55
*582 TAP_TAPCELL_ROW_6_56
*583 TAP_TAPCELL_ROW_6_57
*584 TAP_TAPCELL_ROW_7_58
*585 TAP_TAPCELL_ROW_7_59
*586 TAP_TAPCELL_ROW_8_60
*587 TAP_TAPCELL_ROW_8_61
*588 TAP_TAPCELL_ROW_9_62
*589 TAP_TAPCELL_ROW_9_63
*590 _200_
*591 _201_
*592 _202_
*593 _203_
*594 _204_
*595 _205_
*596 _206_
*597 _207_
*598 _208_
*599 _209_
*600 _210_
*601 _211_
*602 _212_
*603 _213_
*604 _214_
*605 _215_
*606 _216_
*607 _217_
*608 _218_
*609 _219_
*610 _220_
*611 _221_
*612 _222_
*613 _223_
*614 _224_
*615 _225_
*616 _226_
*617 _227_
*618 _228_
*619 _229_
*620 _230_
*621 _231_
*622 _232_
*623 _233_
*624 _234_
*625 _235_
*626 _236_
*627 _237_
*628 _238_
*629 _239_
*630 _240_
*631 _241_
*632 _242_
*633 _243_
*634 _244_
*635 _245_
*636 _246_
*637 _247_
*638 _248_
*639 _249_
*640 _250_
*641 _251_
*642 _252_
*643 _253_
*644 _254_
*645 _255_
*646 _256_
*647 _257_
*648 _258_
*649 _259_
*650 _260_
*651 _261_
*652 _262_
*653 _263_
*654 _264_
*655 _265_
*656 _266_
*657 _267_
*658 _268_
*659 _269_
*660 _270_
*661 _271_
*662 _272_
*663 _273_
*664 _274_
*665 _275_
*666 _276_
*667 _277_
*668 _278_
*669 _279_
*670 _280_
*671 _281_
*672 _282_
*673 _283_
*674 _284_
*675 _285_
*676 _286_
*677 _287_
*678 _288_
*679 _289_
*680 _290_
*681 _291_
*682 _292_
*683 _293_
*684 _294_
*685 _295_
*686 _296_
*687 _297_
*688 _298_
*689 _299_
*690 _300_
*691 _301_
*692 _302_
*693 _303_
*694 _304_
*695 _305_
*696 _306_
*697 _307_
*698 _308_
*699 _309_
*700 _310_
*701 _311_
*702 _312_
*703 _313_
*704 _314_
*705 _315_
*706 _316_
*707 _317_
*708 _318_
*709 _319_
*710 _320_
*711 _321_
*712 _322_
*713 _323_
*714 _324_
*715 _325_
*716 _326_
*717 _327_
*718 _328_
*719 _329_
*720 _330_
*721 _331_
*722 _332_
*723 _333_
*724 _334_
*725 _335_
*726 _336_
*727 _337_
*728 _338_
*729 _339_
*730 _340_
*731 _341_
*732 _342_
*733 _343_
*734 _344_
*735 _345_
*736 _346_
*737 _347_
*738 _348_
*739 _349_
*740 _350_
*741 _351_
*742 _352_
*743 _353_
*744 _354_
*745 _355_
*746 _356_
*747 _357_
*748 _358_
*749 _359_
*750 _360_
*751 _361_
*752 _362_
*753 _363_
*754 _364_
*755 _365_
*756 _366_
*757 _367_
*758 _368_
*759 _369_
*760 _370_
*761 _371_
*762 _372_
*763 _373_
*764 _374_
*765 _375_
*766 _376_
*767 _377_
*768 _378_
*769 _379_
*770 _380_
*771 _381_
*772 _382_
*773 _383_
*774 _384_
*775 _385_
*776 _386_
*777 _387_
*778 _388_
*779 _389_
*780 _390_
*781 _391_
*782 _392_
*783 _393_
*784 _394_
*785 _395_
*786 _396_
*787 _397_
*788 _398_
*789 _399_
*790 _400_
*791 _401_
*792 _402_
*793 _403_
*794 _404_
*795 _405_
*796 _406_
*797 _407_
*798 _408_
*799 _409_
*800 _410_
*801 _411_
*802 _412_
*803 _413_
*804 _414_
*805 _415_
*806 _416_
*807 _417_
*808 _418_
*809 _419_
*810 _420_
*811 _421_
*812 _422_
*813 _423_
*814 _424_
*815 _425_
*816 _426_
*817 _427_
*818 _428_
*819 _429_
*820 _430_
*821 _431_
*822 _432_
*823 _433_
*824 _434_
*825 _435_
*826 _436_
*827 _437_
*828 _438_
*829 _439_
*830 _440_
*831 _441_
*832 _442_
*833 _443_
*834 _444_
*835 _445_
*836 _446_
*837 _447_
*838 _448_
*839 _449_
*840 _450_
*841 _451_
*842 _452_
*843 _453_
*844 _454_
*845 _455_
*846 _456_
*847 _457_
*848 _458_
*849 _459_
*850 _460_
*851 _461_
*852 _462_
*853 _463_
*854 clkbuf_0_clk
*855 clkbuf_2_0__f_clk
*856 clkbuf_2_1__f_clk
*857 clkbuf_2_2__f_clk
*858 clkbuf_2_3__f_clk
*859 clkload0
*860 clkload1
*861 clkload2
*862 fanout66
*863 fanout67
*864 fanout68
*865 fanout69
*866 input1
*867 input10
*868 input11
*869 input12
*870 input13
*871 input14
*872 input15
*873 input16
*874 input17
*875 input18
*876 input19
*877 input2
*878 input20
*879 input21
*880 input22
*881 input23
*882 input24
*883 input25
*884 input26
*885 input27
*886 input28
*887 input29
*888 input3
*889 input30
*890 input31
*891 input32
*892 input33
*893 input4
*894 input5
*895 input6
*896 input7
*897 input8
*898 input9
*899 output34
*900 output35
*901 output36
*902 output37
*903 output38
*904 output39
*905 output40
*906 output41
*907 output42
*908 output43
*909 output44
*910 output45
*911 output46
*912 output47
*913 output48
*914 output49
*915 output50
*916 output51
*917 output52
*918 output53
*919 output54
*920 output55
*921 output56
*922 output57
*923 output58
*924 output59
*925 output60
*926 output61
*927 output62
*928 output63
*929 output64
*930 output65

*PORTS
acc[0] O
acc[10] O
acc[11] O
acc[12] O
acc[13] O
acc[14] O
acc[15] O
acc[16] O
acc[17] O
acc[18] O
acc[19] O
acc[1] O
acc[20] O
acc[21] O
acc[22] O
acc[23] O
acc[24] O
acc[25] O
acc[26] O
acc[27] O
acc[28] O
acc[29] O
acc[2] O
acc[30] O
acc[31] O
acc[3] O
acc[4] O
acc[5] O
acc[6] O
acc[7] O
acc[8] O
acc[9] O
clk I
data_in[0] I
data_in[10] I
data_in[11] I
data_in[12] I
data_in[13] I
data_in[14] I
data_in[15] I
data_in[16] I
data_in[17] I
data_in[18] I
data_in[19] I
data_in[1] I
data_in[20] I
data_in[21] I
data_in[22] I
data_in[23] I
data_in[24] I
data_in[25] I
data_in[26] I
data_in[27] I
data_in[28] I
data_in[29] I
data_in[2] I
data_in[30] I
data_in[31] I
data_in[3] I
data_in[4] I
data_in[5] I
data_in[6] I
data_in[7] I
data_in[8] I
data_in[9] I
rst I

*D_NET *3 0.00161404
*CONN
*P acc[0] O
*I *899:X O *D sky130_fd_sc_hd__buf_2
*CAP
1 acc[0] 0.000202829
2 *899:X 0.000459544
3 *3:8 0.000662373
4 acc[0] *57:17 4.1708e-05
5 acc[0] *60:17 0
6 *3:8 *23:10 7.46212e-05
7 *3:8 *57:17 0
8 *3:8 *60:17 0.000147563
9 *3:8 *370:116 2.54046e-05
*RES
1 *899:X *3:8 49.5896 
2 *3:8 acc[0] 8.75787 
*END

*D_NET *4 0.00205616
*CONN
*P acc[10] O
*I *900:X O *D sky130_fd_sc_hd__buf_2
*CAP
1 acc[10] 9.69049e-05
2 *900:X 0.00053856
3 *4:12 0.000635465
4 acc[10] *37:21 0
5 acc[10] *42:13 0
6 *4:12 *37:21 0
7 *4:12 *41:21 0.000385728
8 *4:12 *67:11 0.000399505
*RES
1 *900:X *4:12 49.0096 
2 *4:12 acc[10] 2.18536 
*END

*D_NET *5 0.00338331
*CONN
*P acc[11] O
*I *901:X O *D sky130_fd_sc_hd__buf_2
*CAP
1 acc[11] 0.000557656
2 *901:X 0.000371063
3 *5:10 0.000928719
4 acc[11] acc[8] 0
5 acc[11] *662:A 0.000139352
6 acc[11] *929:A 9.84794e-05
7 acc[11] *33:8 6.06173e-05
8 acc[11] *64:19 0
9 acc[11] *152:16 0.000653107
10 acc[11] *162:12 5.1358e-05
11 *5:10 *806:B 8.03338e-05
12 *5:10 *64:19 0
13 *5:10 *150:22 2.64616e-05
14 *5:10 *152:16 2.25419e-05
15 *5:10 *162:12 0.000265466
16 *5:10 *263:29 2.63437e-05
17 *5:10 *276:8 1.14452e-05
18 *5:10 *364:35 9.03659e-05
*RES
1 *901:X *5:10 46.0164 
2 *5:10 acc[11] 45.6393 
*END

*D_NET *6 0.000784596
*CONN
*P acc[12] O
*I *902:X O *D sky130_fd_sc_hd__buf_2
*CAP
1 acc[12] 0.000333209
2 *902:X 0.000333209
3 acc[12] acc[13] 5.99691e-05
4 acc[12] acc[17] 5.82094e-05
5 acc[12] *40:11 0
6 acc[12] *44:11 0
*RES
1 *902:X acc[12] 47.5083 
*END

*D_NET *7 0.00130283
*CONN
*P acc[13] O
*I *903:X O *D sky130_fd_sc_hd__buf_2
*CAP
1 acc[13] 0.000107832
2 *903:X 0.000225625
3 *7:10 0.000333456
4 acc[13] *40:11 5.99691e-05
5 *7:10 *903:A 3.22879e-05
6 *7:10 *8:10 0.000141052
7 *7:10 *35:9 0.000342638
8 acc[12] acc[13] 5.99691e-05
*RES
1 *903:X *7:10 44.1211 
2 *7:10 acc[13] 8.58613 
*END

*D_NET *8 0.0012412
*CONN
*P acc[14] O
*I *904:X O *D sky130_fd_sc_hd__buf_2
*CAP
1 acc[14] 5.25196e-05
2 *904:X 0.000444952
3 *8:10 0.000497472
4 acc[14] *39:19 3.49463e-05
5 acc[14] *40:11 3.49463e-05
6 *8:10 *903:A 3.53115e-05
7 *8:10 *35:9 0
8 *7:10 *8:10 0.000141052
*RES
1 *904:X *8:10 45.3432 
2 *8:10 acc[14] 8.32853 
*END

*D_NET *9 0.00134228
*CONN
*P acc[15] O
*I *905:X O *D sky130_fd_sc_hd__buf_2
*CAP
1 acc[15] 0.000359226
2 *905:X 0.000359226
3 acc[15] *41:11 0
4 acc[15] *42:13 0.000524713
5 acc[15] *178:12 9.91101e-05
*RES
1 *905:X acc[15] 47.0936 
*END

*D_NET *10 0.000647909
*CONN
*P acc[16] O
*I *906:X O *D sky130_fd_sc_hd__buf_2
*CAP
1 acc[16] 0.000249568
2 *906:X 0.000249568
3 acc[16] *43:19 2.79122e-05
4 acc[16] *44:11 0
5 acc[16] *46:17 2.12457e-05
6 acc[16] *307:8 4.9808e-05
7 acc[16] *343:14 4.9808e-05
*RES
1 *906:X acc[16] 47.5169 
*END

*D_NET *11 0.000910415
*CONN
*P acc[17] O
*I *907:X O *D sky130_fd_sc_hd__buf_2
*CAP
1 acc[17] 0.000323707
2 *907:X 0.000323707
3 acc[17] *907:A 1.94812e-05
4 acc[17] *35:9 0.000125342
5 acc[17] *44:11 5.99691e-05
6 acc[12] acc[17] 5.82094e-05
*RES
1 *907:X acc[17] 49.8901 
*END

*D_NET *12 0.00184145
*CONN
*P acc[18] O
*I *908:X O *D sky130_fd_sc_hd__buf_2
*CAP
1 acc[18] 0.000168292
2 *908:X 0.000501088
3 *12:10 0.00066938
4 acc[18] acc[19] 5.75829e-05
5 *12:10 *13:12 0.000171025
6 *12:10 *17:10 0.000274078
*RES
1 *908:X *12:10 47.4561 
2 *12:10 acc[18] 8.672 
*END

*D_NET *13 0.00175982
*CONN
*P acc[19] O
*I *909:X O *D sky130_fd_sc_hd__buf_2
*CAP
1 acc[19] 0.000120791
2 *909:X 0.000378501
3 *13:12 0.000499293
4 acc[19] acc[21] 0
5 acc[19] acc[22] 3.49463e-05
6 *13:12 *721:A 0
7 *13:12 *721:B 0.000114846
8 *13:12 *17:10 0.000327827
9 *13:12 *344:47 5.50106e-05
10 acc[18] acc[19] 5.75829e-05
11 *12:10 *13:12 0.000171025
*RES
1 *909:X *13:12 47.5182 
2 *13:12 acc[19] 8.58613 
*END

*D_NET *14 0.000643508
*CONN
*P acc[1] O
*I *910:X O *D sky130_fd_sc_hd__buf_2
*CAP
1 acc[1] 0.000166776
2 *910:X 0.000166776
3 acc[1] acc[31] 7.53639e-05
4 acc[1] *36:11 7.53639e-05
5 acc[1] *56:11 7.8295e-05
6 acc[1] *227:10 8.0934e-05
*RES
1 *910:X acc[1] 47.7832 
*END

*D_NET *15 0.000740089
*CONN
*P acc[20] O
*I *911:X O *D sky130_fd_sc_hd__buf_2
*CAP
1 acc[20] 0.000314756
2 *911:X 0.000314756
3 acc[20] acc[21] 0
4 acc[20] *48:15 7.56312e-05
5 acc[20] *49:17 3.49463e-05
6 acc[20] *90:8 0
*RES
1 *911:X acc[20] 48.7952 
*END

*D_NET *16 0.00103398
*CONN
*P acc[21] O
*I *912:X O *D sky130_fd_sc_hd__buf_2
*CAP
1 acc[21] 0.000208485
2 *912:X 0.000190146
3 *16:8 0.000398631
4 acc[21] acc[22] 3.49463e-05
5 acc[21] *49:17 3.25681e-05
6 *16:8 *912:A 0.000169201
7 *16:8 *17:10 0
8 acc[19] acc[21] 0
9 acc[20] acc[21] 0
*RES
1 *912:X *16:8 42.5468 
2 *16:8 acc[21] 8.84373 
*END

*D_NET *17 0.00129957
*CONN
*P acc[22] O
*I *913:X O *D sky130_fd_sc_hd__buf_2
*CAP
1 acc[22] 5.25196e-05
2 *913:X 0.000261369
3 *17:10 0.000313888
4 *17:10 *912:A 0
5 acc[19] acc[22] 3.49463e-05
6 acc[21] acc[22] 3.49463e-05
7 *12:10 *17:10 0.000274078
8 *13:12 *17:10 0.000327827
9 *16:8 *17:10 0
*RES
1 *913:X *17:10 45.3432 
2 *17:10 acc[22] 8.32853 
*END

*D_NET *18 0.00114458
*CONN
*P acc[23] O
*I *914:X O *D sky130_fd_sc_hd__buf_2
*CAP
1 acc[23] 0.000517522
2 *914:X 0.000517522
3 acc[23] *51:21 9.4798e-06
4 acc[23] *210:14 0.000100061
5 acc[23] *370:105 0
*RES
1 *914:X acc[23] 48.5021 
*END

*D_NET *19 0.00169445
*CONN
*P acc[24] O
*I *915:X O *D sky130_fd_sc_hd__buf_2
*CAP
1 acc[24] 0.000445812
2 *915:X 0.000237476
3 *19:8 0.000683288
4 acc[24] *52:13 0
5 acc[24] *54:11 0
6 *19:8 *316:33 4.79544e-05
7 *19:8 *316:43 7.53384e-06
8 *19:8 *322:33 0.000272383
*RES
1 *915:X *19:8 41.9564 
2 *19:8 acc[24] 9.40429 
*END

*D_NET *20 0.00171118
*CONN
*P acc[25] O
*I *916:X O *D sky130_fd_sc_hd__buf_2
*CAP
1 acc[25] 0.000645994
2 *916:X 4.74413e-05
3 *20:8 0.000693435
4 acc[25] *916:A 0
5 acc[25] *51:21 0
6 acc[25] *53:15 0
7 acc[25] *295:10 5.21127e-05
8 acc[25] *304:112 0.000173714
9 acc[25] *315:8 0
10 acc[25] *370:97 0
11 *20:8 *370:91 9.84851e-05
*RES
1 *916:X *20:8 39.0979 
2 *20:8 acc[25] 13.63 
*END

*D_NET *21 0.00278971
*CONN
*P acc[26] O
*I *917:X O *D sky130_fd_sc_hd__buf_2
*CAP
1 acc[26] 0.000621613
2 *917:X 0.000481535
3 *21:8 0.00110315
4 acc[26] acc[27] 0
5 acc[26] *55:17 0
6 acc[26] *96:10 0
7 acc[26] *113:10 4.6318e-06
8 acc[26] *228:10 0
9 *21:8 *748:A_N 0.000225393
10 *21:8 *917:A 0.000353392
*RES
1 *917:X *21:8 45.2914 
2 *21:8 acc[26] 12.2214 
*END

*D_NET *22 0.00175349
*CONN
*P acc[27] O
*I *918:X O *D sky130_fd_sc_hd__buf_2
*CAP
1 acc[27] 0.00045946
2 *918:X 0.000238071
3 *22:8 0.000697531
4 acc[27] *876:A 0
5 *22:8 *322:33 0.000358425
6 acc[26] acc[27] 0
*RES
1 *918:X *22:8 41.9564 
2 *22:8 acc[27] 9.40429 
*END

*D_NET *23 0.00155016
*CONN
*P acc[28] O
*I *919:X O *D sky130_fd_sc_hd__buf_2
*CAP
1 acc[28] 0.000176834
2 *919:X 0.000271982
3 *23:10 0.000448816
4 acc[28] acc[30] 4.79628e-05
5 acc[28] *60:17 5.48131e-05
6 *23:10 *608:A 5.41385e-05
7 *23:10 *746:B 0.000111852
8 *23:10 *60:17 0.000285829
9 *23:10 *96:10 1.40958e-05
10 *23:10 *333:58 9.21347e-06
11 *23:10 *370:116 0
12 *3:8 *23:10 7.46212e-05
*RES
1 *919:X *23:10 43.8932 
2 *23:10 acc[28] 8.672 
*END

*D_NET *24 0.000726901
*CONN
*P acc[29] O
*I *920:X O *D sky130_fd_sc_hd__buf_2
*CAP
1 acc[29] 0.000191753
2 *920:X 0.000191753
3 acc[29] *56:11 6.10571e-05
4 acc[29] *57:17 0.000208306
5 acc[29] *59:11 3.81232e-05
6 acc[29] *227:10 2.5343e-05
7 acc[29] *358:31 1.05658e-05
*RES
1 *920:X acc[29] 47.0789 
*END

*D_NET *25 0.0004796
*CONN
*P acc[2] O
*I *921:X O *D sky130_fd_sc_hd__buf_2
*CAP
1 acc[2] 0.000174072
2 *921:X 0.000174072
3 acc[2] acc[31] 0
4 acc[2] acc[3] 0
5 acc[2] *47:15 6.23473e-05
6 acc[2] *61:13 6.91091e-05
*RES
1 *921:X acc[2] 47.0789 
*END

*D_NET *26 0.00263868
*CONN
*P acc[30] O
*I *922:X O *D sky130_fd_sc_hd__buf_2
*CAP
1 acc[30] 0.000469456
2 *922:X 0.000136666
3 *26:8 0.000606122
4 acc[30] *57:17 0.00048879
5 acc[30] *59:11 4.79628e-05
6 acc[30] *60:17 0.000385918
7 acc[30] *358:31 0.000409058
8 *26:8 *358:31 4.67488e-05
9 acc[28] acc[30] 4.79628e-05
*RES
1 *922:X *26:8 39.5743 
2 *26:8 acc[30] 20.0899 
*END

*D_NET *27 0.000547119
*CONN
*P acc[31] O
*I *923:X O *D sky130_fd_sc_hd__buf_2
*CAP
1 acc[31] 0.000182532
2 *923:X 0.000182532
3 acc[31] *47:15 5.6191e-05
4 acc[31] *56:11 5.04995e-05
5 acc[31] *371:51 0
6 acc[1] acc[31] 7.53639e-05
7 acc[2] acc[31] 0
*RES
1 *923:X acc[31] 47.4311 
*END

*D_NET *28 0.00128258
*CONN
*P acc[3] O
*I *924:X O *D sky130_fd_sc_hd__buf_2
*CAP
1 acc[3] 0.000219979
2 *924:X 0.000219979
3 acc[3] *58:15 4.44682e-05
4 acc[3] *61:13 7.1481e-05
5 acc[3] *63:17 0.000480255
6 acc[3] *324:8 2.33476e-05
7 acc[3] *357:29 0.000212505
8 acc[3] *360:45 1.05658e-05
9 acc[2] acc[3] 0
*RES
1 *924:X acc[3] 47.68 
*END

*D_NET *29 0.00388258
*CONN
*P acc[4] O
*I *925:X O *D sky130_fd_sc_hd__buf_2
*CAP
1 acc[4] 0.000653074
2 *925:X 0.000424122
3 *29:8 0.0010772
4 acc[4] acc[7] 0.000790233
5 *29:8 *800:C 2.16844e-05
6 *29:8 *925:A 1.59071e-05
7 *29:8 *31:10 9.75779e-05
8 *29:8 *62:15 0.000605214
9 *29:8 *155:14 0.000135037
10 *29:8 *261:44 7.53384e-06
11 *29:8 *263:29 5.50049e-05
*RES
1 *925:X *29:8 47.1971 
2 *29:8 acc[4] 21.8506 
*END

*D_NET *30 0.000889802
*CONN
*P acc[5] O
*I *926:X O *D sky130_fd_sc_hd__buf_2
*CAP
1 acc[5] 0.000329164
2 *926:X 0.000329164
3 acc[5] *926:A 5.81466e-05
4 acc[5] *62:15 0
5 acc[5] *63:17 5.08417e-05
6 acc[5] *65:15 8.2749e-05
7 acc[5] *364:43 3.97374e-05
*RES
1 *926:X acc[5] 48.6592 
*END

*D_NET *31 0.00295193
*CONN
*P acc[6] O
*I *927:X O *D sky130_fd_sc_hd__buf_2
*CAP
1 acc[6] 0.000807293
2 *927:X 0.000227234
3 *31:10 0.00103453
4 acc[6] acc[9] 0
5 acc[6] *675:A1 2.33476e-05
6 acc[6] *928:A 0
7 acc[6] *150:35 8.01846e-05
8 acc[6] *263:29 0.000612737
9 acc[6] *335:59 0
10 acc[6] *364:27 6.34709e-05
11 acc[6] *364:43 0
12 acc[6] *365:10 0
13 *31:10 *365:26 5.55713e-06
14 *29:8 *31:10 9.75779e-05
*RES
1 *927:X *31:10 41.1486 
2 *31:10 acc[6] 17.2136 
*END

*D_NET *32 0.00397751
*CONN
*P acc[7] O
*I *928:X O *D sky130_fd_sc_hd__buf_2
*CAP
1 acc[7] 0.000642084
2 *928:X 0.000194986
3 *32:8 0.00083707
4 acc[7] *667:B 4.28882e-05
5 acc[7] *926:A 0.000128361
6 acc[7] *62:15 0.000316052
7 acc[7] *63:17 0.000367484
8 acc[7] *65:15 5.70965e-05
9 acc[7] *363:21 5.97612e-05
10 acc[7] *364:43 0
11 *32:8 *667:B 0.000306338
12 *32:8 *326:28 0.000219383
13 *32:8 *362:42 1.5769e-05
14 acc[4] acc[7] 0.000790233
*RES
1 *928:X *32:8 42.4329 
2 *32:8 acc[7] 24.0493 
*END

*D_NET *33 0.00242597
*CONN
*P acc[8] O
*I *929:X O *D sky130_fd_sc_hd__buf_2
*CAP
1 acc[8] 0.000430254
2 *929:X 0.000612266
3 *33:8 0.00104252
4 acc[8] *66:9 0
5 acc[8] *80:10 9.48318e-05
6 acc[8] *152:16 0
7 acc[8] *327:10 0
8 acc[8] *327:16 0
9 acc[8] *335:53 2.54046e-05
10 acc[8] *364:14 0
11 *33:8 *662:A 1.76557e-05
12 *33:8 *929:A 3.3577e-05
13 *33:8 *335:6 1.41203e-05
14 *33:8 *364:14 9.47227e-05
15 acc[11] acc[8] 0
16 acc[11] *33:8 6.06173e-05
*RES
1 *929:X *33:8 46.2443 
2 *33:8 acc[8] 9.75643 
*END

*D_NET *34 0.00570676
*CONN
*P acc[9] O
*I *930:X O *D sky130_fd_sc_hd__buf_2
*CAP
1 acc[9] 0.00214187
2 *930:X 0.00025818
3 *34:12 0.00240005
4 acc[9] *58:15 0.000211972
5 acc[9] *63:17 9.52161e-06
6 acc[9] *64:19 0
7 acc[9] *150:64 0
8 acc[9] *155:30 0.000360077
9 acc[9] *327:16 0
10 acc[9] *368:103 0.000178976
11 *34:12 *670:A 6.17437e-06
12 *34:12 *798:A 9.84851e-05
13 *34:12 *273:8 1.05441e-05
14 *34:12 *324:14 1.32939e-05
15 *34:12 *367:46 1.76059e-05
16 acc[6] acc[9] 0
*RES
1 *930:X *34:12 49.6768 
2 *34:12 acc[9] 32.2358 
*END

*D_NET *35 0.00900645
*CONN
*P clk I
*I *854:A I *D sky130_fd_sc_hd__clkbuf_16
*CAP
1 clk 0.00148214
2 *854:A 0
3 *35:17 0.00157694
4 *35:9 0.00305908
5 *35:9 *701:A 0
6 *35:9 *703:B 0.000168754
7 *35:9 *903:A 0.000195974
8 *35:9 *907:A 0.000307722
9 *35:9 *43:19 0
10 *35:9 *68:11 0.000626846
11 *35:9 *253:8 0
12 *35:9 *337:8 0.00016046
13 *35:9 *342:23 0.000158916
14 *35:9 *343:14 2.55642e-05
15 *35:17 *599:A 7.72341e-05
16 *35:17 *702:A 5.50106e-05
17 *35:17 *702:B 5.50106e-05
18 *35:17 *706:B 5.50106e-05
19 *35:17 *708:A 6.39787e-05
20 *35:17 *708:B 5.67058e-05
21 *35:17 *713:A 5.3304e-05
22 *35:17 *713:B 1.39317e-05
23 *35:17 *713:C 0.000165318
24 *35:17 *87:10 4.82237e-05
25 *35:17 *248:29 5.50049e-05
26 *35:17 *286:10 2.43944e-05
27 *35:17 *374:10 5.29473e-05
28 acc[17] *35:9 0.000125342
29 *7:10 *35:9 0.000342638
30 *8:10 *35:9 0
*RES
1 clk *35:9 42.0945 
2 *35:9 *35:17 41.9907 
3 *35:17 *854:A 23 
*END

*D_NET *36 0.00196924
*CONN
*P data_in[0] I
*I *866:A I *D sky130_fd_sc_hd__clkbuf_1
*CAP
1 data_in[0] 0.000469278
2 *866:A 0
3 *36:11 0.000469278
4 *36:11 *741:B 0.000284639
5 *36:11 *754:B 0.000259026
6 *36:11 *923:A 0.000194299
7 *36:11 *56:11 6.91091e-05
8 *36:11 *227:10 3.13392e-05
9 *36:11 *371:66 0.00011691
10 acc[1] *36:11 7.53639e-05
*RES
1 data_in[0] *36:11 31.0273 
2 *36:11 *866:A 23 
*END

*D_NET *37 0.00539881
*CONN
*P data_in[10] I
*I *877:A I *D sky130_fd_sc_hd__clkbuf_1
*CAP
1 data_in[10] 0.00211643
2 *877:A 0
3 *37:21 0.00211643
4 *37:21 *681:B 0.000252008
5 *37:21 *67:11 0
6 *37:21 *125:10 0.000203194
7 *37:21 *339:22 0.000710747
8 acc[10] *37:21 0
9 *4:12 *37:21 0
*RES
1 data_in[10] *37:21 42.8675 
2 *37:21 *877:A 38 
*END

*D_NET *38 0.00217594
*CONN
*P data_in[11] I
*I *888:A I *D sky130_fd_sc_hd__clkbuf_1
*CAP
1 data_in[11] 0.000674051
2 *888:A 0
3 *38:13 0.000674051
4 *38:13 *634:A 6.17437e-06
5 *38:13 *833:CLK 1.37349e-05
6 *38:13 *66:9 0
7 *38:13 *67:11 0
8 *38:13 *124:21 3.16784e-05
9 *38:13 *280:14 0.000147956
10 *38:13 *303:22 0.000188918
11 *38:13 *328:19 4.67488e-05
12 *38:13 *328:29 5.20202e-05
13 *38:13 *335:25 0.000241355
14 *38:13 *335:35 9.92569e-05
*RES
1 data_in[11] *38:13 31.1986 
2 *38:13 *888:A 23 
*END

*D_NET *39 0.00564414
*CONN
*P data_in[12] I
*I *893:A I *D sky130_fd_sc_hd__buf_1
*CAP
1 data_in[12] 0.00240686
2 *893:A 0
3 *39:19 0.00240686
4 *39:19 *795:A 0
5 *39:19 *795:B 9.5877e-05
6 *39:19 *900:A 7.53721e-05
7 *39:19 *40:11 0
8 *39:19 *68:11 7.53576e-05
9 *39:19 *123:10 0
10 *39:19 *133:10 0
11 *39:19 *173:56 8.9585e-05
12 *39:19 *332:20 0.000199378
13 *39:19 *334:25 0.000135557
14 *39:19 *339:10 0.000104055
15 *39:19 *368:37 0
16 *39:19 *368:56 2.02872e-05
17 acc[14] *39:19 3.49463e-05
*RES
1 data_in[12] *39:19 33.2335 
2 *39:19 *893:A 23 
*END

*D_NET *40 0.00522287
*CONN
*P data_in[13] I
*I *894:A I *D sky130_fd_sc_hd__clkbuf_1
*CAP
1 data_in[13] 0.00175708
2 *894:A 0
3 *40:11 0.00175708
4 *40:11 *125:10 0.000183171
5 *40:11 *169:21 0.000287176
6 *40:11 *173:27 0.000315461
7 *40:11 *173:56 0.000251825
8 *40:11 *257:8 0.00012758
9 *40:11 *317:12 2.95125e-05
10 *40:11 *332:20 0.000132311
11 *40:11 *339:22 6.52177e-06
12 *40:11 *340:69 0.000280242
13 acc[12] *40:11 0
14 acc[13] *40:11 5.99691e-05
15 acc[14] *40:11 3.49463e-05
16 *39:19 *40:11 0
*RES
1 data_in[13] *40:11 30.0558 
2 *40:11 *894:A 23 
*END

*D_NET *41 0.00541202
*CONN
*P data_in[14] I
*I *895:A I *D sky130_fd_sc_hd__clkbuf_1
*CAP
1 data_in[14] 0.000717957
2 *895:A 0
3 *41:21 0.00105488
4 *41:11 0.00177284
5 *41:11 *42:13 3.76393e-05
6 *41:21 *698:B2 0
7 *41:21 *859:A 5.79559e-05
8 *41:21 *79:10 0
9 *41:21 *83:8 0.00029784
10 *41:21 *125:10 9.51437e-05
11 *41:21 *125:18 0.000228773
12 *41:21 *125:26 0.000131681
13 *41:21 *132:8 0.000139704
14 *41:21 *169:44 0
15 *41:21 *340:50 0
16 *41:21 *350:12 0.000491872
17 *41:21 *372:27 0
18 acc[15] *41:11 0
19 *4:12 *41:21 0.000385728
*RES
1 data_in[14] *41:11 44.1686 
2 *41:11 *41:21 38.2 
3 *41:21 *895:A 23 
*END

*D_NET *42 0.00267118
*CONN
*P data_in[15] I
*I *896:A I *D sky130_fd_sc_hd__buf_1
*CAP
1 data_in[15] 0.000717026
2 *896:A 0
3 *42:13 0.000717026
4 *42:13 *685:A 0
5 *42:13 *691:A 0.000395613
6 *42:13 *905:A 0
7 *42:13 *83:16 0
8 *42:13 *172:23 6.16771e-05
9 *42:13 *178:12 0
10 *42:13 *178:14 0
11 *42:13 *302:34 0.000217489
12 acc[10] *42:13 0
13 acc[15] *42:13 0.000524713
14 *41:11 *42:13 3.76393e-05
*RES
1 data_in[15] *42:13 48.4357 
2 *42:13 *896:A 38 
*END

*D_NET *43 0.00104377
*CONN
*P data_in[16] I
*I *897:A I *D sky130_fd_sc_hd__buf_1
*CAP
1 data_in[16] 0.000466849
2 *897:A 0
3 *43:19 0.000466849
4 *43:19 *714:A1 0
5 *43:19 *44:11 2.12457e-05
6 *43:19 *190:10 5.50106e-05
7 *43:19 *341:14 0
8 *43:19 *373:8 5.90675e-06
9 acc[16] *43:19 2.79122e-05
10 *35:9 *43:19 0
*RES
1 data_in[16] *43:19 29.7891 
2 *43:19 *897:A 23 
*END

*D_NET *44 0.00346908
*CONN
*P data_in[17] I
*I *898:A I *D sky130_fd_sc_hd__buf_1
*CAP
1 data_in[17] 0.00160539
2 *898:A 0
3 *44:11 0.00160539
4 *44:11 *709:A 0
5 *44:11 *196:10 0
6 *44:11 *197:12 0.00017708
7 *44:11 *198:16 0
8 *44:11 *248:29 0
9 *44:11 *339:26 0
10 acc[12] *44:11 0
11 acc[16] *44:11 0
12 acc[17] *44:11 5.99691e-05
13 *43:19 *44:11 2.12457e-05
*RES
1 data_in[17] *44:11 31.4132 
2 *44:11 *898:A 23 
*END

*D_NET *45 0.000667769
*CONN
*P data_in[18] I
*I *867:A I *D sky130_fd_sc_hd__buf_1
*CAP
1 data_in[18] 0.000307573
2 *867:A 0
3 *45:17 0.000307573
4 *45:17 *46:17 3.23168e-05
5 *45:17 *48:15 2.0307e-05
*RES
1 data_in[18] *45:17 27.1584 
2 *45:17 *867:A 23 
*END

*D_NET *46 0.000663074
*CONN
*P data_in[19] I
*I *868:A I *D sky130_fd_sc_hd__buf_1
*CAP
1 data_in[19] 0.000304755
2 *868:A 0
3 *46:17 0.000304755
4 acc[16] *46:17 2.12457e-05
5 *45:17 *46:17 3.23168e-05
*RES
1 data_in[19] *46:17 27.1584 
2 *46:17 *868:A 23 
*END

*D_NET *47 0.000840262
*CONN
*P data_in[1] I
*I *869:A I *D sky130_fd_sc_hd__clkbuf_1
*CAP
1 data_in[1] 0.00030877
2 *869:A 0
3 *47:15 0.00030877
4 *47:15 *814:A 0
5 *47:15 *319:12 0.000104183
6 acc[2] *47:15 6.23473e-05
7 acc[31] *47:15 5.6191e-05
*RES
1 data_in[1] *47:15 27.6358 
2 *47:15 *869:A 23 
*END

*D_NET *48 0.000921947
*CONN
*P data_in[20] I
*I *870:A I *D sky130_fd_sc_hd__clkbuf_1
*CAP
1 data_in[20] 0.000385445
2 *870:A 0
3 *48:15 0.000385445
4 *48:15 *911:A 5.51187e-05
5 acc[20] *48:15 7.56312e-05
6 *45:17 *48:15 2.0307e-05
*RES
1 data_in[20] *48:15 29.9882 
2 *48:15 *870:A 23 
*END

*D_NET *49 0.00161757
*CONN
*P data_in[21] I
*I *871:A I *D sky130_fd_sc_hd__clkbuf_1
*CAP
1 data_in[21] 0.000625611
2 *871:A 0
3 *49:17 0.000625611
4 *49:17 *769:B 0.000272377
5 *49:17 *912:A 0
6 *49:17 *347:10 0
7 *49:17 *370:62 2.64616e-05
8 acc[20] *49:17 3.49463e-05
9 acc[21] *49:17 3.25681e-05
*RES
1 data_in[21] *49:17 34.5246 
2 *49:17 *871:A 23 
*END

*D_NET *50 0.00158093
*CONN
*P data_in[22] I
*I *872:A I *D sky130_fd_sc_hd__clkbuf_1
*CAP
1 data_in[22] 0.000660697
2 *872:A 0
3 *50:13 0.000660697
4 *50:13 *721:A 7.43805e-05
5 *50:13 *722:A 5.3304e-05
6 *50:13 *722:B 7.53384e-06
7 *50:13 *209:10 8.48502e-06
8 *50:13 *312:6 9.74722e-05
9 *50:13 *312:21 1.83564e-05
*RES
1 data_in[22] *50:13 29.7071 
2 *50:13 *872:A 23 
*END

*D_NET *51 0.00173854
*CONN
*P data_in[23] I
*I *873:A I *D sky130_fd_sc_hd__clkbuf_1
*CAP
1 data_in[23] 0.0007391
2 *873:A 0
3 *51:21 0.0007391
4 *51:21 *723:A 5.73288e-05
5 *51:21 *723:B 4.79883e-06
6 *51:21 *210:14 0.000103405
7 *51:21 *210:27 6.25829e-05
8 *51:21 *313:6 2.27397e-05
9 *51:21 *349:21 0
10 *51:21 *370:105 0
11 acc[23] *51:21 9.4798e-06
12 acc[25] *51:21 0
*RES
1 data_in[23] *51:21 32.1721 
2 *51:21 *873:A 23 
*END

*D_NET *52 0.00175572
*CONN
*P data_in[24] I
*I *874:A I *D sky130_fd_sc_hd__clkbuf_1
*CAP
1 data_in[24] 0.000670437
2 *874:A 0
3 *52:13 0.000670437
4 *52:13 *623:A 8.56776e-05
5 *52:13 *762:A 1.83444e-05
6 *52:13 *53:15 0
7 *52:13 *95:10 0
8 *52:13 *109:14 8.62783e-05
9 *52:13 *110:6 4.2573e-05
10 *52:13 *316:43 0.000181976
11 *52:13 *322:33 0
12 *52:13 *370:91 0
13 acc[24] *52:13 0
*RES
1 data_in[24] *52:13 30.2664 
2 *52:13 *874:A 23 
*END

*D_NET *53 0.00207092
*CONN
*P data_in[25] I
*I *875:A I *D sky130_fd_sc_hd__clkbuf_1
*CAP
1 data_in[25] 0.000935241
2 *875:A 0
3 *53:15 0.000935241
4 *53:15 *723:A 0
5 *53:15 *95:10 3.70187e-05
6 *53:15 *370:97 0.00016342
7 acc[25] *53:15 0
8 *52:13 *53:15 0
*RES
1 data_in[25] *53:15 32.2136 
2 *53:15 *875:A 23 
*END

*D_NET *54 0.00402308
*CONN
*P data_in[26] I
*I *876:A I *D sky130_fd_sc_hd__buf_1
*CAP
1 data_in[26] 0.000790867
2 *876:A 0.000478247
3 *54:11 0.00126911
4 *876:A *235:14 3.39102e-05
5 *876:A *320:20 0.000264749
6 *876:A *355:42 6.69637e-06
7 *876:A *356:48 0.000569397
8 *876:A *370:116 0
9 *54:11 *55:17 0
10 *54:11 *370:116 0.000610101
11 acc[24] *54:11 0
12 acc[27] *876:A 0
*RES
1 data_in[26] *54:11 49.6993 
2 *54:11 *876:A 49.0614 
*END

*D_NET *55 0.00475777
*CONN
*P data_in[27] I
*I *878:A I *D sky130_fd_sc_hd__buf_1
*CAP
1 data_in[27] 0.00133274
2 *878:A 7.00184e-05
3 *55:17 0.00140276
4 *878:A *318:10 6.17437e-06
5 *55:17 *624:B 0
6 *55:17 *59:11 0.000526268
7 *55:17 *60:17 0.000559415
8 *55:17 *108:10 9.33529e-06
9 *55:17 *111:29 7.50384e-05
10 *55:17 *113:10 0
11 *55:17 *115:10 0.000177781
12 *55:17 *226:31 6.77278e-05
13 *55:17 *242:8 6.79006e-05
14 *55:17 *305:89 0.00046261
15 acc[26] *55:17 0
16 *54:11 *55:17 0
*RES
1 data_in[27] *55:17 37.073 
2 *55:17 *878:A 39.0979 
*END

*D_NET *56 0.00222508
*CONN
*P data_in[28] I
*I *879:A I *D sky130_fd_sc_hd__clkbuf_1
*CAP
1 data_in[28] 0.00068746
2 *879:A 0
3 *56:11 0.00068746
4 *56:11 *654:A 0
5 *56:11 *923:A 5.33546e-05
6 *56:11 *98:8 0.00028066
7 *56:11 *227:10 0.000134965
8 *56:11 *358:31 0.000122217
9 *56:11 *371:51 0
10 acc[1] *56:11 7.8295e-05
11 acc[29] *56:11 6.10571e-05
12 acc[31] *56:11 5.04995e-05
13 *36:11 *56:11 6.91091e-05
*RES
1 data_in[28] *56:11 36.6702 
2 *56:11 *879:A 23 
*END

*D_NET *57 0.00550932
*CONN
*P data_in[29] I
*I *880:A I *D sky130_fd_sc_hd__clkbuf_1
*CAP
1 data_in[29] 0.0016862
2 *880:A 0
3 *57:17 0.0016862
4 *57:17 *59:11 2.03288e-05
5 *57:17 *60:17 0.00109301
6 *57:17 *226:50 0.000106729
7 *57:17 *227:41 2.46922e-05
8 *57:17 *305:89 2.26406e-05
9 *57:17 *323:28 0.00013071
10 acc[0] *57:17 4.1708e-05
11 acc[29] *57:17 0.000208306
12 acc[30] *57:17 0.00048879
13 *3:8 *57:17 0
*RES
1 data_in[29] *57:17 44.8447 
2 *57:17 *880:A 38 
*END

*D_NET *58 0.00390932
*CONN
*P data_in[2] I
*I *881:A I *D sky130_fd_sc_hd__clkbuf_1
*CAP
1 data_in[2] 0.00132667
2 *881:A 0
3 *58:15 0.00132667
4 *58:15 *674:B1 1.74959e-05
5 *58:15 *824:CLK 1.59094e-05
6 *58:15 *62:15 6.33513e-05
7 *58:15 *63:17 0.000126701
8 *58:15 *71:8 0
9 *58:15 *138:16 0.000283791
10 *58:15 *148:10 2.64788e-05
11 *58:15 *148:22 0.00029959
12 *58:15 *159:29 2.12347e-06
13 *58:15 *263:12 0
14 *58:15 *264:18 0
15 *58:15 *324:35 2.08882e-05
16 *58:15 *368:103 0.000143203
17 acc[3] *58:15 4.44682e-05
18 acc[9] *58:15 0.000211972
*RES
1 data_in[2] *58:15 32.9013 
2 *58:15 *881:A 23 
*END

*D_NET *59 0.00422216
*CONN
*P data_in[30] I
*I *882:A I *D sky130_fd_sc_hd__clkbuf_1
*CAP
1 data_in[30] 0.00140492
2 *882:A 0
3 *59:11 0.00140492
4 *59:11 *60:17 0.000665047
5 *59:11 *322:33 1.9534e-05
6 *59:11 *333:58 4.68149e-05
7 *59:11 *351:30 4.82477e-05
8 acc[29] *59:11 3.81232e-05
9 acc[30] *59:11 4.79628e-05
10 *55:17 *59:11 0.000526268
11 *57:17 *59:11 2.03288e-05
*RES
1 data_in[30] *59:11 27.7799 
2 *59:11 *882:A 23 
*END

*D_NET *60 0.00684015
*CONN
*P data_in[31] I
*I *883:A I *D sky130_fd_sc_hd__clkbuf_1
*CAP
1 data_in[31] 0.00139385
2 *883:A 8.39389e-05
3 *60:17 0.00147779
4 *883:A *243:8 9.62666e-05
5 *883:A *323:12 9.58714e-05
6 *60:17 *746:B 0.000125862
7 *60:17 *747:A 2.47015e-05
8 *60:17 *111:29 3.12873e-05
9 *60:17 *227:41 1.00291e-05
10 *60:17 *228:34 0.000123037
11 *60:17 *322:33 5.80693e-05
12 *60:17 *323:28 0
13 *60:17 *351:30 2.39882e-05
14 *60:17 *358:31 0.000103854
15 acc[0] *60:17 0
16 acc[28] *60:17 5.48131e-05
17 acc[30] *60:17 0.000385918
18 *3:8 *60:17 0.000147563
19 *23:10 *60:17 0.000285829
20 *55:17 *60:17 0.000559415
21 *57:17 *60:17 0.00109301
22 *59:11 *60:17 0.000665047
*RES
1 data_in[31] *60:17 41.3917 
2 *60:17 *883:A 40.0507 
*END

*D_NET *61 0.00107187
*CONN
*P data_in[3] I
*I *884:A I *D sky130_fd_sc_hd__clkbuf_2
*CAP
1 data_in[3] 0.000438136
2 *884:A 0
3 *61:13 0.000438136
4 *61:13 *652:A 0
5 *61:13 *921:A 5.50106e-05
6 acc[2] *61:13 6.91091e-05
7 acc[3] *61:13 7.1481e-05
*RES
1 data_in[3] *61:13 29.3374 
2 *61:13 *884:A 23 
*END

*D_NET *62 0.00262276
*CONN
*P data_in[4] I
*I *885:A I *D sky130_fd_sc_hd__clkbuf_1
*CAP
1 data_in[4] 0.000503499
2 *885:A 0
3 *62:15 0.000503499
4 *62:15 *667:B 0.000265378
5 *62:15 *925:A 0.000158455
6 *62:15 *63:17 5.08417e-05
7 *62:15 *154:18 0
8 *62:15 *325:10 3.83498e-05
9 *62:15 *363:21 6.48142e-05
10 *62:15 *364:43 5.3304e-05
11 acc[5] *62:15 0
12 acc[7] *62:15 0.000316052
13 *29:8 *62:15 0.000605214
14 *58:15 *62:15 6.33513e-05
*RES
1 data_in[4] *62:15 35.1788 
2 *62:15 *885:A 23 
*END

*D_NET *63 0.00374535
*CONN
*P data_in[5] I
*I *886:A I *D sky130_fd_sc_hd__clkbuf_1
*CAP
1 data_in[5] 0.000967685
2 *886:A 2.63249e-05
3 *63:17 0.000994009
4 *886:A *260:12 2.93747e-05
5 *63:17 *667:B 6.7177e-06
6 *63:17 *670:A 0
7 *63:17 *797:B 1.02561e-05
8 *63:17 *155:30 0.000264856
9 *63:17 *260:12 9.72298e-05
10 *63:17 *324:8 0
11 *63:17 *324:35 2.01057e-05
12 *63:17 *325:10 0
13 *63:17 *357:29 3.77693e-05
14 *63:17 *362:42 7.90171e-05
15 *63:17 *368:103 0.00012636
16 acc[3] *63:17 0.000480255
17 acc[5] *63:17 5.08417e-05
18 acc[7] *63:17 0.000367484
19 acc[9] *63:17 9.52161e-06
20 *58:15 *63:17 0.000126701
21 *62:15 *63:17 5.08417e-05
*RES
1 data_in[5] *63:17 37.4844 
2 *63:17 *886:A 38.6214 
*END

*D_NET *64 0.0041761
*CONN
*P data_in[6] I
*I *887:A I *D sky130_fd_sc_hd__buf_1
*CAP
1 data_in[6] 0.00136486
2 *887:A 0
3 *64:19 0.00136486
4 *64:19 *666:B 0
5 *64:19 *65:15 0.000784494
6 *64:19 *66:9 1.03654e-05
7 *64:19 *75:8 0
8 *64:19 *149:8 0.000144789
9 *64:19 *151:12 0.000135455
10 *64:19 *152:16 0
11 *64:19 *162:12 2.80264e-05
12 *64:19 *276:8 0
13 *64:19 *303:22 2.60152e-05
14 *64:19 *328:19 0.000139647
15 *64:19 *328:29 4.77461e-05
16 *64:19 *330:10 0
17 *64:19 *332:20 0.000104869
18 *64:19 *366:28 2.49781e-05
19 acc[11] *64:19 0
20 acc[9] *64:19 0
21 *5:10 *64:19 0
*RES
1 data_in[6] *64:19 48.4484 
2 *64:19 *887:A 23 
*END

*D_NET *65 0.00670288
*CONN
*P data_in[7] I
*I *889:A I *D sky130_fd_sc_hd__clkbuf_1
*CAP
1 data_in[7] 0.00198367
2 *889:A 0
3 *65:15 0.00198367
4 *65:15 *643:A 3.84128e-05
5 *65:15 *645:A 0.000139346
6 *65:15 *666:B 0
7 *65:15 *805:A1 3.1869e-05
8 *65:15 *831:CLK 5.3304e-05
9 *65:15 *831:D 9.59186e-05
10 *65:15 *66:9 0
11 *65:15 *80:10 0.000225244
12 *65:15 *150:35 0
13 *65:15 *265:12 0.000394563
14 *65:15 *327:16 0.000283903
15 *65:15 *329:10 0.000213872
16 *65:15 *330:10 0.000126137
17 *65:15 *368:77 0.000208634
18 acc[5] *65:15 8.2749e-05
19 acc[7] *65:15 5.70965e-05
20 *64:19 *65:15 0.000784494
*RES
1 data_in[7] *65:15 40.6408 
2 *65:15 *889:A 23 
*END

*D_NET *66 0.00151964
*CONN
*P data_in[8] I
*I *890:A I *D sky130_fd_sc_hd__clkbuf_1
*CAP
1 data_in[8] 0.000673445
2 *890:A 0
3 *66:9 0.000673445
4 *66:9 *833:CLK 0
5 *66:9 *80:10 0
6 *66:9 *303:37 0.000140259
7 *66:9 *328:29 0
8 *66:9 *330:10 2.21277e-05
9 *66:9 *335:25 0
10 acc[8] *66:9 0
11 *38:13 *66:9 0
12 *64:19 *66:9 1.03654e-05
13 *65:15 *66:9 0
*RES
1 data_in[8] *66:9 28.4436 
2 *66:9 *890:A 23 
*END

*D_NET *67 0.00217476
*CONN
*P data_in[9] I
*I *891:A I *D sky130_fd_sc_hd__clkbuf_1
*CAP
1 data_in[9] 0.00077505
2 *891:A 0
3 *67:11 0.00077505
4 *67:11 *687:A 4.00259e-06
5 *67:11 *900:A 5.67058e-05
6 *67:11 *123:10 2.45549e-06
7 *67:11 *126:12 0.000100805
8 *67:11 *258:10 1.16915e-05
9 *67:11 *331:10 4.94964e-05
10 *4:12 *67:11 0.000399505
11 *37:21 *67:11 0
12 *38:13 *67:11 0
*RES
1 data_in[9] *67:11 32.0893 
2 *67:11 *891:A 23 
*END

*D_NET *68 0.00157087
*CONN
*P rst I
*I *892:A I *D sky130_fd_sc_hd__dlymetal6s2s_1
*CAP
1 rst 0.00040415
2 *892:A 0
3 *68:11 0.00040415
4 *68:11 *785:B 0
5 *68:11 *174:36 0
6 *68:11 *283:10 6.03608e-05
7 *68:11 *302:44 0
8 *35:9 *68:11 0.000626846
9 *39:19 *68:11 7.53576e-05
*RES
1 rst *68:11 31.1218 
2 *68:11 *892:A 23 
*END

*D_NET *69 0.000388319
*CONN
*I *822:RESET_B I *D sky130_fd_sc_hd__dfrtp_1
*I *613:Y O *D sky130_fd_sc_hd__inv_2
*CAP
1 *822:RESET_B 0.000155145
2 *613:Y 0.000155145
3 *822:RESET_B *333:6 5.70419e-05
4 *822:RESET_B *333:31 2.09871e-05
*RES
1 *613:Y *822:RESET_B 25.9311 
*END

*D_NET *70 0.000627221
*CONN
*I *823:RESET_B I *D sky130_fd_sc_hd__dfrtp_1
*I *814:Y O *D sky130_fd_sc_hd__inv_2
*CAP
1 *823:RESET_B 0
2 *814:Y 0.000142941
3 *70:10 0.000142941
4 *70:10 *652:A 0.000194299
5 *70:10 *654:A 3.70187e-05
6 *70:10 *309:8 5.50106e-05
7 *70:10 *319:12 5.50106e-05
*RES
1 *814:Y *70:10 41.5836 
2 *70:10 *823:RESET_B 15 
*END

*D_NET *71 0.000201647
*CONN
*I *824:RESET_B I *D sky130_fd_sc_hd__dfrtp_1
*I *815:Y O *D sky130_fd_sc_hd__inv_2
*CAP
1 *824:RESET_B 0
2 *815:Y 9.85074e-05
3 *71:8 9.85074e-05
4 *71:8 *138:16 0
5 *71:8 *260:12 4.6318e-06
6 *71:8 *324:8 0
7 *58:15 *71:8 0
*RES
1 *815:Y *71:8 39.5536 
2 *71:8 *824:RESET_B 15 
*END

*D_NET *72 0.000372143
*CONN
*I *825:RESET_B I *D sky130_fd_sc_hd__dfrtp_4
*I *816:Y O *D sky130_fd_sc_hd__inv_2
*CAP
1 *825:RESET_B 0
2 *816:Y 0.000120133
3 *72:8 0.000120133
4 *72:8 *272:10 0
5 *72:8 *301:12 0.000131878
*RES
1 *816:Y *72:8 41.3143 
2 *72:8 *825:RESET_B 15 
*END

*D_NET *73 0.0041265
*CONN
*I *826:RESET_B I *D sky130_fd_sc_hd__dfrtp_1
*I *817:Y O *D sky130_fd_sc_hd__inv_2
*CAP
1 *826:RESET_B 0.000525808
2 *817:Y 0.000465707
3 *73:10 0.000991516
4 *826:RESET_B *673:C 0.000189724
5 *826:RESET_B *677:A3 4.05745e-05
6 *826:RESET_B *826:D 0.000118528
7 *826:RESET_B *151:54 6.29012e-05
8 *826:RESET_B *264:18 7.49001e-05
9 *826:RESET_B *274:10 5.3304e-05
10 *826:RESET_B *303:126 0.000353513
11 *73:10 *151:54 0.000565592
12 *73:10 *160:8 0.000351608
13 *73:10 *264:18 4.18014e-05
14 *73:10 *321:14 2.93747e-05
15 *73:10 *324:56 1.32939e-05
16 *73:10 *360:20 0.000136738
17 *73:10 *360:30 0.000111615
*RES
1 *817:Y *73:10 49.6725 
2 *73:10 *826:RESET_B 25.295 
*END

*D_NET *74 0.00617885
*CONN
*I *827:RESET_B I *D sky130_fd_sc_hd__dfrtp_1
*I *818:Y O *D sky130_fd_sc_hd__inv_2
*CAP
1 *827:RESET_B 0.000325001
2 *818:Y 0.00125051
3 *74:10 0.00157551
4 *827:RESET_B *925:A 0.000108681
5 *827:RESET_B *928:A 3.82432e-05
6 *827:RESET_B *155:14 4.45778e-05
7 *827:RESET_B *157:59 0.000212293
8 *827:RESET_B *273:8 0
9 *827:RESET_B *362:27 0.000296937
10 *827:RESET_B *364:43 0.000239402
11 *827:RESET_B *365:10 3.4932e-05
12 *74:10 *667:B 0.000105913
13 *74:10 *799:B1 0.000310641
14 *74:10 *818:A 0.000433252
15 *74:10 *855:A 1.14876e-05
16 *74:10 *154:10 1.89178e-05
17 *74:10 *157:14 0.00042453
18 *74:10 *157:20 0.000313255
19 *74:10 *261:44 2.62931e-05
20 *74:10 *303:8 0.000287863
21 *74:10 *326:14 5.56279e-05
22 *74:10 *326:28 1.16778e-05
23 *74:10 *362:27 5.3304e-05
*RES
1 *818:Y *74:10 46.2829 
2 *74:10 *827:RESET_B 39.3007 
*END

*D_NET *75 0.000417846
*CONN
*I *828:RESET_B I *D sky130_fd_sc_hd__dfrtp_1
*I *819:Y O *D sky130_fd_sc_hd__inv_2
*CAP
1 *828:RESET_B 6.19664e-05
2 *819:Y 6.55011e-05
3 *75:8 0.000127468
4 *828:RESET_B *303:37 4.88179e-05
5 *75:8 *330:10 0.000114092
6 *64:19 *75:8 0
*RES
1 *819:Y *75:8 39.5536 
2 *75:8 *828:RESET_B 16.0254 
*END

*D_NET *76 0.00307442
*CONN
*I *829:RESET_B I *D sky130_fd_sc_hd__dfrtp_1
*I *820:Y O *D sky130_fd_sc_hd__inv_2
*CAP
1 *829:RESET_B 0.000143489
2 *820:Y 0.000525746
3 *76:10 0.000669236
4 *829:RESET_B *829:CLK 2.93845e-05
5 *829:RESET_B *829:D 0.000120847
6 *829:RESET_B *303:37 5.41288e-05
7 *829:RESET_B *329:18 0.000475327
8 *829:RESET_B *364:27 2.53954e-05
9 *76:10 *677:A1 5.3304e-05
10 *76:10 *863:A 4.36547e-05
11 *76:10 *153:10 0.000164401
12 *76:10 *153:21 0.000127263
13 *76:10 *156:14 4.09176e-05
14 *76:10 *275:16 0.000517325
15 *76:10 *366:28 8.40017e-05
*RES
1 *820:Y *76:10 48.6679 
2 *76:10 *829:RESET_B 20.3132 
*END

*D_NET *77 0.00020384
*CONN
*I *830:RESET_B I *D sky130_fd_sc_hd__dfrtp_1
*I *821:Y O *D sky130_fd_sc_hd__inv_2
*CAP
1 *830:RESET_B 0
2 *821:Y 0.00010192
3 *77:8 0.00010192
4 *77:8 *303:73 0
5 *77:8 *303:90 0
6 *77:8 *369:66 0
*RES
1 *821:Y *77:8 39.5536 
2 *77:8 *830:RESET_B 15 
*END

*D_NET *78 0.000444267
*CONN
*I *831:RESET_B I *D sky130_fd_sc_hd__dfrtp_1
*I *590:Y O *D sky130_fd_sc_hd__inv_2
*CAP
1 *831:RESET_B 0
2 *590:Y 7.97835e-05
3 *78:8 7.97835e-05
4 *78:8 *368:77 0.000192169
5 *78:8 *369:23 9.25308e-05
*RES
1 *590:Y *78:8 40.61 
2 *78:8 *831:RESET_B 15 
*END

*D_NET *79 0.000403816
*CONN
*I *832:RESET_B I *D sky130_fd_sc_hd__dfrtp_1
*I *591:Y O *D sky130_fd_sc_hd__inv_2
*CAP
1 *832:RESET_B 0
2 *591:Y 0.000123442
3 *79:10 0.000123442
4 *79:10 *591:A 1.34914e-05
5 *79:10 *84:10 8.4047e-05
6 *79:10 *177:18 4.587e-05
7 *79:10 *340:50 1.3523e-05
8 *41:21 *79:10 0
*RES
1 *591:Y *79:10 40.175 
2 *79:10 *832:RESET_B 15 
*END

*D_NET *80 0.00105552
*CONN
*I *833:RESET_B I *D sky130_fd_sc_hd__dfrtp_1
*I *592:Y O *D sky130_fd_sc_hd__inv_2
*CAP
1 *833:RESET_B 0
2 *592:Y 0.000318401
3 *80:10 0.000318401
4 *80:10 *819:A 9.58714e-05
5 *80:10 *327:10 0
6 *80:10 *329:18 0
7 *80:10 *364:14 0
8 *80:10 *369:23 2.76611e-06
9 acc[8] *80:10 9.48318e-05
10 *65:15 *80:10 0.000225244
11 *66:9 *80:10 0
*RES
1 *592:Y *80:10 44.1729 
2 *80:10 *833:RESET_B 15 
*END

*D_NET *81 0.000752681
*CONN
*I *834:RESET_B I *D sky130_fd_sc_hd__dfrtp_1
*I *593:Y O *D sky130_fd_sc_hd__inv_2
*CAP
1 *834:RESET_B 0
2 *593:Y 0.000284151
3 *81:10 0.000284151
4 *81:10 *133:10 6.4393e-05
5 *81:10 *170:33 5.67058e-05
6 *81:10 *334:25 0
7 *81:10 *368:114 6.32794e-05
*RES
1 *593:Y *81:10 43.3443 
2 *81:10 *834:RESET_B 15 
*END

*D_NET *82 0.000330975
*CONN
*I *835:RESET_B I *D sky130_fd_sc_hd__dfrtp_1
*I *594:Y O *D sky130_fd_sc_hd__inv_2
*CAP
1 *835:RESET_B 5.07104e-05
2 *594:Y 0.000100471
3 *82:8 0.000151182
4 *835:RESET_B *337:36 2.86109e-05
5 *82:8 *368:132 0
*RES
1 *594:Y *82:8 39.5536 
2 *82:8 *835:RESET_B 16.0254 
*END

*D_NET *83 0.00361564
*CONN
*I *836:RESET_B I *D sky130_fd_sc_hd__dfrtp_1
*I *595:Y O *D sky130_fd_sc_hd__inv_2
*CAP
1 *836:RESET_B 9.50603e-05
2 *595:Y 0.000241136
3 *83:16 0.00117091
4 *83:8 0.00131698
5 *836:RESET_B *338:6 2.45549e-06
6 *83:8 *794:A2 0.000221889
7 *83:8 *125:18 0.000168211
8 *83:8 *126:12 1.02387e-05
9 *83:8 *331:10 8.62876e-05
10 *83:16 *178:12 4.6318e-06
11 *41:21 *83:8 0.00029784
12 *42:13 *83:16 0
*RES
1 *595:Y *83:8 44.8357 
2 *83:8 *83:16 43.6093 
3 *83:16 *836:RESET_B 16.5018 
*END

*D_NET *84 0.00160273
*CONN
*I *837:RESET_B I *D sky130_fd_sc_hd__dfrtp_1
*I *596:Y O *D sky130_fd_sc_hd__inv_2
*CAP
1 *837:RESET_B 0.000488311
2 *596:Y 0.000116626
3 *84:10 0.000604937
4 *837:RESET_B *832:CLK 4.67488e-05
5 *837:RESET_B *174:18 0.000104413
6 *837:RESET_B *302:36 4.58951e-05
7 *837:RESET_B *340:8 9.41704e-05
8 *84:10 *591:A 3.7122e-06
9 *84:10 *368:31 1.3867e-05
10 *79:10 *84:10 8.4047e-05
*RES
1 *596:Y *84:10 39.8229 
2 *84:10 *837:RESET_B 22.3846 
*END

*D_NET *85 0.000344616
*CONN
*I *838:RESET_B I *D sky130_fd_sc_hd__dfrtp_1
*I *597:Y O *D sky130_fd_sc_hd__inv_2
*CAP
1 *838:RESET_B 0.000151356
2 *597:Y 0.000151356
3 *838:RESET_B *341:6 4.19048e-05
*RES
1 *597:Y *838:RESET_B 25.9311 
*END

*D_NET *86 0.000276172
*CONN
*I *839:RESET_B I *D sky130_fd_sc_hd__dfrtp_1
*I *598:Y O *D sky130_fd_sc_hd__inv_2
*CAP
1 *839:RESET_B 0
2 *598:Y 0.000138086
3 *86:8 0.000138086
4 *86:8 *907:A 0
5 *86:8 *188:23 0
6 *86:8 *286:10 0
7 *86:8 *302:16 0
*RES
1 *598:Y *86:8 40.61 
2 *86:8 *839:RESET_B 15 
*END

*D_NET *87 0.00112452
*CONN
*I *840:RESET_B I *D sky130_fd_sc_hd__dfrtp_1
*I *599:Y O *D sky130_fd_sc_hd__inv_2
*CAP
1 *840:RESET_B 0.000118951
2 *599:Y 0.000262567
3 *87:10 0.000381518
4 *840:RESET_B *287:8 0.000124339
5 *87:10 *599:A 0
6 *87:10 *198:16 0.000188926
7 *87:10 *370:27 0
8 *35:17 *87:10 4.82237e-05
*RES
1 *599:Y *87:10 42.6607 
2 *87:10 *840:RESET_B 17.4546 
*END

*D_NET *88 0.000478082
*CONN
*I *841:RESET_B I *D sky130_fd_sc_hd__dfrtp_1
*I *600:Y O *D sky130_fd_sc_hd__inv_2
*CAP
1 *841:RESET_B 0.000135564
2 *600:Y 0.000135564
3 *841:RESET_B *288:6 2.15259e-05
4 *841:RESET_B *370:31 0.000185428
*RES
1 *600:Y *841:RESET_B 25.9311 
*END

*D_NET *89 0.000346276
*CONN
*I *842:RESET_B I *D sky130_fd_sc_hd__dfrtp_1
*I *601:Y O *D sky130_fd_sc_hd__inv_2
*CAP
1 *842:RESET_B 0
2 *601:Y 0.000146625
3 *89:12 0.000146625
4 *89:12 *605:A 7.53384e-06
5 *89:12 *223:10 0
6 *89:12 *304:32 2.78373e-05
7 *89:12 *370:148 1.76557e-05
*RES
1 *601:Y *89:12 40.6721 
2 *89:12 *842:RESET_B 15 
*END

*D_NET *90 0.000207623
*CONN
*I *843:RESET_B I *D sky130_fd_sc_hd__dfrtp_1
*I *602:Y O *D sky130_fd_sc_hd__inv_2
*CAP
1 *843:RESET_B 0
2 *602:Y 7.47634e-05
3 *90:8 7.47634e-05
4 *90:8 *370:62 5.80963e-05
5 acc[20] *90:8 0
*RES
1 *602:Y *90:8 39.5536 
2 *90:8 *843:RESET_B 15 
*END

*D_NET *91 0.000812709
*CONN
*I *844:RESET_B I *D sky130_fd_sc_hd__dfrtp_1
*I *603:Y O *D sky130_fd_sc_hd__inv_2
*CAP
1 *844:RESET_B 4.5741e-05
2 *603:Y 0.000149933
3 *91:8 0.000195674
4 *844:RESET_B *720:B 8.79516e-05
5 *844:RESET_B *844:D 4.36616e-05
6 *91:8 *208:10 0
7 *91:8 *245:8 1.83564e-05
8 *91:8 *344:47 0.000271392
*RES
1 *603:Y *91:8 41.6664 
2 *91:8 *844:RESET_B 16.0254 
*END

*D_NET *92 0.000273984
*CONN
*I *845:RESET_B I *D sky130_fd_sc_hd__dfrtp_1
*I *604:Y O *D sky130_fd_sc_hd__inv_2
*CAP
1 *845:RESET_B 0
2 *604:Y 6.20092e-05
3 *92:8 6.20092e-05
4 *92:8 *210:41 3.743e-05
5 *92:8 *212:14 0.000112535
*RES
1 *604:Y *92:8 39.5536 
2 *92:8 *845:RESET_B 15 
*END

*D_NET *93 0.000372668
*CONN
*I *846:RESET_B I *D sky130_fd_sc_hd__dfrtp_1
*I *605:Y O *D sky130_fd_sc_hd__inv_2
*CAP
1 *846:RESET_B 0
2 *605:Y 0.00017019
3 *93:10 0.00017019
4 *93:10 *605:A 3.22879e-05
5 *93:10 *239:10 0
6 *93:10 *293:10 0
*RES
1 *605:Y *93:10 41.0036 
2 *93:10 *846:RESET_B 15 
*END

*D_NET *94 0.000336193
*CONN
*I *847:RESET_B I *D sky130_fd_sc_hd__dfrtp_1
*I *606:Y O *D sky130_fd_sc_hd__inv_2
*CAP
1 *847:RESET_B 0
2 *606:Y 0.000140594
3 *94:10 0.000140594
4 *94:10 *352:10 0
5 *94:10 *370:77 5.50049e-05
*RES
1 *606:Y *94:10 40.175 
2 *94:10 *847:RESET_B 15 
*END

*D_NET *95 0.000368927
*CONN
*I *848:RESET_B I *D sky130_fd_sc_hd__dfrtp_1
*I *607:Y O *D sky130_fd_sc_hd__inv_2
*CAP
1 *848:RESET_B 0
2 *607:Y 0.000118107
3 *95:10 0.000118107
4 *95:10 *762:A 5.67058e-05
5 *95:10 *109:14 0
6 *95:10 *110:23 2.76611e-06
7 *95:10 *370:97 3.62219e-05
8 *52:13 *95:10 0
9 *53:15 *95:10 3.70187e-05
*RES
1 *607:Y *95:10 40.175 
2 *95:10 *848:RESET_B 15 
*END

*D_NET *96 0.00222429
*CONN
*I *849:RESET_B I *D sky130_fd_sc_hd__dfrtp_1
*I *608:Y O *D sky130_fd_sc_hd__inv_2
*CAP
1 *849:RESET_B 4.57309e-05
2 *608:Y 0.000345113
3 *96:10 0.000390844
4 *849:RESET_B *228:10 9.67842e-05
5 *849:RESET_B *322:33 9.987e-05
6 *849:RESET_B *354:12 4.41875e-05
7 *96:10 *608:A 0.00010018
8 *96:10 *748:A_N 1.56665e-05
9 *96:10 *917:A 0.00022109
10 *96:10 *919:A 0.000139982
11 *96:10 *228:10 8.58484e-05
12 *96:10 *231:12 2.47321e-05
13 *96:10 *232:50 0.000389777
14 *96:10 *320:20 0.00021039
15 acc[26] *96:10 0
16 *23:10 *96:10 1.40958e-05
*RES
1 *608:Y *96:10 47.7771 
2 *96:10 *849:RESET_B 16.9782 
*END

*D_NET *97 0.001667
*CONN
*I *850:RESET_B I *D sky130_fd_sc_hd__dfrtp_1
*I *609:Y O *D sky130_fd_sc_hd__inv_2
*CAP
1 *850:RESET_B 0
2 *609:Y 0.000243796
3 *97:10 0.000243796
4 *97:10 *747:B 0.00048023
5 *97:10 *232:8 0.00048023
6 *97:10 *305:51 6.48049e-05
7 *97:10 *305:66 0.000154138
8 *97:10 *371:27 0
*RES
1 *609:Y *97:10 46.3479 
2 *97:10 *850:RESET_B 15 
*END

*D_NET *98 0.00102567
*CONN
*I *851:RESET_B I *D sky130_fd_sc_hd__dfrtp_1
*I *610:Y O *D sky130_fd_sc_hd__inv_2
*CAP
1 *851:RESET_B 7.30622e-05
2 *610:Y 0.000117984
3 *98:8 0.000191046
4 *851:RESET_B *356:8 1.99768e-05
5 *98:8 *227:10 0.000323283
6 *98:8 *358:31 1.96584e-05
7 *56:11 *98:8 0.00028066
*RES
1 *610:Y *98:8 42.3707 
2 *98:8 *851:RESET_B 16.0254 
*END

*D_NET *99 0.00115586
*CONN
*I *852:RESET_B I *D sky130_fd_sc_hd__dfrtp_1
*I *611:Y O *D sky130_fd_sc_hd__inv_2
*CAP
1 *852:RESET_B 0
2 *611:Y 0.000281973
3 *99:8 0.000281973
4 *99:8 *741:B 0.000203594
5 *99:8 *227:10 1.02556e-05
6 *99:8 *227:27 2.68724e-05
7 *99:8 *232:50 0.000155449
8 *99:8 *320:39 4.67532e-05
9 *99:8 *323:28 7.20089e-05
10 *99:8 *355:42 0
11 *99:8 *356:31 7.69793e-05
*RES
1 *611:Y *99:8 45.1879 
2 *99:8 *852:RESET_B 15 
*END

*D_NET *100 0.00125747
*CONN
*I *853:RESET_B I *D sky130_fd_sc_hd__dfrtp_1
*I *612:Y O *D sky130_fd_sc_hd__inv_2
*CAP
1 *853:RESET_B 0.000142408
2 *612:Y 0.000194021
3 *100:10 0.000336429
4 *853:RESET_B *910:A 5.3304e-05
5 *853:RESET_B *143:10 2.98648e-05
6 *853:RESET_B *268:10 1.8561e-06
7 *853:RESET_B *359:8 2.64616e-05
8 *100:10 *910:A 0.000161121
9 *100:10 *306:6 9.5877e-05
10 *100:10 *306:18 5.50049e-05
11 *100:10 *306:29 0.000161121
*RES
1 *612:Y *100:10 41.8321 
2 *100:10 *853:RESET_B 17.4546 
*END

*D_NET *101 0.00439157
*CONN
*I *616:A I *D sky130_fd_sc_hd__nand2_1
*I *751:C1 I *D sky130_fd_sc_hd__o211a_1
*I *749:A1 I *D sky130_fd_sc_hd__a31o_1
*I *744:A I *D sky130_fd_sc_hd__nand2_1
*I *614:Y O *D sky130_fd_sc_hd__nand2_1
*CAP
1 *616:A 0
2 *751:C1 0
3 *749:A1 0
4 *744:A 0
5 *614:Y 0.000210375
6 *101:41 0.000266099
7 *101:31 0.000469249
8 *101:25 0.000319201
9 *101:16 0.000392563
10 *101:6 0.000718989
11 *101:6 *615:B 0.000301719
12 *101:16 *615:B 0.000184527
13 *101:16 *861:A 0.000185428
14 *101:16 *102:28 7.57281e-06
15 *101:16 *103:16 0.000443673
16 *101:16 *232:10 0.000132345
17 *101:16 *301:49 6.17437e-06
18 *101:16 *305:66 0
19 *101:25 *616:B 5.10464e-05
20 *101:25 *232:10 2.12347e-06
21 *101:25 *305:96 6.16653e-05
22 *101:31 *616:B 1.05441e-05
23 *101:31 *852:CLK 4.58829e-05
24 *101:31 *226:50 2.24608e-05
25 *101:31 *232:10 8.54667e-05
26 *101:31 *232:35 3.33082e-05
27 *101:31 *305:96 6.72184e-06
28 *101:41 *751:B1 9.41704e-05
29 *101:41 *226:31 5.29842e-05
30 *101:41 *228:20 6.68822e-05
31 *101:41 *228:34 2.93845e-05
32 *101:41 *228:49 0.00013139
33 *101:41 *232:35 1.16679e-05
34 *101:41 *316:16 4.79544e-05
*RES
1 *614:Y *101:6 26.48 
2 *101:6 *101:16 38.8657 
3 *101:16 *744:A 23 
4 *101:6 *101:25 16.9057 
5 *101:25 *101:31 18.9357 
6 *101:31 *101:41 35.2821 
7 *101:41 *749:A1 23 
8 *101:31 *751:C1 23 
9 *101:25 *616:A 38 
*END

*D_NET *102 0.002452
*CONN
*I *616:B I *D sky130_fd_sc_hd__nand2_1
*I *615:X O *D sky130_fd_sc_hd__or2_1
*CAP
1 *616:B 6.42395e-05
2 *615:X 0.000425886
3 *102:28 0.000418418
4 *102:14 0.000780065
5 *616:B *232:10 0.000123317
6 *102:14 *609:A 5.3304e-05
7 *102:14 *615:A 5.50049e-05
8 *102:14 *747:B 1.56762e-05
9 *102:14 *301:49 5.49355e-05
10 *102:14 *305:66 3.15813e-05
11 *102:14 *351:30 6.7177e-06
12 *102:14 *371:27 1.58805e-05
13 *102:28 *615:B 0.000226306
14 *102:28 *305:66 6.12496e-06
15 *102:28 *323:28 0.000105379
16 *101:16 *102:28 7.57281e-06
17 *101:25 *616:B 5.10464e-05
18 *101:31 *616:B 1.05441e-05
*RES
1 *615:X *102:14 43.6757 
2 *102:14 *102:28 49.2477 
3 *102:28 *616:B 39.7296 
*END

*D_NET *103 0.0038045
*CONN
*I *740:A I *D sky130_fd_sc_hd__xnor2_1
*I *739:C1 I *D sky130_fd_sc_hd__a311o_1
*I *616:Y O *D sky130_fd_sc_hd__nand2_1
*CAP
1 *740:A 0
2 *739:C1 4.58914e-05
3 *616:Y 0.000343685
4 *103:33 0.000281466
5 *103:16 0.000671042
6 *739:C1 *739:B1 1.14154e-05
7 *739:C1 *744:B 0
8 *739:C1 *857:A 1.24376e-05
9 *739:C1 *117:12 2.93747e-05
10 *739:C1 *301:49 5.3304e-05
11 *103:16 *744:B 3.84128e-05
12 *103:16 *117:12 4.96717e-05
13 *103:16 *226:8 9.24795e-06
14 *103:16 *226:17 0.000332606
15 *103:16 *226:50 0.000342591
16 *103:16 *301:49 0.000180772
17 *103:16 *320:14 2.4754e-05
18 *103:33 *747:A 1.37349e-05
19 *103:33 *850:D 9.75779e-05
20 *103:33 *301:28 0.000367689
21 *103:33 *351:30 0.000414378
22 *103:33 *371:27 4.07715e-05
23 *101:16 *103:16 0.000443673
*RES
1 *616:Y *103:16 35.6357 
2 *103:16 *739:C1 24.1186 
3 *103:16 *103:33 38.4307 
4 *103:33 *740:A 23 
*END

*D_NET *104 0.00262195
*CONN
*I *625:A I *D sky130_fd_sc_hd__or2_1
*I *619:A I *D sky130_fd_sc_hd__nand2_1
*I *760:B1_N I *D sky130_fd_sc_hd__a21bo_1
*I *617:Y O *D sky130_fd_sc_hd__nand2_1
*CAP
1 *625:A 0.000331185
2 *619:A 0.000168981
3 *760:B1_N 0
4 *617:Y 0.000247507
5 *104:15 0.000578964
6 *104:6 0.000326305
7 *619:A *759:A 7.44354e-05
8 *619:A *760:A2 0.000157555
9 *619:A *105:25 0.000138718
10 *619:A *240:8 1.14452e-05
11 *619:A *314:16 1.22906e-05
12 *625:A *618:A 5.50106e-05
13 *625:A *618:B 7.46212e-05
14 *625:A *760:A2 3.95159e-06
15 *625:A *916:A 2.47015e-05
16 *625:A *105:6 2.98648e-05
17 *625:A *105:25 1.01436e-05
18 *625:A *314:16 4.49946e-05
19 *104:6 *618:A 5.96378e-05
20 *104:6 *760:A1 2.32101e-05
21 *104:6 *760:A2 0.00018282
22 *104:6 *315:12 9.68637e-06
23 *104:15 *760:A1 5.59252e-05
*RES
1 *617:Y *104:6 26.9564 
2 *104:6 *760:B1_N 23 
3 *104:6 *104:15 16.0979 
4 *104:15 *619:A 42.3293 
5 *104:15 *625:A 44.0279 
*END

*D_NET *105 0.00140076
*CONN
*I *619:B I *D sky130_fd_sc_hd__nand2_1
*I *760:A1 I *D sky130_fd_sc_hd__a21bo_1
*I *618:X O *D sky130_fd_sc_hd__or2_1
*CAP
1 *619:B 0
2 *760:A1 0.000131188
3 *618:X 6.08499e-05
4 *105:25 8.45972e-05
5 *105:6 0.000276635
6 *760:A1 *618:A 0.000301792
7 *760:A1 *760:A2 0.000139346
8 *105:6 *618:A 7.53384e-06
9 *105:25 *314:16 0.000140958
10 *619:A *105:25 0.000138718
11 *625:A *105:6 2.98648e-05
12 *625:A *105:25 1.01436e-05
13 *104:6 *760:A1 2.32101e-05
14 *104:15 *760:A1 5.59252e-05
*RES
1 *618:X *105:6 24.0979 
2 *105:6 *760:A1 27.1221 
3 *105:6 *105:25 32.4029 
4 *105:25 *619:B 23 
*END

*D_NET *106 0.000779696
*CONN
*I *624:A I *D sky130_fd_sc_hd__or2_1
*I *759:A I *D sky130_fd_sc_hd__xnor2_1
*I *619:Y O *D sky130_fd_sc_hd__nand2_1
*CAP
1 *624:A 0.000123716
2 *759:A 0.000201412
3 *619:Y 0
4 *106:4 0.000325128
5 *624:A *624:B 5.50049e-05
6 *619:A *759:A 7.44354e-05
*RES
1 *619:Y *106:4 23 
2 *106:4 *759:A 26.5214 
3 *106:4 *624:A 25.0714 
*END

*D_NET *107 0.00362067
*CONN
*I *626:A I *D sky130_fd_sc_hd__nor2_1
*I *630:A1 I *D sky130_fd_sc_hd__o21a_1
*I *764:A I *D sky130_fd_sc_hd__xor2_1
*I *620:Y O *D sky130_fd_sc_hd__xnor2_1
*CAP
1 *626:A 2.55512e-05
2 *630:A1 0
3 *764:A 0.000263631
4 *620:Y 0.000305727
5 *107:33 0.000147234
6 *107:16 0.000748695
7 *107:12 0.000363381
8 *107:10 0.000305727
9 *626:A *852:D 7.53384e-06
10 *626:A *227:27 1.41077e-05
11 *764:A *112:23 0.000183799
12 *764:A *243:8 1.4557e-05
13 *764:A *323:12 0
14 *107:10 *750:A 2.18506e-05
15 *107:10 *852:CLK 4.6318e-06
16 *107:10 *917:A 5.78073e-05
17 *107:10 *228:10 0
18 *107:10 *232:35 0.000138504
19 *107:10 *299:8 0.000111615
20 *107:16 *112:23 0.000385442
21 *107:16 *227:27 3.58084e-06
22 *107:33 *226:31 0.000153212
23 *107:33 *229:20 7.15126e-05
24 *107:33 *305:89 0.000153212
25 *107:33 *316:16 0.000139357
*RES
1 *620:Y *107:10 43.6136 
2 *107:10 *107:12 15 
3 *107:12 *107:16 5.28214 
4 *107:16 *764:A 26.8891 
5 *107:16 *107:33 33.8321 
6 *107:33 *630:A1 23 
7 *107:12 *626:A 23.6214 
*END

*D_NET *108 0.000718689
*CONN
*I *623:A I *D sky130_fd_sc_hd__nand2_1
*I *763:A I *D sky130_fd_sc_hd__and3_1
*I *621:Y O *D sky130_fd_sc_hd__nand2_1
*CAP
1 *623:A 0.000135248
2 *763:A 0
3 *621:Y 0
4 *108:10 0.000148237
5 *108:4 0.000283485
6 *623:A *628:A2 0
7 *623:A *316:43 5.67058e-05
8 *623:A *370:91 0
9 *108:10 *624:B 0
10 *108:10 *110:23 0
11 *108:10 *115:10 0
12 *52:13 *623:A 8.56776e-05
13 *55:17 *108:10 9.33529e-06
*RES
1 *621:Y *108:4 23 
2 *108:4 *108:10 32.61 
3 *108:10 *763:A 23 
4 *108:4 *623:A 26.3971 
*END

*D_NET *109 0.000883501
*CONN
*I *623:B I *D sky130_fd_sc_hd__nand2_1
*I *622:X O *D sky130_fd_sc_hd__or2_1
*CAP
1 *623:B 0
2 *622:X 0.000300803
3 *109:14 0.000300803
4 *109:14 *110:23 1.86869e-05
5 *109:14 *316:43 0.000121919
6 *109:14 *353:21 5.50106e-05
7 *52:13 *109:14 8.62783e-05
8 *95:10 *109:14 0
*RES
1 *622:X *109:14 43.5514 
2 *109:14 *623:B 38 
*END

*D_NET *110 0.00254319
*CONN
*I *625:B I *D sky130_fd_sc_hd__or2_1
*I *624:B I *D sky130_fd_sc_hd__or2_1
*I *762:A I *D sky130_fd_sc_hd__xnor2_1
*I *623:Y O *D sky130_fd_sc_hd__nand2_1
*CAP
1 *625:B 0
2 *624:B 0.000147354
3 *762:A 0.000423113
4 *623:Y 3.97708e-05
5 *110:23 0.00040908
6 *110:6 0.000724609
7 *624:B *242:8 0
8 *624:B *314:16 5.26308e-05
9 *762:A *295:10 0.000225393
10 *762:A *314:12 2.7237e-05
11 *762:A *370:91 0.000271211
12 *110:23 *916:A 0
13 *110:23 *314:12 0
14 *110:23 *314:16 2.87111e-05
15 *110:23 *318:10 0
16 *110:23 *370:97 0
17 *624:A *624:B 5.50049e-05
18 *52:13 *762:A 1.83444e-05
19 *52:13 *110:6 4.2573e-05
20 *55:17 *624:B 0
21 *95:10 *762:A 5.67058e-05
22 *95:10 *110:23 2.76611e-06
23 *108:10 *624:B 0
24 *108:10 *110:23 0
25 *109:14 *110:23 1.86869e-05
*RES
1 *623:Y *110:6 23.6214 
2 *110:6 *762:A 32.3836 
3 *110:6 *110:23 19.0186 
4 *110:23 *624:B 40.8793 
5 *110:23 *625:B 38 
*END

*D_NET *111 0.00209884
*CONN
*I *630:A2 I *D sky130_fd_sc_hd__o21a_1
*I *761:B1 I *D sky130_fd_sc_hd__a21o_1
*I *624:X O *D sky130_fd_sc_hd__or2_1
*CAP
1 *630:A2 0
2 *761:B1 0.000148972
3 *624:X 0
4 *111:29 0.000469667
5 *111:6 0.000618639
6 *761:B1 *739:A2 2.96154e-05
7 *761:B1 *857:A 5.67058e-05
8 *761:B1 *116:10 0
9 *761:B1 *119:10 0
10 *761:B1 *224:32 5.50106e-05
11 *761:B1 *242:8 3.56386e-05
12 *761:B1 *314:16 0
13 *111:29 *227:41 0.0003162
14 *111:29 *228:34 0.000246095
15 *111:29 *242:8 6.10551e-06
16 *111:29 *314:16 0
17 *111:29 *316:20 9.86551e-06
18 *55:17 *111:29 7.50384e-05
19 *60:17 *111:29 3.12873e-05
*RES
1 *624:X *111:6 38 
2 *111:6 *761:B1 41.2314 
3 *111:6 *111:29 33.2437 
4 *111:29 *630:A2 23 
*END

*D_NET *112 0.00320502
*CONN
*I *626:B I *D sky130_fd_sc_hd__nor2_1
*I *763:B I *D sky130_fd_sc_hd__and3_1
*I *625:X O *D sky130_fd_sc_hd__or2_1
*CAP
1 *626:B 0
2 *763:B 0
3 *625:X 0.00012763
4 *112:23 0.000765584
5 *112:6 0.000893214
6 *112:6 *763:C 5.27215e-06
7 *112:23 *749:B1 5.50049e-05
8 *112:23 *763:C 8.9521e-07
9 *112:23 *113:10 2.98767e-05
10 *112:23 *226:31 4.5051e-05
11 *112:23 *227:27 5.61255e-06
12 *112:23 *227:41 0.000151182
13 *112:23 *234:10 2.93747e-05
14 *112:23 *243:8 0.000476732
15 *112:23 *296:10 2.76611e-06
16 *112:23 *305:89 0
17 *112:23 *316:20 4.75873e-05
18 *764:A *112:23 0.000183799
19 *107:16 *112:23 0.000385442
*RES
1 *625:X *112:6 24.5743 
2 *112:6 *763:B 23 
3 *112:6 *112:23 44.7279 
4 *112:23 *626:B 23 
*END

*D_NET *113 0.00275813
*CONN
*I *628:B1 I *D sky130_fd_sc_hd__a211o_1
*I *626:Y O *D sky130_fd_sc_hd__nor2_1
*CAP
1 *628:B1 0.00063608
2 *626:Y 0.000219652
3 *113:10 0.000855731
4 *628:B1 *620:A 0.000153335
5 *628:B1 *628:C1 4.96362e-05
6 *628:B1 *917:A 0.000390679
7 *628:B1 *318:18 6.38109e-05
8 *113:10 *226:31 2.75733e-06
9 *113:10 *227:27 0.000136743
10 *113:10 *228:10 0
11 *113:10 *234:10 0.000215202
12 acc[26] *113:10 4.6318e-06
13 *55:17 *113:10 0
14 *112:23 *113:10 2.98767e-05
*RES
1 *626:Y *113:10 42.8886 
2 *113:10 *628:B1 47.57 
*END

*D_NET *114 0.000175189
*CONN
*I *628:C1 I *D sky130_fd_sc_hd__a211o_1
*I *627:X O *D sky130_fd_sc_hd__o211a_1
*CAP
1 *628:C1 2.84097e-05
2 *627:X 2.84097e-05
3 *628:C1 *620:A 9.72057e-06
4 *628:C1 *318:18 5.90132e-05
5 *628:B1 *628:C1 4.96362e-05
*RES
1 *627:X *628:C1 47.1186 
*END

*D_NET *115 0.00101907
*CONN
*I *629:A I *D sky130_fd_sc_hd__inv_2
*I *628:X O *D sky130_fd_sc_hd__a211o_1
*CAP
1 *629:A 0
2 *628:X 0.0002561
3 *115:10 0.0002561
4 *115:10 *628:A2 1.24376e-05
5 *115:10 *747:A 0
6 *115:10 *116:10 4.21594e-06
7 *115:10 *318:10 0.000289406
8 *115:10 *353:12 2.30292e-05
9 *55:17 *115:10 0.000177781
10 *108:10 *115:10 0
*RES
1 *628:X *115:10 43.8207 
2 *115:10 *629:A 38 
*END

*D_NET *116 0.00263419
*CONN
*I *630:B1 I *D sky130_fd_sc_hd__o21a_1
*I *739:A1 I *D sky130_fd_sc_hd__a311o_1
*I *738:A1 I *D sky130_fd_sc_hd__a31oi_1
*I *629:Y O *D sky130_fd_sc_hd__inv_2
*CAP
1 *630:B1 0.000352683
2 *739:A1 2.77218e-05
3 *738:A1 0.000272513
4 *629:Y 6.08642e-05
5 *116:10 0.000454432
6 *116:6 0.000567744
7 *630:B1 *743:A_N 4.09681e-05
8 *630:B1 *743:B 6.39489e-06
9 *630:B1 *229:20 4.29883e-05
10 *738:A1 *747:A 0.000108681
11 *738:A1 *747:B 3.20007e-05
12 *738:A1 *117:24 0.000246299
13 *738:A1 *225:10 8.98844e-06
14 *739:A1 *857:A 5.3304e-05
15 *739:A1 *117:24 2.64616e-05
16 *116:6 *318:10 7.53384e-06
17 *116:10 *747:A 0.000267951
18 *116:10 *117:24 5.24393e-05
19 *116:10 *242:8 0
20 *761:B1 *116:10 0
21 *115:10 *116:10 4.21594e-06
*RES
1 *629:Y *116:6 24.0979 
2 *116:6 *116:10 18.6664 
3 *116:10 *738:A1 43.4271 
4 *116:10 *739:A1 38.6214 
5 *116:6 *630:B1 28.4686 
*END

*D_NET *117 0.00217564
*CONN
*I *739:B1 I *D sky130_fd_sc_hd__a311o_1
*I *738:B1 I *D sky130_fd_sc_hd__a31oi_1
*I *630:X O *D sky130_fd_sc_hd__o21a_1
*CAP
1 *739:B1 1.49769e-05
2 *738:B1 0
3 *630:X 0.000178568
4 *117:24 0.000260821
5 *117:12 0.000355108
6 *117:8 0.000257879
7 *739:B1 *739:A2 1.37232e-05
8 *739:B1 *744:B 0
9 *117:8 *323:12 0.000228103
10 *117:8 *351:30 0.000228103
11 *117:12 *857:A 8.48502e-06
12 *117:12 *226:8 9.62666e-05
13 *117:24 *747:A 1.12487e-05
14 *117:24 *747:B 4.37033e-05
15 *117:24 *857:A 1.21972e-05
16 *117:24 *224:40 0
17 *117:24 *225:10 4.04598e-06
18 *117:24 *226:8 4.67488e-05
19 *738:A1 *117:24 0.000246299
20 *739:A1 *117:24 2.64616e-05
21 *739:C1 *739:B1 1.14154e-05
22 *739:C1 *117:12 2.93747e-05
23 *103:16 *117:12 4.96717e-05
24 *116:10 *117:24 5.24393e-05
*RES
1 *630:X *117:8 41.3143 
2 *117:8 *117:12 17.0507 
3 *117:12 *117:24 35.3029 
4 *117:24 *738:B1 23 
5 *117:12 *739:B1 23.4971 
*END

*D_NET *118 0.00326202
*CONN
*I *739:A2 I *D sky130_fd_sc_hd__a311o_1
*I *761:A1 I *D sky130_fd_sc_hd__a21o_1
*I *633:A I *D sky130_fd_sc_hd__nand2_1
*I *758:A I *D sky130_fd_sc_hd__nand2_1
*I *738:A2 I *D sky130_fd_sc_hd__a31oi_1
*I *631:Y O *D sky130_fd_sc_hd__nand2_1
*CAP
1 *739:A2 0.000166049
2 *761:A1 0
3 *633:A 0
4 *758:A 1.50079e-05
5 *738:A2 5.43738e-05
6 *631:Y 0.000272758
7 *118:33 0.000240198
8 *118:25 0.000314116
9 *118:21 0.000316167
10 *118:10 0.000388324
11 *738:A2 *224:40 2.64616e-05
12 *739:A2 *739:A3 0.000181098
13 *739:A2 *857:A 1.76557e-05
14 *739:A2 *119:10 0
15 *739:A2 *224:32 5.3304e-05
16 *739:A2 *224:40 8.72173e-05
17 *739:A2 *226:8 0.000143655
18 *758:A *857:A 5.50049e-05
19 *758:A *120:10 5.50049e-05
20 *118:10 *631:A 7.53384e-06
21 *118:10 *631:B 0.000128391
22 *118:10 *632:A 1.22822e-05
23 *118:10 *224:40 6.87573e-05
24 *118:10 *301:28 0
25 *118:10 *314:16 0
26 *118:10 *351:12 3.0647e-05
27 *118:21 *224:40 8.4047e-05
28 *118:25 *857:A 0.000141954
29 *118:33 *857:A 0.000267167
30 *118:33 *120:10 3.20914e-05
31 *118:33 *314:16 5.94125e-05
32 *739:B1 *739:A2 1.37232e-05
33 *761:B1 *739:A2 2.96154e-05
*RES
1 *631:Y *118:10 43.51 
2 *118:10 *738:A2 38.6214 
3 *118:10 *118:21 1.20143 
4 *118:21 *118:25 16.5743 
5 *118:25 *118:33 33.8529 
6 *118:33 *758:A 23.6214 
7 *118:33 *633:A 23 
8 *118:25 *761:A1 23 
9 *118:21 *739:A2 42.93 
*END

*D_NET *119 0.000461285
*CONN
*I *633:B I *D sky130_fd_sc_hd__nand2_1
*I *632:X O *D sky130_fd_sc_hd__or2_1
*CAP
1 *633:B 0
2 *632:X 0.000133396
3 *119:10 0.000133396
4 *119:10 *632:A 5.67058e-05
5 *119:10 *314:16 0.000137788
6 *739:A2 *119:10 0
7 *761:B1 *119:10 0
*RES
1 *632:X *119:10 40.5271 
2 *119:10 *633:B 38 
*END

*D_NET *120 0.00184966
*CONN
*I *756:A I *D sky130_fd_sc_hd__and3_1
*I *736:B1 I *D sky130_fd_sc_hd__a21oi_1
*I *737:B1 I *D sky130_fd_sc_hd__a21o_1
*I *633:Y O *D sky130_fd_sc_hd__nand2_1
*CAP
1 *756:A 0
2 *736:B1 5.11923e-05
3 *737:B1 0
4 *633:Y 0.000194518
5 *120:18 0.000188741
6 *120:14 0.000174255
7 *120:10 0.000231225
8 *736:B1 *737:A1 5.90675e-06
9 *736:B1 *737:A2 5.67058e-05
10 *736:B1 *756:B 2.9938e-05
11 *736:B1 *756:C 0.000187129
12 *736:B1 *218:23 2.4754e-05
13 *120:10 *857:A 4.21378e-05
14 *120:10 *224:8 0
15 *120:10 *224:23 0.000140259
16 *120:10 *314:16 3.92014e-05
17 *120:18 *632:A 0
18 *120:18 *756:B 0.000205566
19 *120:18 *756:C 0.000191037
20 *758:A *120:10 5.50049e-05
21 *118:33 *120:10 3.20914e-05
*RES
1 *633:Y *120:10 42.1843 
2 *120:10 *120:14 15.6214 
3 *120:14 *120:18 5.40643 
4 *120:18 *737:B1 23 
5 *120:18 *736:B1 25.5479 
6 *120:14 *756:A 23 
*END

*D_NET *121 0.000851546
*CONN
*I *637:A I *D sky130_fd_sc_hd__nand2_1
*I *646:B1 I *D sky130_fd_sc_hd__o21a_1
*I *634:Y O *D sky130_fd_sc_hd__nand2_1
*CAP
1 *637:A 0
2 *646:B1 0
3 *634:Y 7.03119e-05
4 *121:16 0.000122173
5 *121:8 0.000192485
6 *121:8 *634:A 2.36126e-05
7 *121:8 *795:A 0
8 *121:8 *124:21 2.32101e-05
9 *121:8 *280:14 5.50049e-05
10 *121:8 *335:35 1.32314e-05
11 *121:16 *646:A2 5.41385e-05
12 *121:16 *123:10 9.98995e-05
13 *121:16 *280:14 0.000197479
*RES
1 *634:Y *121:8 24.595 
2 *121:8 *121:16 33.7079 
3 *121:16 *646:B1 23 
4 *121:8 *637:A 23 
*END

*D_NET *122 0.000248194
*CONN
*I *646:A1 I *D sky130_fd_sc_hd__o21a_1
*I *635:Y O *D sky130_fd_sc_hd__nor2_1
*CAP
1 *646:A1 0.0001064
2 *635:Y 0.0001064
3 *646:A1 *328:29 8.06804e-06
4 *646:A1 *335:25 2.73248e-05
*RES
1 *635:Y *646:A1 47.595 
*END

*D_NET *123 0.000855175
*CONN
*I *637:B I *D sky130_fd_sc_hd__nand2_1
*I *636:X O *D sky130_fd_sc_hd__or2_1
*CAP
1 *637:B 0
2 *636:X 0.000283273
3 *123:10 0.000283273
4 *123:10 *636:A 5.37348e-06
5 *123:10 *900:A 0
6 *123:10 *133:10 0.000141879
7 *123:10 *280:14 1.36079e-05
8 *123:10 *328:29 2.5415e-05
9 *39:19 *123:10 0
10 *67:11 *123:10 2.45549e-06
11 *121:16 *123:10 9.98995e-05
*RES
1 *636:X *123:10 43.8207 
2 *123:10 *637:B 38 
*END

*D_NET *124 0.00405714
*CONN
*I *644:A I *D sky130_fd_sc_hd__or3_1
*I *645:A I *D sky130_fd_sc_hd__or3_1
*I *795:A I *D sky130_fd_sc_hd__xnor2_1
*I *637:Y O *D sky130_fd_sc_hd__nand2_1
*CAP
1 *644:A 0.000188732
2 *645:A 0.000432846
3 *795:A 0.000233832
4 *637:Y 0
5 *124:21 0.000953455
6 *124:4 0.00056571
7 *644:A *127:42 3.39192e-05
8 *644:A *130:8 0
9 *644:A *303:20 0.000136486
10 *644:A *303:22 4.65727e-05
11 *644:A *330:10 0
12 *645:A *643:A 0.000342591
13 *645:A *645:C 0.000147606
14 *645:A *793:A 5.3304e-05
15 *645:A *127:14 0.000178517
16 *645:A *128:15 0.000124306
17 *645:A *329:10 5.3304e-05
18 *795:A *280:14 9.84851e-05
19 *795:A *339:10 6.17437e-06
20 *795:A *368:56 5.41385e-05
21 *124:21 *634:A 2.80924e-06
22 *124:21 *280:14 8.52481e-05
23 *124:21 *303:22 0.000107212
24 *124:21 *330:10 0
25 *124:21 *335:35 1.76557e-05
26 *38:13 *124:21 3.16784e-05
27 *39:19 *795:A 0
28 *65:15 *645:A 0.000139346
29 *121:8 *795:A 0
30 *121:8 *124:21 2.32101e-05
*RES
1 *637:Y *124:4 23 
2 *124:4 *795:A 27.35 
3 *124:4 *124:21 20.0336 
4 *124:21 *645:A 47.6943 
5 *124:21 *644:A 41.3143 
*END

*D_NET *125 0.00586944
*CONN
*I *640:A I *D sky130_fd_sc_hd__nand2_1
*I *646:A2 I *D sky130_fd_sc_hd__o21a_1
*I *794:B1_N I *D sky130_fd_sc_hd__a21bo_1
*I *638:Y O *D sky130_fd_sc_hd__nand2_1
*CAP
1 *640:A 9.08728e-05
2 *646:A2 0.000480316
3 *794:B1_N 0
4 *638:Y 0.000145702
5 *125:26 0.000197467
6 *125:18 0.000853093
7 *125:10 0.000804641
8 *125:8 0.000684161
9 *640:A *126:31 0.000114959
10 *640:A *127:10 0.000139974
11 *640:A *368:18 7.11824e-06
12 *640:A *368:31 3.81016e-05
13 *640:A *368:37 4.17625e-05
14 *646:A2 *639:B 1.94812e-05
15 *646:A2 *126:31 2.64616e-05
16 *646:A2 *133:10 1.73399e-05
17 *646:A2 *317:12 2.43944e-05
18 *646:A2 *331:18 0.000135037
19 *646:A2 *334:8 5.61255e-06
20 *125:8 *166:18 0.000221084
21 *125:10 *681:B 1.32728e-05
22 *125:10 *794:A2 9.97685e-05
23 *125:10 *132:8 0.000348456
24 *125:10 *166:28 0
25 *125:10 *167:10 4.334e-05
26 *125:10 *257:8 1.25212e-05
27 *125:10 *281:10 7.18129e-05
28 *125:10 *317:12 8.37835e-05
29 *125:18 *794:A2 8.45984e-05
30 *125:26 *173:56 0
31 *37:21 *125:10 0.000203194
32 *40:11 *125:10 0.000183171
33 *41:21 *125:10 9.51437e-05
34 *41:21 *125:18 0.000228773
35 *41:21 *125:26 0.000131681
36 *83:8 *125:18 0.000168211
37 *121:16 *646:A2 5.41385e-05
*RES
1 *638:Y *125:8 40.5271 
2 *125:8 *125:10 13.1743 
3 *125:10 *125:18 19.4329 
4 *125:18 *125:26 33.7079 
5 *125:26 *794:B1_N 23 
6 *125:18 *646:A2 31.265 
7 *125:10 *640:A 40.9 
*END

*D_NET *126 0.00192596
*CONN
*I *640:B I *D sky130_fd_sc_hd__nand2_1
*I *794:A1 I *D sky130_fd_sc_hd__a21bo_1
*I *639:X O *D sky130_fd_sc_hd__or2_1
*CAP
1 *640:B 0
2 *794:A1 0
3 *639:X 0
4 *126:31 0.000237669
5 *126:12 0.00013681
6 *126:4 0.000374479
7 *126:12 *794:A2 0.000182663
8 *126:12 *900:A 2.8241e-05
9 *126:12 *258:10 3.62219e-05
10 *126:12 *331:10 5.37348e-06
11 *126:12 *331:18 5.79466e-05
12 *126:31 *794:A2 0.000217473
13 *126:31 *127:10 4.05745e-05
14 *126:31 *317:12 0.00020004
15 *126:31 *331:18 1.22906e-05
16 *126:31 *334:8 2.18286e-05
17 *126:31 *368:37 6.85768e-05
18 *126:31 *368:56 5.3304e-05
19 *640:A *126:31 0.000114959
20 *646:A2 *126:31 2.64616e-05
21 *67:11 *126:12 0.000100805
22 *83:8 *126:12 1.02387e-05
*RES
1 *639:X *126:4 23 
2 *126:4 *126:12 34.06 
3 *126:12 *794:A1 23 
4 *126:4 *126:31 36.6286 
5 *126:31 *640:B 23 
*END

*D_NET *127 0.0048318
*CONN
*I *644:B I *D sky130_fd_sc_hd__or3_1
*I *645:B I *D sky130_fd_sc_hd__or3_1
*I *793:A I *D sky130_fd_sc_hd__xnor2_1
*I *640:Y O *D sky130_fd_sc_hd__nand2_1
*CAP
1 *644:B 0
2 *645:B 0
3 *793:A 0.000323828
4 *640:Y 0.000412141
5 *127:42 0.000593641
6 *127:14 0.000468248
7 *127:10 0.0011502
8 *793:A *645:C 0
9 *793:A *793:B 0.000103603
10 *793:A *279:16 0
11 *127:10 *334:25 8.4047e-05
12 *127:10 *339:10 8.4047e-05
13 *127:10 *368:56 0.000188709
14 *127:42 *644:C 0.000172996
15 *127:42 *791:A 5.50049e-05
16 *127:42 *792:A2 9.45591e-05
17 *127:42 *128:21 7.25516e-05
18 *127:42 *131:10 1.14452e-05
19 *127:42 *134:18 2.33397e-05
20 *127:42 *170:33 1.58805e-05
21 *127:42 *256:12 1.72202e-05
22 *127:42 *303:20 9.5877e-05
23 *127:42 *334:25 0.000226107
24 *127:42 *339:10 4.45778e-05
25 *127:42 *368:56 0.000104912
26 *127:42 *368:65 4.2573e-05
27 *127:42 *368:114 0
28 *640:A *127:10 0.000139974
29 *644:A *127:42 3.39192e-05
30 *645:A *793:A 5.3304e-05
31 *645:A *127:14 0.000178517
32 *126:31 *127:10 4.05745e-05
*RES
1 *640:Y *127:10 44.1107 
2 *127:10 *127:14 17.0507 
3 *127:14 *793:A 27.9714 
4 *127:14 *645:B 23 
5 *127:10 *127:42 42.1593 
6 *127:42 *644:B 38 
*END

*D_NET *128 0.00201327
*CONN
*I *643:A I *D sky130_fd_sc_hd__nand2_1
*I *792:B1_N I *D sky130_fd_sc_hd__a21bo_1
*I *645:C I *D sky130_fd_sc_hd__or3_1
*I *641:Y O *D sky130_fd_sc_hd__nand2_1
*CAP
1 *643:A 0.000113809
2 *792:B1_N 0
3 *645:C 8.12363e-05
4 *641:Y 0
5 *128:21 9.56112e-05
6 *128:15 0.000258577
7 *128:4 0.000130392
8 *643:A *641:B 5.3304e-05
9 *643:A *643:B 6.07084e-05
10 *643:A *129:12 1.03955e-05
11 *643:A *367:22 0.000125213
12 *645:C *642:A 2.77477e-05
13 *645:C *331:22 5.50106e-05
14 *128:15 *641:B 9.67842e-05
15 *128:15 *642:A 2.02872e-05
16 *128:21 *368:56 0.000158727
17 *645:A *643:A 0.000342591
18 *645:A *645:C 0.000147606
19 *645:A *128:15 0.000124306
20 *793:A *645:C 0
21 *65:15 *643:A 3.84128e-05
22 *127:42 *128:21 7.25516e-05
*RES
1 *641:Y *128:4 23 
2 *128:4 *645:C 25.0714 
3 *128:4 *128:15 1.57429 
4 *128:15 *128:21 32.2579 
5 *128:21 *792:B1_N 23 
6 *128:15 *643:A 27.4536 
*END

*D_NET *129 0.0014682
*CONN
*I *643:B I *D sky130_fd_sc_hd__nand2_1
*I *792:A1 I *D sky130_fd_sc_hd__a21bo_1
*I *642:X O *D sky130_fd_sc_hd__or2_1
*CAP
1 *643:B 5.64512e-05
2 *792:A1 0
3 *642:X 0
4 *129:12 0.000371872
5 *129:4 0.000428323
6 *129:12 *642:A 0.000305431
7 *129:12 *317:12 7.28526e-05
8 *129:12 *334:25 0.000141879
9 *129:12 *367:22 2.02872e-05
10 *643:A *643:B 6.07084e-05
11 *643:A *129:12 1.03955e-05
*RES
1 *642:X *129:4 23 
2 *129:4 *129:12 36.3386 
3 *129:12 *792:A1 23 
4 *129:4 *643:B 24.4707 
*END

*D_NET *130 0.000786914
*CONN
*I *644:C I *D sky130_fd_sc_hd__or3_1
*I *791:A I *D sky130_fd_sc_hd__xnor2_1
*I *643:Y O *D sky130_fd_sc_hd__nand2_1
*CAP
1 *644:C 3.15375e-05
2 *791:A 1.50079e-05
3 *643:Y 0.000124011
4 *130:10 4.65454e-05
5 *130:8 0.000124011
6 *644:C *170:33 7.42621e-05
7 *644:C *256:12 5.50106e-05
8 *791:A *256:12 5.50049e-05
9 *130:8 *133:10 0
10 *130:8 *278:8 2.79004e-05
11 *130:8 *368:73 3.87221e-06
12 *130:8 *368:114 1.74874e-06
13 *644:A *130:8 0
14 *127:42 *644:C 0.000172996
15 *127:42 *791:A 5.50049e-05
*RES
1 *643:Y *130:8 39.9057 
2 *130:8 *130:10 15 
3 *130:10 *791:A 23.6214 
4 *130:10 *644:C 25.0507 
*END

*D_NET *131 0.00147587
*CONN
*I *679:B1 I *D sky130_fd_sc_hd__a211oi_1
*I *680:A1 I *D sky130_fd_sc_hd__o211ai_1
*I *644:X O *D sky130_fd_sc_hd__or3_1
*CAP
1 *679:B1 0.000155265
2 *680:A1 0
3 *644:X 0.000135113
4 *131:20 0.000286675
5 *131:10 0.000577052
6 *679:B1 *790:B 0
7 *679:B1 *136:8 0
8 *679:B1 *161:31 1.34542e-05
9 *679:B1 *165:10 4.21594e-06
10 *679:B1 *303:10 0
11 *679:B1 *303:73 0
12 *131:10 *134:18 5.67058e-05
13 *131:10 *135:8 8.05795e-05
14 *131:10 *170:33 4.91355e-05
15 *131:20 *790:A 1.05441e-05
16 *131:20 *790:B 2.82419e-06
17 *131:20 *171:10 2.24608e-05
18 *131:20 *368:73 7.04021e-05
19 *127:42 *131:10 1.14452e-05
*RES
1 *644:X *131:10 41.0554 
2 *131:10 *131:20 32.064 
3 *131:20 *680:A1 23 
4 *131:10 *679:B1 40.4339 
*END

*D_NET *132 0.00202265
*CONN
*I *680:C1 I *D sky130_fd_sc_hd__o211ai_1
*I *645:X O *D sky130_fd_sc_hd__or3_1
*CAP
1 *680:C1 0.000151323
2 *645:X 0.000211253
3 *132:8 0.000362576
4 *680:C1 *169:44 0.000283651
5 *680:C1 *171:20 0.000525686
6 *132:8 *169:44 0
7 *41:21 *132:8 0.000139704
8 *125:10 *132:8 0.000348456
*RES
1 *645:X *132:8 42.7229 
2 *132:8 *680:C1 43.8621 
*END

*D_NET *133 0.00185888
*CONN
*I *680:B1 I *D sky130_fd_sc_hd__o211ai_1
*I *646:X O *D sky130_fd_sc_hd__o21a_1
*CAP
1 *680:B1 0
2 *646:X 0.000594731
3 *133:10 0.000594731
4 *133:10 *280:14 0
5 *133:10 *303:22 0
6 *133:10 *334:25 0
7 *133:10 *339:10 0
8 *133:10 *367:22 4.70953e-05
9 *133:10 *368:56 0.000170598
10 *133:10 *368:73 2.24608e-05
11 *133:10 *368:114 0.000205648
12 *646:A2 *133:10 1.73399e-05
13 *39:19 *133:10 0
14 *81:10 *133:10 6.4393e-05
15 *123:10 *133:10 0.000141879
16 *130:8 *133:10 0
*RES
1 *646:X *133:10 48.9786 
2 *133:10 *680:B1 38 
*END

*D_NET *134 0.00222338
*CONN
*I *649:A I *D sky130_fd_sc_hd__nand2_1
*I *790:A I *D sky130_fd_sc_hd__nand2_1
*I *680:A2 I *D sky130_fd_sc_hd__o211ai_1
*I *647:Y O *D sky130_fd_sc_hd__nand2_1
*CAP
1 *649:A 0
2 *790:A 1.98013e-05
3 *680:A2 8.07136e-05
4 *647:Y 0.000122717
5 *134:42 0.000101867
6 *134:18 0.000518048
7 *134:6 0.000642116
8 *790:A *790:B 4.77164e-06
9 *790:A *170:33 0
10 *790:A *256:8 3.92407e-05
11 *790:A *368:114 1.52259e-05
12 *134:6 *647:A 3.17516e-05
13 *134:6 *648:B 8.06804e-06
14 *134:18 *647:A 3.22879e-05
15 *134:18 *170:33 0.000182826
16 *134:18 *256:8 0.000110922
17 *134:18 *303:20 6.0606e-05
18 *134:18 *368:114 3.46181e-05
19 *134:42 *135:8 4.90891e-05
20 *134:42 *303:20 7.81176e-05
21 *127:42 *134:18 2.33397e-05
22 *131:10 *134:18 5.67058e-05
23 *131:20 *790:A 1.05441e-05
*RES
1 *647:Y *134:6 24.5743 
2 *134:6 *134:18 23.555 
3 *134:18 *680:A2 39.0979 
4 *134:18 *790:A 38.8493 
5 *134:6 *134:42 32.2579 
6 *134:42 *649:A 23 
*END

*D_NET *135 0.000464764
*CONN
*I *649:B I *D sky130_fd_sc_hd__nand2_1
*I *648:X O *D sky130_fd_sc_hd__or2_1
*CAP
1 *649:B 1.80182e-05
2 *648:X 0.000107332
3 *135:8 0.00012535
4 *649:B *818:A 2.93845e-05
5 *649:B *855:A 5.50106e-05
6 *131:10 *135:8 8.05795e-05
7 *134:42 *135:8 4.90891e-05
*RES
1 *648:X *135:8 40.2579 
2 *135:8 *649:B 38.6214 
*END

*D_NET *136 0.00134842
*CONN
*I *788:A I *D sky130_fd_sc_hd__nand3_1
*I *678:B1 I *D sky130_fd_sc_hd__a21o_1
*I *679:C1 I *D sky130_fd_sc_hd__a211oi_1
*I *649:Y O *D sky130_fd_sc_hd__nand2_1
*CAP
1 *788:A 0.000117558
2 *678:B1 9.99249e-06
3 *679:C1 0.000247613
4 *649:Y 6.55472e-05
5 *136:23 0.000161467
6 *136:10 0.00028153
7 *136:8 6.55472e-05
8 *678:B1 *678:A2 2.93104e-06
9 *678:B1 *679:A2 2.93104e-06
10 *679:C1 *679:A2 3.34129e-05
11 *679:C1 *789:B 3.52383e-05
12 *679:C1 *165:10 2.25419e-05
13 *788:A *678:A1 5.3304e-05
14 *788:A *678:A2 1.09903e-05
15 *788:A *679:A2 6.99492e-05
16 *788:A *788:B 1.14154e-05
17 *788:A *161:10 5.3304e-05
18 *788:A *164:21 3.00078e-05
19 *136:8 *303:10 6.07611e-06
20 *136:8 *303:73 3.47776e-05
21 *136:23 *679:A2 3.22879e-05
22 *136:23 *788:B 0
23 *679:B1 *136:8 0
*RES
1 *649:Y *136:8 39.2014 
2 *136:8 *136:10 15 
3 *136:10 *679:C1 26.8529 
4 *136:10 *136:23 1.11857 
5 *136:23 *678:B1 23.4971 
6 *136:23 *788:A 25.5479 
*END

*D_NET *137 0.00396654
*CONN
*I *808:A1 I *D sky130_fd_sc_hd__o21a_1
*I *658:A I *D sky130_fd_sc_hd__nor3_2
*I *659:B1 I *D sky130_fd_sc_hd__a21o_1
*I *810:A I *D sky130_fd_sc_hd__nor2_1
*I *650:X O *D sky130_fd_sc_hd__and2_1
*CAP
1 *808:A1 0
2 *658:A 0
3 *659:B1 0
4 *810:A 0.000109077
5 *650:X 0.000129522
6 *137:50 5.86444e-05
7 *137:39 0.000237934
8 *137:18 0.000553186
9 *137:16 0.000357051
10 *137:12 0.000229917
11 *137:8 0.000267207
12 *810:A *810:B 6.17437e-06
13 *810:A *145:8 4.00259e-06
14 *137:8 *921:A 0.000134585
15 *137:8 *324:8 0.000329214
16 *137:8 *357:10 4.334e-05
17 *137:12 *652:B 0.00010655
18 *137:16 *658:C 9.84851e-05
19 *137:16 *808:A2 0.000217372
20 *137:16 *808:B1 2.4754e-05
21 *137:16 *139:10 1.32939e-05
22 *137:18 *658:C 0.0002246
23 *137:18 *808:A2 0.000185434
24 *137:18 *810:B 2.93845e-05
25 *137:18 *145:8 2.25419e-05
26 *137:18 *266:8 5.10686e-05
27 *137:39 *661:A1 2.93104e-06
28 *137:39 *824:CLK 2.6355e-05
29 *137:39 *145:26 0
30 *137:39 *150:64 2.33476e-05
31 *137:39 *151:54 0.000181945
32 *137:39 *264:18 0.000132749
33 *137:39 *271:8 2.5415e-05
34 *137:39 *275:16 2.47097e-05
35 *137:39 *324:48 3.51395e-05
36 *137:39 *360:10 0
37 *137:39 *360:20 7.45324e-05
38 *137:50 *658:B 0
39 *137:50 *144:8 6.07611e-06
*RES
1 *650:X *137:8 42.7229 
2 *137:8 *137:12 18.0036 
3 *137:12 *137:16 3.50071 
4 *137:16 *137:18 5.38571 
5 *137:18 *810:A 24.9471 
6 *137:18 *137:39 36.1936 
7 *137:39 *659:B1 23 
8 *137:16 *137:50 30.8493 
9 *137:50 *658:A 23 
10 *137:12 *808:A1 23 
*END

*D_NET *138 0.00402443
*CONN
*I *658:B I *D sky130_fd_sc_hd__nor3_2
*I *808:A2 I *D sky130_fd_sc_hd__o21a_1
*I *651:Y O *D sky130_fd_sc_hd__nor2_1
*CAP
1 *658:B 5.52884e-05
2 *808:A2 0.000257757
3 *651:Y 4.68088e-05
4 *138:16 0.00110318
5 *138:8 0.000836948
6 *658:B *145:26 7.70737e-05
7 *138:8 *152:16 4.334e-05
8 *138:8 *275:16 4.08641e-05
9 *138:16 *674:B1 0.000112538
10 *138:16 *674:C1 7.00045e-05
11 *138:16 *145:26 0.000393815
12 *138:16 *360:30 0.000300209
13 *58:15 *138:16 0.000283791
14 *71:8 *138:16 0
15 *137:16 *808:A2 0.000217372
16 *137:18 *808:A2 0.000185434
17 *137:50 *658:B 0
*RES
1 *651:Y *138:8 39.2014 
2 *138:8 *138:16 42.6979 
3 *138:16 *808:A2 42.4329 
4 *138:16 *658:B 39.2014 
*END

*D_NET *139 0.00174483
*CONN
*I *653:A I *D sky130_fd_sc_hd__inv_2
*I *657:B1 I *D sky130_fd_sc_hd__o21a_1
*I *652:Y O *D sky130_fd_sc_hd__nand2_1
*CAP
1 *653:A 0
2 *657:B1 8.16839e-05
3 *652:Y 0.000256139
4 *139:12 8.16839e-05
5 *139:10 0.000256139
6 *657:B1 *143:18 0.000184527
7 *657:B1 *270:10 2.93747e-05
8 *657:B1 *319:12 9.67842e-05
9 *657:B1 *371:38 2.18409e-05
10 *139:10 *652:B 0.000322049
11 *139:10 *140:8 0.000197479
12 *139:10 *144:8 3.28876e-05
13 *139:10 *270:10 0
14 *139:10 *319:16 1.58805e-05
15 *139:10 *345:23 0.000155068
16 *137:16 *139:10 1.32939e-05
*RES
1 *652:Y *139:10 44.6493 
2 *139:10 *139:12 15 
3 *139:12 *657:B1 25.5271 
4 *139:12 *653:A 23 
*END

*D_NET *140 0.0010469
*CONN
*I *655:A I *D sky130_fd_sc_hd__nor2_1
*I *653:Y O *D sky130_fd_sc_hd__inv_2
*CAP
1 *655:A 0.000279877
2 *653:Y 6.34075e-05
3 *140:8 0.000343284
4 *655:A *655:B 6.29487e-05
5 *140:8 *144:8 9.98995e-05
6 *139:10 *140:8 0.000197479
*RES
1 *653:Y *140:8 40.61 
2 *140:8 *655:A 42.93 
*END

*D_NET *141 0.00201191
*CONN
*I *657:A1 I *D sky130_fd_sc_hd__o21a_1
*I *655:B I *D sky130_fd_sc_hd__nor2_1
*I *654:Y O *D sky130_fd_sc_hd__nor2_1
*CAP
1 *657:A1 0
2 *655:B 0.000234869
3 *654:Y 0.000443722
4 *141:10 0.000678591
5 *655:B *823:CLK 0.000218962
6 *655:B *142:10 7.53384e-06
7 *141:10 *822:D 0.000139352
8 *141:10 *823:CLK 0.000138708
9 *141:10 *333:31 8.72216e-05
10 *655:A *655:B 6.29487e-05
*RES
1 *654:Y *141:10 44.815 
2 *141:10 *655:B 43.51 
3 *141:10 *657:A1 38 
*END

*D_NET *142 0.000354823
*CONN
*I *807:A I *D sky130_fd_sc_hd__xnor2_1
*I *655:Y O *D sky130_fd_sc_hd__nor2_1
*CAP
1 *807:A 0
2 *655:Y 0.000173645
3 *142:10 0.000173645
4 *655:B *142:10 7.53384e-06
*RES
1 *655:Y *142:10 40.8793 
2 *142:10 *807:A 38 
*END

*D_NET *143 0.00241512
*CONN
*I *813:A I *D sky130_fd_sc_hd__and2_1
*I *657:A2 I *D sky130_fd_sc_hd__o21a_1
*I *807:B I *D sky130_fd_sc_hd__xnor2_1
*I *656:Y O *D sky130_fd_sc_hd__nand2_1
*CAP
1 *813:A 0
2 *657:A2 0
3 *807:B 0.000118715
4 *656:Y 0.000270729
5 *143:18 0.0002888
6 *143:10 0.000440813
7 *807:B *270:10 9.58714e-05
8 *807:B *371:38 8.09215e-05
9 *143:10 *910:A 6.33511e-05
10 *143:10 *319:16 0.000126343
11 *143:10 *359:8 0.000135037
12 *143:18 *910:A 1.47563e-05
13 *143:18 *270:10 2.80512e-05
14 *143:18 *319:16 0.000191148
15 *143:18 *345:23 7.81176e-05
16 *143:18 *371:38 0.000268074
17 *657:B1 *143:18 0.000184527
18 *853:RESET_B *143:10 2.98648e-05
*RES
1 *656:Y *143:10 42.4329 
2 *143:10 *143:18 21.1107 
3 *143:18 *807:B 26.0243 
4 *143:18 *657:A2 23 
5 *143:10 *813:A 38 
*END

*D_NET *144 0.00145346
*CONN
*I *808:B1 I *D sky130_fd_sc_hd__o21a_1
*I *658:C I *D sky130_fd_sc_hd__nor3_2
*I *657:X O *D sky130_fd_sc_hd__o21a_1
*CAP
1 *808:B1 2.5849e-05
2 *658:C 0.00011775
3 *657:X 0.000195609
4 *144:10 0.000143599
5 *144:8 0.000195609
6 *658:C *266:8 0.000144231
7 *144:8 *652:A 0
8 *144:8 *652:B 0
9 *144:8 *145:26 0
10 *144:8 *270:10 0.00014411
11 *137:16 *658:C 9.84851e-05
12 *137:16 *808:B1 2.4754e-05
13 *137:18 *658:C 0.0002246
14 *137:50 *144:8 6.07611e-06
15 *139:10 *144:8 3.28876e-05
16 *140:8 *144:8 9.98995e-05
*RES
1 *657:X *144:8 42.7229 
2 *144:8 *144:10 15 
3 *144:10 *658:C 26.9771 
4 *144:10 *808:B1 23.6214 
*END

*D_NET *145 0.00289206
*CONN
*I *661:B1 I *D sky130_fd_sc_hd__o22ai_1
*I *674:B1 I *D sky130_fd_sc_hd__o221ai_4
*I *809:A I *D sky130_fd_sc_hd__nor2_1
*I *810:B I *D sky130_fd_sc_hd__nor2_1
*I *658:Y O *D sky130_fd_sc_hd__nor3_2
*CAP
1 *661:B1 0
2 *674:B1 0.000237051
3 *809:A 0
4 *810:B 2.89997e-05
5 *658:Y 0
6 *145:26 0.00057217
7 *145:8 0.000180182
8 *145:4 0.000486302
9 *674:B1 *674:A2 0
10 *674:B1 *146:14 5.3304e-05
11 *674:B1 *148:10 0.000129757
12 *674:B1 *148:14 1.94812e-05
13 *674:B1 *263:12 1.14987e-05
14 *674:B1 *360:30 0.00021677
15 *145:8 *266:8 0.000120432
16 *145:26 *824:CLK 0
17 *145:26 *263:12 0.000105899
18 *145:26 *266:8 4.17736e-05
19 *145:26 *267:8 0
20 *145:26 *271:8 2.5415e-05
21 *145:26 *360:10 0
22 *658:B *145:26 7.70737e-05
23 *810:A *810:B 6.17437e-06
24 *810:A *145:8 4.00259e-06
25 *58:15 *674:B1 1.74959e-05
26 *137:18 *810:B 2.93845e-05
27 *137:18 *145:8 2.25419e-05
28 *137:39 *145:26 0
29 *138:16 *674:B1 0.000112538
30 *138:16 *145:26 0.000393815
31 *144:8 *145:26 0
*RES
1 *658:Y *145:4 23 
2 *145:4 *145:8 2.9 
3 *145:8 *810:B 23.6214 
4 *145:8 *809:A 23 
5 *145:4 *145:26 22.8093 
6 *145:26 *674:B1 43.2821 
7 *145:26 *661:B1 38 
*END

*D_NET *146 0.00108999
*CONN
*I *661:B2 I *D sky130_fd_sc_hd__o22ai_1
*I *674:B2 I *D sky130_fd_sc_hd__o221ai_4
*I *659:X O *D sky130_fd_sc_hd__a21o_1
*CAP
1 *661:B2 3.97588e-05
2 *674:B2 0
3 *659:X 5.41789e-05
4 *146:14 0.000156495
5 *146:6 0.000250433
6 *661:B2 *661:A1 1.24376e-05
7 *661:B2 *148:10 6.17437e-06
8 *146:6 *661:A1 5.3304e-05
9 *146:6 *661:A2 4.67488e-05
10 *146:6 *324:48 1.21972e-05
11 *146:14 *824:CLK 0.000202481
12 *146:14 *263:12 0.000202481
13 *674:B1 *146:14 5.3304e-05
*RES
1 *659:X *146:6 24.0979 
2 *146:6 *146:14 33.5836 
3 *146:14 *674:B2 23 
4 *146:6 *661:B2 23.6214 
*END

*D_NET *147 0.00103948
*CONN
*I *811:A I *D sky130_fd_sc_hd__xnor2_1
*I *660:X O *D sky130_fd_sc_hd__xor2_1
*CAP
1 *811:A 0
2 *660:X 0.000377819
3 *147:10 0.000377819
4 *147:10 *267:8 0
5 *147:10 *321:14 0.00014196
6 *147:10 *332:30 0
7 *147:10 *360:10 0.000141879
*RES
1 *660:X *147:10 44.7736 
2 *147:10 *811:A 38 
*END

*D_NET *148 0.00265559
*CONN
*I *796:A I *D sky130_fd_sc_hd__or2_1
*I *797:A I *D sky130_fd_sc_hd__nand2_1
*I *661:Y O *D sky130_fd_sc_hd__o22ai_1
*CAP
1 *796:A 0.00021813
2 *797:A 0
3 *661:Y 0.00016762
4 *148:22 0.000197103
5 *148:14 0.000562404
6 *148:10 0.000314791
7 *796:A *796:B 9.84851e-05
8 *796:A *798:A 1.75562e-05
9 *796:A *798:B 2.93335e-05
10 *796:A *360:45 4.15389e-05
11 *148:10 *263:12 0.000211597
12 *148:14 *360:30 9.24795e-06
13 *148:14 *360:45 3.16665e-05
14 *148:22 *674:A1 6.01687e-05
15 *148:22 *797:B 1.38007e-05
16 *148:22 *159:29 1.6298e-05
17 *148:22 *324:35 0.000184364
18 *661:B2 *148:10 6.17437e-06
19 *674:B1 *148:10 0.000129757
20 *674:B1 *148:14 1.94812e-05
21 *58:15 *148:10 2.64788e-05
22 *58:15 *148:22 0.00029959
*RES
1 *661:Y *148:10 41.5836 
2 *148:10 *148:14 17.0507 
3 *148:14 *148:22 34.4121 
4 *148:22 *797:A 23 
5 *148:14 *796:A 26.5007 
*END

*D_NET *149 0.00245861
*CONN
*I *666:A I *D sky130_fd_sc_hd__or3_1
*I *802:B1 I *D sky130_fd_sc_hd__a21oi_1
*I *803:A I *D sky130_fd_sc_hd__and3_1
*I *662:Y O *D sky130_fd_sc_hd__xnor2_1
*CAP
1 *666:A 2.81936e-05
2 *802:B1 0
3 *803:A 2.34823e-05
4 *662:Y 0.000180513
5 *149:27 0.000238798
6 *149:12 0.000488446
7 *149:8 0.000434872
8 *666:A *666:C 2.11157e-05
9 *666:A *676:B1 6.16531e-05
10 *666:A *151:35 2.26497e-05
11 *666:A *366:28 7.74839e-06
12 *803:A *666:C 0
13 *149:8 *676:B1 0.000121649
14 *149:8 *162:12 0
15 *149:8 *366:28 0.000186845
16 *149:12 *666:C 7.48997e-05
17 *149:12 *803:C 6.42666e-05
18 *149:12 *827:CLK 3.22409e-05
19 *149:12 *365:26 2.34089e-05
20 *149:27 *803:C 0.000226595
21 *149:27 *827:CLK 1.94693e-05
22 *149:27 *154:10 6.07611e-06
23 *149:27 *159:10 0
24 *149:27 *274:10 5.09008e-05
25 *64:19 *149:8 0.000144789
*RES
1 *662:Y *149:8 42.3707 
2 *149:8 *149:12 18.48 
3 *149:12 *803:A 23.4971 
4 *149:12 *149:27 34.64 
5 *149:27 *802:B1 23 
6 *149:8 *666:A 38.8493 
*END

*D_NET *150 0.0073336
*CONN
*I *665:A I *D sky130_fd_sc_hd__nor2_1
*I *666:B I *D sky130_fd_sc_hd__or3_1
*I *675:B1 I *D sky130_fd_sc_hd__a21oi_1
*I *663:X O *D sky130_fd_sc_hd__and2_1
*CAP
1 *665:A 0
2 *666:B 0.000170336
3 *675:B1 0
4 *663:X 3.11772e-05
5 *150:64 0.00173816
6 *150:35 0.00260583
7 *150:22 0.00034967
8 *150:6 0.00107819
9 *666:B *151:12 1.41966e-05
10 *666:B *151:35 2.05503e-05
11 *666:B *365:26 2.93845e-05
12 *666:B *366:28 2.24608e-05
13 *666:B *367:46 6.19083e-05
14 *150:6 *663:B 6.17437e-06
15 *150:6 *329:18 9.67842e-05
16 *150:6 *365:6 4.6595e-05
17 *150:22 *663:B 0
18 *150:22 *263:29 0.000209661
19 *150:22 *276:8 0
20 *150:22 *329:18 9.56899e-05
21 *150:22 *364:27 7.48688e-05
22 *150:22 *365:6 1.32314e-05
23 *150:35 *928:A 4.15283e-06
24 *150:35 *365:10 0.000117833
25 *150:35 *367:46 0.000383056
26 *150:64 *824:CLK 2.33476e-05
27 *150:64 *155:30 0
28 *150:64 *357:29 1.03597e-05
29 acc[6] *150:35 8.01846e-05
30 acc[9] *150:64 0
31 *5:10 *150:22 2.64616e-05
32 *64:19 *666:B 0
33 *65:15 *666:B 0
34 *65:15 *150:35 0
35 *137:39 *150:64 2.33476e-05
*RES
1 *663:X *150:6 24.0979 
2 *150:6 *150:22 37.25 
3 *150:22 *675:B1 23 
4 *150:6 *150:35 27.9632 
5 *150:35 *666:B 47.2132 
6 *150:35 *150:64 42.2685 
7 *150:64 *665:A 23 
*END

*D_NET *151 0.00493614
*CONN
*I *665:B I *D sky130_fd_sc_hd__nor2_1
*I *676:B2 I *D sky130_fd_sc_hd__o22a_1
*I *666:C I *D sky130_fd_sc_hd__or3_1
*I *664:Y O *D sky130_fd_sc_hd__nor2_1
*CAP
1 *665:B 0
2 *676:B2 0
3 *666:C 0.000108419
4 *664:Y 0.00020269
5 *151:54 0.000542367
6 *151:35 0.000707639
7 *151:14 0.000273692
8 *151:12 0.00020269
9 *666:C *365:26 7.46078e-05
10 *666:C *366:28 2.33476e-05
11 *151:12 *863:A 0.000176699
12 *151:12 *329:10 9.86551e-06
13 *151:12 *332:20 0.000211773
14 *151:12 *367:46 1.39288e-05
15 *151:12 *369:23 2.47015e-05
16 *151:35 *676:B1 0.000207305
17 *151:35 *366:28 0.000178227
18 *151:54 *676:B1 1.14452e-05
19 *151:54 *163:10 6.76063e-05
20 *151:54 *264:18 7.94021e-05
21 *151:54 *275:16 0.000667071
22 *151:54 *366:28 5.33597e-05
23 *666:A *666:C 2.11157e-05
24 *666:A *151:35 2.26497e-05
25 *666:B *151:12 1.41966e-05
26 *666:B *151:35 2.05503e-05
27 *803:A *666:C 0
28 *826:RESET_B *151:54 6.29012e-05
29 *64:19 *151:12 0.000135455
30 *73:10 *151:54 0.000565592
31 *137:39 *151:54 0.000181945
32 *149:12 *666:C 7.48997e-05
*RES
1 *664:Y *151:12 47.2357 
2 *151:12 *151:14 8 
3 *151:14 *666:C 40.5064 
4 *151:14 *151:35 4.25679 
5 *151:35 *676:B2 38 
6 *151:35 *151:54 30.4114 
7 *151:54 *665:B 23 
*END

*D_NET *152 0.0061676
*CONN
*I *806:A I *D sky130_fd_sc_hd__xnor2_1
*I *665:Y O *D sky130_fd_sc_hd__nor2_1
*CAP
1 *806:A 0
2 *665:Y 0.000295748
3 *152:16 0.00149141
4 *152:8 0.00178716
5 *152:8 *321:14 6.94063e-05
6 *152:16 *806:B 4.32782e-05
7 *152:16 *164:8 0.000320642
8 *152:16 *275:16 0.000652305
9 *152:16 *321:14 0.000141888
10 *152:16 *324:56 4.08537e-05
11 *152:16 *327:10 0.000195126
12 *152:16 *327:16 8.21456e-06
13 *152:16 *332:30 0.000359901
14 *152:16 *357:29 1.09886e-05
15 *152:16 *360:14 1.11421e-05
16 *152:16 *366:28 0
17 *152:16 *367:12 2.05503e-05
18 acc[11] *152:16 0.000653107
19 acc[8] *152:16 0
20 *5:10 *152:16 2.25419e-05
21 *64:19 *152:16 0
22 *138:8 *152:16 4.334e-05
*RES
1 *665:Y *152:8 41.48 
2 *152:8 *152:16 46.7757 
3 *152:16 *806:A 23 
*END

*D_NET *153 0.0015486
*CONN
*I *673:A I *D sky130_fd_sc_hd__nor3_1
*I *677:A1 I *D sky130_fd_sc_hd__o31a_1
*I *676:A1 I *D sky130_fd_sc_hd__o22a_1
*I *666:X O *D sky130_fd_sc_hd__or3_1
*CAP
1 *673:A 0.000138001
2 *677:A1 8.08109e-05
3 *676:A1 0
4 *666:X 0.000125309
5 *153:21 0.000283235
6 *153:10 0.000189732
7 *673:A *677:A3 4.2062e-05
8 *677:A1 *677:A3 7.53384e-06
9 *677:A1 *156:14 1.94812e-05
10 *677:A1 *156:21 1.22822e-05
11 *153:10 *163:10 3.77024e-05
12 *153:10 *365:26 2.64616e-05
13 *153:10 *366:28 0.000102317
14 *153:21 *163:10 0.000138708
15 *76:10 *677:A1 5.3304e-05
16 *76:10 *153:10 0.000164401
17 *76:10 *153:21 0.000127263
*RES
1 *666:X *153:10 40.8793 
2 *153:10 *676:A1 38 
3 *153:10 *153:21 16.9057 
4 *153:21 *677:A1 25.0921 
5 *153:21 *673:A 25.0714 
*END

*D_NET *154 0.00597836
*CONN
*I *802:A1 I *D sky130_fd_sc_hd__a21oi_1
*I *803:B I *D sky130_fd_sc_hd__and3_1
*I *669:A I *D sky130_fd_sc_hd__nand2_1
*I *676:A2 I *D sky130_fd_sc_hd__o22a_1
*I *667:Y O *D sky130_fd_sc_hd__nand2_1
*CAP
1 *802:A1 0
2 *803:B 0
3 *669:A 0
4 *676:A2 0
5 *667:Y 0.000423269
6 *154:48 0.000108058
7 *154:35 0.000684703
8 *154:20 0.000947697
9 *154:18 0.000545566
10 *154:12 0.000174514
11 *154:10 0.000423269
12 *154:10 *803:C 1.17049e-05
13 *154:10 *159:10 4.74809e-05
14 *154:10 *159:29 4.95339e-05
15 *154:10 *261:10 4.83941e-05
16 *154:10 *261:44 0.000137651
17 *154:10 *262:10 3.3746e-05
18 *154:10 *274:10 0.000138718
19 *154:10 *303:126 5.94125e-05
20 *154:10 *326:28 5.56356e-05
21 *154:18 *800:B 5.50106e-05
22 *154:18 *800:C 7.44257e-05
23 *154:18 *925:A 0
24 *154:18 *262:10 1.03836e-05
25 *154:18 *263:12 7.15126e-05
26 *154:18 *263:29 5.41385e-05
27 *154:20 *163:10 0.000101436
28 *154:35 *156:10 0.000526027
29 *154:35 *163:10 1.32314e-05
30 *154:35 *301:12 0.000389028
31 *154:35 *329:10 5.50049e-05
32 *154:35 *332:30 0.000174176
33 *154:35 *366:28 6.29162e-05
34 *154:35 *367:12 5.50049e-05
35 *154:35 *369:23 0.000122975
36 *154:35 *369:32 9.63712e-05
37 *154:35 *369:47 4.07715e-05
38 *154:48 *803:C 1.59559e-05
39 *154:48 *827:CLK 8.04879e-05
40 *154:48 *263:12 1.01436e-05
41 *154:48 *365:26 5.50106e-05
42 *62:15 *154:18 0
43 *74:10 *154:10 1.89178e-05
44 *149:27 *154:10 6.07611e-06
*RES
1 *667:Y *154:10 45.7264 
2 *154:10 *154:12 15 
3 *154:12 *154:18 4.35 
4 *154:18 *154:20 3.00357 
5 *154:20 *676:A2 23 
6 *154:20 *154:35 46.5714 
7 *154:35 *669:A 23 
8 *154:18 *154:48 31.8229 
9 *154:48 *803:B 23 
10 *154:12 *802:A1 23 
*END

*D_NET *155 0.00629762
*CONN
*I *669:B I *D sky130_fd_sc_hd__nand2_1
*I *668:X O *D sky130_fd_sc_hd__or2_1
*CAP
1 *669:B 0
2 *668:X 0.00029528
3 *155:30 0.00167564
4 *155:14 0.00197092
5 *155:14 *928:A 1.79662e-05
6 *155:30 *817:A 1.24376e-05
7 *155:30 *303:73 1.9574e-05
8 *155:30 *357:29 0.00106379
9 *155:30 *366:10 3.7122e-06
10 *155:30 *368:103 0.000385462
11 *155:30 *369:66 4.82745e-05
12 acc[9] *155:30 0.000360077
13 *827:RESET_B *155:14 4.45778e-05
14 *29:8 *155:14 0.000135037
15 *63:17 *155:30 0.000264856
16 *150:64 *155:30 0
*RES
1 *668:X *155:14 48.5182 
2 *155:14 *155:30 45.2282 
3 *155:30 *669:B 23 
*END

*D_NET *156 0.00472542
*CONN
*I *799:B1 I *D sky130_fd_sc_hd__a21o_1
*I *800:A I *D sky130_fd_sc_hd__nand3_1
*I *673:B I *D sky130_fd_sc_hd__nor3_1
*I *677:A2 I *D sky130_fd_sc_hd__o31a_1
*I *669:Y O *D sky130_fd_sc_hd__nand2_1
*CAP
1 *799:B1 0.000168786
2 *800:A 0.000106855
3 *673:B 0
4 *677:A2 0
5 *669:Y 0.000295689
6 *156:32 0.000391032
7 *156:21 0.00026879
8 *156:14 0.000319164
9 *156:10 0.000461455
10 *799:B1 *261:10 3.17634e-05
11 *799:B1 *261:44 5.70419e-05
12 *799:B1 *263:12 0.000167443
13 *799:B1 *303:99 0.000159531
14 *800:A *827:CLK 0.000141869
15 *800:A *263:12 0.000268212
16 *800:A *303:99 0.000136486
17 *156:10 *817:A 4.67488e-05
18 *156:10 *332:30 0.00052694
19 *156:21 *677:A3 0.000223692
20 *156:32 *677:A3 4.4577e-05
21 *677:A1 *156:14 1.94812e-05
22 *677:A1 *156:21 1.22822e-05
23 *74:10 *799:B1 0.000310641
24 *76:10 *156:14 4.09176e-05
25 *154:35 *156:10 0.000526027
*RES
1 *669:Y *156:10 46.2857 
2 *156:10 *156:14 17.5271 
3 *156:14 *677:A2 23 
4 *156:14 *156:21 3.00357 
5 *156:21 *673:B 23 
6 *156:21 *156:32 16.595 
7 *156:32 *800:A 41.6664 
8 *156:32 *799:B1 43.7379 
*END

*D_NET *157 0.00697055
*CONN
*I *672:A I *D sky130_fd_sc_hd__nand2_1
*I *799:A1 I *D sky130_fd_sc_hd__a21o_1
*I *677:A3 I *D sky130_fd_sc_hd__o31a_1
*I *800:B I *D sky130_fd_sc_hd__nand3_1
*I *670:Y O *D sky130_fd_sc_hd__nand2_1
*CAP
1 *672:A 0
2 *799:A1 0
3 *677:A3 0.000221963
4 *800:B 0.000169604
5 *670:Y 6.7338e-05
6 *157:59 0.000480672
7 *157:20 0.000718211
8 *157:14 0.000720523
9 *157:12 0.000982785
10 *157:8 0.000175572
11 *677:A3 *673:C 0.000132136
12 *800:B *803:C 0.000185755
13 *800:B *261:10 4.92689e-05
14 *800:B *262:10 6.17437e-06
15 *800:B *263:12 0.000238185
16 *157:8 *670:A 3.33677e-05
17 *157:8 *362:42 3.56604e-05
18 *157:12 *362:42 0.000126914
19 *157:14 *362:27 1.56762e-05
20 *157:14 *362:42 5.50049e-05
21 *157:20 *159:29 0
22 *157:20 *261:10 0.000114092
23 *157:20 *263:12 0.000236614
24 *157:59 *670:A 5.01986e-05
25 *157:59 *158:8 7.20786e-05
26 *157:59 *159:8 6.69899e-05
27 *157:59 *325:10 0.000373081
28 *157:59 *326:28 1.37246e-05
29 *157:59 *363:8 4.9662e-05
30 *157:59 *364:43 0.000215773
31 *673:A *677:A3 4.2062e-05
32 *677:A1 *677:A3 7.53384e-06
33 *826:RESET_B *677:A3 4.05745e-05
34 *827:RESET_B *157:59 0.000212293
35 *74:10 *157:14 0.00042453
36 *74:10 *157:20 0.000313255
37 *154:18 *800:B 5.50106e-05
38 *156:21 *677:A3 0.000223692
39 *156:32 *677:A3 4.4577e-05
*RES
1 *670:Y *157:8 39.2014 
2 *157:8 *157:12 16.5743 
3 *157:12 *157:14 5.86214 
4 *157:14 *157:20 21.7943 
5 *157:20 *800:B 41.9357 
6 *157:20 *677:A3 43.075 
7 *157:14 *799:A1 23 
8 *157:12 *157:59 42.3146 
9 *157:59 *672:A 23 
*END

*D_NET *158 0.00143143
*CONN
*I *672:B I *D sky130_fd_sc_hd__nand2_1
*I *671:X O *D sky130_fd_sc_hd__or2_1
*CAP
1 *672:B 0
2 *671:X 0.000222852
3 *158:8 0.000222852
4 *158:8 *667:B 0.00031776
5 *158:8 *926:A 8.79103e-05
6 *158:8 *326:28 0.000326964
7 *158:8 *363:21 0.000181013
8 *158:8 *364:43 0
9 *157:59 *158:8 7.20786e-05
*RES
1 *671:X *158:8 45.8921 
2 *158:8 *672:B 38 
*END

*D_NET *159 0.00556491
*CONN
*I *797:B I *D sky130_fd_sc_hd__nand2_1
*I *796:B I *D sky130_fd_sc_hd__or2_1
*I *673:C I *D sky130_fd_sc_hd__nor3_1
*I *672:Y O *D sky130_fd_sc_hd__nand2_1
*CAP
1 *797:B 0.00035939
2 *796:B 2.44422e-05
3 *673:C 0.000283878
4 *672:Y 0.000666461
5 *159:29 0.000626659
6 *159:10 0.000788928
7 *159:8 0.000928684
8 *673:C *303:126 9.5877e-05
9 *796:B *360:45 5.41385e-05
10 *797:B *674:A1 5.80693e-05
11 *797:B *260:12 5.97975e-05
12 *797:B *324:35 0.000110379
13 *797:B *326:10 0
14 *159:8 *365:26 2.82835e-05
15 *159:10 *928:A 0
16 *159:10 *261:44 0.000246757
17 *159:10 *263:29 0.000102795
18 *159:10 *274:10 0.00033674
19 *159:10 *367:46 0
20 *159:29 *799:A2 2.74987e-05
21 *159:29 *800:C 5.92738e-07
22 *159:29 *261:44 0.000138708
23 *159:29 *263:12 0
24 *159:29 *326:10 0
25 *677:A3 *673:C 0.000132136
26 *796:A *796:B 9.84851e-05
27 *826:RESET_B *673:C 0.000189724
28 *58:15 *159:29 2.12347e-06
29 *63:17 *797:B 1.02561e-05
30 *148:22 *797:B 1.38007e-05
31 *148:22 *159:29 1.6298e-05
32 *149:27 *159:10 0
33 *154:10 *159:10 4.74809e-05
34 *154:10 *159:29 4.95339e-05
35 *157:20 *159:29 0
36 *157:59 *159:8 6.69899e-05
*RES
1 *672:Y *159:8 46.2443 
2 *159:8 *159:10 7.18786 
3 *159:10 *673:C 43.7171 
4 *159:10 *159:29 4.72286 
5 *159:29 *796:B 39.0979 
6 *159:29 *797:B 44.1521 
*END

*D_NET *160 0.00133105
*CONN
*I *674:C1 I *D sky130_fd_sc_hd__o221ai_4
*I *673:Y O *D sky130_fd_sc_hd__nor3_1
*CAP
1 *674:C1 0.000155082
2 *673:Y 0.000120748
3 *160:8 0.00027583
4 *674:C1 *360:30 6.17437e-06
5 *160:8 *264:18 0.000351608
6 *73:10 *160:8 0.000351608
7 *138:16 *674:C1 7.00045e-05
*RES
1 *673:Y *160:8 42.7229 
2 *160:8 *674:C1 40.5271 
*END

*D_NET *161 0.00205723
*CONN
*I *788:B I *D sky130_fd_sc_hd__nand3_1
*I *679:A1 I *D sky130_fd_sc_hd__a211oi_1
*I *678:A1 I *D sky130_fd_sc_hd__a21o_1
*I *674:Y O *D sky130_fd_sc_hd__o221ai_4
*CAP
1 *788:B 1.91207e-05
2 *679:A1 0
3 *678:A1 4.66306e-05
4 *674:Y 0.000301926
5 *161:31 0.000342952
6 *161:10 0.000472299
7 *161:8 0.000403763
8 *788:B *164:21 5.90675e-06
9 *161:8 *164:12 0.000135037
10 *161:8 *164:21 2.43944e-05
11 *161:10 *164:21 1.21972e-05
12 *161:31 *366:10 4.51431e-05
13 *161:31 *368:73 0
14 *161:31 *368:103 0.000116386
15 *679:B1 *161:31 1.34542e-05
16 *788:A *678:A1 5.3304e-05
17 *788:A *788:B 1.14154e-05
18 *788:A *161:10 5.3304e-05
19 *136:23 *788:B 0
*RES
1 *674:Y *161:8 27.205 
2 *161:8 *161:10 1.09786 
3 *161:10 *678:A1 23.6214 
4 *161:10 *161:31 47.6514 
5 *161:31 *679:A1 23 
6 *161:8 *788:B 23.4971 
*END

*D_NET *162 0.00281703
*CONN
*I *676:B1 I *D sky130_fd_sc_hd__o22a_1
*I *675:Y O *D sky130_fd_sc_hd__a21oi_1
*CAP
1 *676:B1 0.000317359
2 *675:Y 0.000611284
3 *162:12 0.000928643
4 *676:B1 *827:CLK 2.0342e-05
5 *676:B1 *264:18 0.00015754
6 *162:12 *827:CLK 0
7 *162:12 *263:29 0
8 *162:12 *276:8 3.49621e-05
9 acc[11] *162:12 5.1358e-05
10 *666:A *676:B1 6.16531e-05
11 *5:10 *162:12 0.000265466
12 *64:19 *162:12 2.80264e-05
13 *149:8 *676:B1 0.000121649
14 *149:8 *162:12 0
15 *151:35 *676:B1 0.000207305
16 *151:54 *676:B1 1.14452e-05
*RES
1 *675:Y *162:12 46.9175 
2 *162:12 *676:B1 43.6032 
*END

*D_NET *163 0.00100693
*CONN
*I *677:B1 I *D sky130_fd_sc_hd__o31a_1
*I *676:X O *D sky130_fd_sc_hd__o22a_1
*CAP
1 *677:B1 0
2 *676:X 0.000263752
3 *163:10 0.000263752
4 *163:10 *275:16 1.59312e-05
5 *163:10 *366:28 0.000104815
6 *151:54 *163:10 6.76063e-05
7 *153:10 *163:10 3.77024e-05
8 *153:21 *163:10 0.000138708
9 *154:20 *163:10 0.000101436
10 *154:35 *163:10 1.32314e-05
*RES
1 *676:X *163:10 43.4893 
2 *163:10 *677:B1 38 
*END

*D_NET *164 0.00220224
*CONN
*I *678:A2 I *D sky130_fd_sc_hd__a21o_1
*I *679:A2 I *D sky130_fd_sc_hd__a211oi_1
*I *788:C I *D sky130_fd_sc_hd__nand3_1
*I *677:X O *D sky130_fd_sc_hd__o31a_1
*CAP
1 *678:A2 9.54263e-06
2 *679:A2 0.000114018
3 *788:C 0
4 *677:X 0.000130307
5 *164:21 0.00028176
6 *164:12 0.000246123
7 *164:8 0.00021823
8 *679:A2 *165:10 5.67058e-05
9 *679:A2 *255:10 0.000114846
10 *164:8 *332:30 0.000320642
11 *164:21 *255:10 2.93747e-05
12 *678:B1 *678:A2 2.93104e-06
13 *678:B1 *679:A2 2.93104e-06
14 *679:C1 *679:A2 3.34129e-05
15 *788:A *678:A2 1.09903e-05
16 *788:A *679:A2 6.99492e-05
17 *788:A *164:21 3.00078e-05
18 *788:B *164:21 5.90675e-06
19 *136:23 *679:A2 3.22879e-05
20 *152:16 *164:8 0.000320642
21 *161:8 *164:12 0.000135037
22 *161:8 *164:21 2.43944e-05
23 *161:10 *164:21 1.21972e-05
*RES
1 *677:X *164:8 42.3707 
2 *164:8 *164:12 16.5743 
3 *164:12 *788:C 23 
4 *164:12 *164:21 2.9 
5 *164:21 *679:A2 26.5007 
6 *164:21 *678:A2 23.4971 
*END

*D_NET *165 0.00117687
*CONN
*I *789:A I *D sky130_fd_sc_hd__and2_1
*I *790:B I *D sky130_fd_sc_hd__nand2_1
*I *678:X O *D sky130_fd_sc_hd__a21o_1
*CAP
1 *789:A 0
2 *790:B 0.000216646
3 *678:X 0.00016103
4 *165:10 0.000377675
5 *790:B *170:33 4.77164e-06
6 *790:B *368:114 0
7 *165:10 *789:B 0.000183733
8 *165:10 *255:10 0.00014196
9 *165:10 *303:73 0
10 *165:10 *368:114 0
11 *679:A2 *165:10 5.67058e-05
12 *679:B1 *790:B 0
13 *679:B1 *165:10 4.21594e-06
14 *679:C1 *165:10 2.25419e-05
15 *790:A *790:B 4.77164e-06
16 *131:20 *790:B 2.82419e-06
*RES
1 *678:X *165:10 42.3293 
2 *165:10 *790:B 41.7079 
3 *165:10 *789:A 38 
*END

*D_NET *166 0.00355216
*CONN
*I *681:A I *D sky130_fd_sc_hd__or2_1
*I *697:A1 I *D sky130_fd_sc_hd__o211a_1
*I *679:Y O *D sky130_fd_sc_hd__a211oi_1
*CAP
1 *681:A 0
2 *697:A1 0
3 *679:Y 8.17272e-05
4 *166:28 0.000294017
5 *166:18 0.00108002
6 *166:8 0.000867726
7 *166:8 *255:10 4.21594e-06
8 *166:8 *303:73 0
9 *166:18 *638:A 5.50106e-05
10 *166:18 *681:B 4.9662e-05
11 *166:18 *830:CLK 3.6485e-05
12 *166:18 *830:D 2.93747e-05
13 *166:18 *281:10 1.24376e-05
14 *166:18 *303:73 1.83763e-05
15 *166:28 *697:A2 0.000139069
16 *166:28 *168:6 9.65021e-05
17 *166:28 *168:16 0.000206892
18 *166:28 *183:40 5.37348e-06
19 *166:28 *184:10 1.22803e-05
20 *166:28 *281:10 4.03352e-05
21 *166:28 *302:82 9.41704e-05
22 *166:28 *302:94 0.000207402
23 *125:8 *166:18 0.000221084
24 *125:10 *166:28 0
*RES
1 *679:Y *166:8 39.2014 
2 *166:8 *166:18 27.5943 
3 *166:18 *166:28 36.9393 
4 *166:28 *697:A1 23 
5 *166:18 *681:A 23 
*END

*D_NET *167 0.00313243
*CONN
*I *681:B I *D sky130_fd_sc_hd__or2_1
*I *697:A2 I *D sky130_fd_sc_hd__o211a_1
*I *680:Y O *D sky130_fd_sc_hd__o211ai_1
*CAP
1 *681:B 0.000228415
2 *697:A2 0.000383114
3 *680:Y 0.0003192
4 *167:10 0.00093073
5 *681:B *638:A 7.70737e-05
6 *681:B *317:12 0.000212454
7 *697:A2 *697:B1 3.85196e-05
8 *697:A2 *183:40 1.16915e-05
9 *697:A2 *302:82 2.46906e-05
10 *697:A2 *336:10 6.61942e-05
11 *167:10 *855:A 0.000141954
12 *167:10 *171:20 0.000114751
13 *167:10 *317:12 8.62876e-05
14 *37:21 *681:B 0.000252008
15 *125:10 *681:B 1.32728e-05
16 *125:10 *167:10 4.334e-05
17 *166:18 *681:B 4.9662e-05
18 *166:28 *697:A2 0.000139069
*RES
1 *680:Y *167:10 43.1579 
2 *167:10 *697:A2 44.8564 
3 *167:10 *681:B 43.4686 
*END

*D_NET *168 0.00235044
*CONN
*I *781:A I *D sky130_fd_sc_hd__xor2_1
*I *782:A1 I *D sky130_fd_sc_hd__a21bo_1
*I *681:X O *D sky130_fd_sc_hd__or2_1
*CAP
1 *781:A 8.50484e-05
2 *782:A1 0
3 *681:X 6.38938e-05
4 *168:16 0.000458361
5 *168:6 0.000607303
6 *781:A *183:40 1.91381e-05
7 *781:A *336:14 2.06822e-05
8 *168:6 *281:10 5.56356e-05
9 *168:6 *336:14 4.05745e-05
10 *168:16 *782:A2 0.000100061
11 *168:16 *171:20 0.000270171
12 *168:16 *184:10 0.000138718
13 *168:16 *302:82 0.000187456
14 *166:28 *168:6 9.65021e-05
15 *166:28 *168:16 0.000206892
*RES
1 *681:X *168:6 24.5743 
2 *168:6 *168:16 40.005 
3 *168:16 *782:A1 23 
4 *168:6 *781:A 24.595 
*END

*D_NET *169 0.00623766
*CONN
*I *684:A I *D sky130_fd_sc_hd__nand2_1
*I *698:B2 I *D sky130_fd_sc_hd__o221ai_1
*I *784:B1_N I *D sky130_fd_sc_hd__a21bo_1
*I *682:Y O *D sky130_fd_sc_hd__nand2_1
*CAP
1 *684:A 0
2 *698:B2 0.000342007
3 *784:B1_N 9.30477e-05
4 *682:Y 0
5 *169:44 0.0011857
6 *169:21 0.00225986
7 *169:4 0.000825196
8 *698:B2 *698:A1 5.56356e-05
9 *698:B2 *698:B1 4.26942e-06
10 *698:B2 *180:10 6.17437e-06
11 *698:B2 *279:16 8.71923e-05
12 *698:B2 *372:27 5.56279e-05
13 *698:B2 *372:39 7.78707e-05
14 *784:B1_N *683:A 0.000141954
15 *169:21 *253:8 0
16 *169:21 *339:22 0
17 *169:21 *339:26 0
18 *169:21 *340:69 0.000286221
19 *169:21 *368:132 2.05503e-05
20 *169:44 *818:A 0
21 *169:44 *855:A 5.60292e-05
22 *169:44 *171:20 0.000146005
23 *169:44 *180:10 0
24 *169:44 *302:82 6.17437e-06
25 *169:44 *372:39 1.7318e-05
26 *680:C1 *169:44 0.000283651
27 *40:11 *169:21 0.000287176
28 *41:21 *698:B2 0
29 *41:21 *169:44 0
30 *132:8 *169:44 0
*RES
1 *682:Y *169:4 23 
2 *169:4 *784:B1_N 24.5743 
3 *169:4 *169:21 33.0085 
4 *169:21 *698:B2 43.9761 
5 *169:21 *169:44 32.3482 
6 *169:44 *684:A 23 
*END

*D_NET *170 0.00615476
*CONN
*I *684:B I *D sky130_fd_sc_hd__nand2_1
*I *784:A1 I *D sky130_fd_sc_hd__a21bo_1
*I *683:X O *D sky130_fd_sc_hd__or2_1
*CAP
1 *684:B 2.79004e-05
2 *784:A1 7.08025e-05
3 *683:X 6.69485e-05
4 *170:33 0.00178695
5 *170:6 0.0018968
6 *684:B *855:A 5.50106e-05
7 *784:A1 *683:A 0.00010018
8 *784:A1 *784:A2 5.67058e-05
9 *170:6 *683:A 2.65879e-05
10 *170:33 *784:A2 0.000439831
11 *170:33 *792:A2 0.000440786
12 *170:33 *256:8 4.90891e-05
13 *170:33 *256:12 0.000141954
14 *170:33 *282:10 0.000139346
15 *170:33 *350:12 0.000472281
16 *644:C *170:33 7.42621e-05
17 *790:A *170:33 0
18 *790:B *170:33 4.77164e-06
19 *81:10 *170:33 5.67058e-05
20 *127:42 *170:33 1.58805e-05
21 *131:10 *170:33 4.91355e-05
22 *134:18 *170:33 0.000182826
*RES
1 *683:X *170:6 24.0979 
2 *170:6 *784:A1 25.2993 
3 *170:6 *170:33 46.3614 
4 *170:33 *684:B 38.6214 
*END

*D_NET *171 0.00579475
*CONN
*I *783:A I *D sky130_fd_sc_hd__xnor2_1
*I *693:A I *D sky130_fd_sc_hd__nor2_1
*I *684:Y O *D sky130_fd_sc_hd__nand2_1
*CAP
1 *783:A 4.11105e-05
2 *693:A 0.000167146
3 *684:Y 0.000205842
4 *171:22 0.000336711
5 *171:20 0.000727009
6 *171:10 0.000804396
7 *693:A *686:B 0.000149194
8 *693:A *787:A 6.17437e-06
9 *693:A *904:A 5.3304e-05
10 *693:A *173:10 0.000185344
11 *693:A *338:19 3.18198e-05
12 *783:A *784:A2 9.41704e-05
13 *783:A *350:12 9.41704e-05
14 *171:10 *855:A 0.000223698
15 *171:10 *368:114 6.16531e-05
16 *171:20 *686:A 5.50106e-05
17 *171:20 *782:A2 0.000102389
18 *171:20 *855:A 0.000310641
19 *171:20 *181:14 1.40958e-05
20 *171:20 *302:6 0.000383335
21 *171:20 *302:10 0.000219383
22 *171:20 *302:82 5.82435e-05
23 *171:22 *686:B 0.000207219
24 *171:22 *173:10 0.000148736
25 *171:22 *302:16 1.14452e-05
26 *171:22 *368:132 2.34364e-05
27 *680:C1 *171:20 0.000525686
28 *131:20 *171:10 2.24608e-05
29 *167:10 *171:20 0.000114751
30 *168:16 *171:20 0.000270171
31 *169:44 *171:20 0.000146005
*RES
1 *684:Y *171:10 41.3764 
2 *171:10 *171:20 48.8914 
3 *171:20 *171:22 2.96214 
4 *171:22 *693:A 41.7079 
5 *171:22 *783:A 39.0979 
*END

*D_NET *172 0.00256454
*CONN
*I *786:A1 I *D sky130_fd_sc_hd__a21bo_1
*I *687:A I *D sky130_fd_sc_hd__nand2_1
*I *685:X O *D sky130_fd_sc_hd__or2_1
*CAP
1 *786:A1 0
2 *687:A 0.000363499
3 *685:X 0
4 *172:23 0.000318447
5 *172:4 0.000681946
6 *687:A *685:B 0
7 *687:A *691:A 0.00023995
8 *687:A *178:12 6.34277e-05
9 *172:23 *685:A 0.000168281
10 *172:23 *174:20 5.12254e-05
11 *172:23 *174:36 0.000249545
12 *172:23 *302:34 0.000215257
13 *172:23 *332:12 7.53384e-06
14 *172:23 *368:18 0.000139754
15 *42:13 *172:23 6.16771e-05
16 *67:11 *687:A 4.00259e-06
*RES
1 *685:X *172:4 23 
2 *172:4 *687:A 29.7321 
3 *172:4 *172:23 39.1557 
4 *172:23 *786:A1 23 
*END

*D_NET *173 0.00608861
*CONN
*I *687:B I *D sky130_fd_sc_hd__nand2_1
*I *698:A1 I *D sky130_fd_sc_hd__o221ai_1
*I *786:B1_N I *D sky130_fd_sc_hd__a21bo_1
*I *686:Y O *D sky130_fd_sc_hd__nand2_1
*CAP
1 *687:B 0
2 *698:A1 5.83502e-05
3 *786:B1_N 6.77782e-05
4 *686:Y 0.000317841
5 *173:56 0.00103523
6 *173:27 0.00142493
7 *173:10 0.000716973
8 *698:A1 *180:10 9.23705e-06
9 *698:A1 *279:16 7.67423e-05
10 *698:A1 *340:50 1.65202e-05
11 *786:B1_N *787:A 0.000120739
12 *786:B1_N *368:18 9.87217e-05
13 *173:10 *787:A 4.75766e-05
14 *173:10 *302:10 0.000135037
15 *173:10 *338:19 2.14833e-05
16 *173:10 *368:18 6.6337e-05
17 *173:10 *368:132 0.000363473
18 *173:27 *332:20 0.000243028
19 *173:56 *174:8 0.000138136
20 *173:56 *177:18 4.7281e-05
21 *173:56 *332:20 3.66043e-05
22 *693:A *173:10 0.000185344
23 *698:B2 *698:A1 5.56356e-05
24 *39:19 *173:56 8.9585e-05
25 *40:11 *173:27 0.000315461
26 *40:11 *173:56 0.000251825
27 *125:26 *173:56 0
28 *171:22 *173:10 0.000148736
*RES
1 *686:Y *173:10 45.5296 
2 *173:10 *786:B1_N 39.7296 
3 *173:10 *173:27 9.23947 
4 *173:27 *698:A1 47.2946 
5 *173:27 *173:56 44.148 
6 *173:56 *687:B 23 
*END

*D_NET *174 0.00396185
*CONN
*I *692:A I *D sky130_fd_sc_hd__or2_1
*I *785:A I *D sky130_fd_sc_hd__xnor2_1
*I *687:Y O *D sky130_fd_sc_hd__nand2_1
*CAP
1 *692:A 1.17411e-05
2 *785:A 0
3 *687:Y 5.5778e-05
4 *174:36 0.00066908
5 *174:20 0.00104142
6 *174:18 0.000618459
7 *174:8 0.000313641
8 *174:8 *177:18 0.000138136
9 *174:18 *177:18 2.9978e-05
10 *174:18 *279:16 0.00010031
11 *174:20 *340:33 5.3304e-05
12 *174:20 *340:50 8.53029e-05
13 *174:20 *368:18 1.59639e-05
14 *174:36 *785:B 5.0001e-05
15 *174:36 *786:A2 0.000173452
16 *174:36 *332:12 6.19632e-05
17 *837:RESET_B *174:18 0.000104413
18 *68:11 *174:36 0
19 *172:23 *174:20 5.12254e-05
20 *172:23 *174:36 0.000249545
21 *173:56 *174:8 0.000138136
*RES
1 *687:Y *174:8 39.9057 
2 *174:8 *174:18 49.785 
3 *174:18 *174:20 4.43286 
4 *174:20 *174:36 41.9107 
5 *174:36 *785:A 23 
6 *174:20 *692:A 23.4971 
*END

*D_NET *175 0.00303779
*CONN
*I *691:A I *D sky130_fd_sc_hd__nand2_1
*I *698:C1 I *D sky130_fd_sc_hd__o221ai_1
*I *688:Y O *D sky130_fd_sc_hd__nand2_1
*CAP
1 *691:A 0.000393963
2 *698:C1 8.52984e-05
3 *688:Y 0.000122615
4 *175:8 0.000601876
5 *691:A *905:A 0.000263801
6 *691:A *178:12 9.88673e-05
7 *691:A *180:10 6.01083e-05
8 *691:A *279:16 8.79771e-05
9 *691:A *302:34 9.49758e-05
10 *691:A *340:33 0.000100778
11 *698:C1 *698:B1 8.6694e-05
12 *698:C1 *185:10 5.6667e-06
13 *175:8 *180:10 0.00023355
14 *175:8 *302:30 2.60152e-05
15 *175:8 *302:34 2.29488e-05
16 *175:8 *340:69 0.000117093
17 *687:A *691:A 0.00023995
18 *42:13 *691:A 0.000395613
*RES
1 *688:Y *175:8 41.3143 
2 *175:8 *698:C1 39.6364 
3 *175:8 *691:A 49.6207 
*END

*D_NET *176 0.00022165
*CONN
*I *698:A2 I *D sky130_fd_sc_hd__o221ai_1
*I *689:Y O *D sky130_fd_sc_hd__nor2_1
*CAP
1 *698:A2 8.45383e-05
2 *689:Y 8.45383e-05
3 *698:A2 *279:16 5.25732e-05
*RES
1 *689:Y *698:A2 47.0979 
*END

*D_NET *177 0.00113644
*CONN
*I *691:B I *D sky130_fd_sc_hd__nand2_1
*I *690:X O *D sky130_fd_sc_hd__or2_1
*CAP
1 *691:B 0
2 *690:X 0.000409776
3 *177:18 0.000409776
4 *177:18 *905:A 0
5 *177:18 *340:50 5.56279e-05
6 *79:10 *177:18 4.587e-05
7 *173:56 *177:18 4.7281e-05
8 *174:8 *177:18 0.000138136
9 *174:18 *177:18 2.9978e-05
*RES
1 *690:X *177:18 45.2293 
2 *177:18 *691:B 38 
*END

*D_NET *178 0.00324483
*CONN
*I *787:A I *D sky130_fd_sc_hd__xnor2_1
*I *692:B I *D sky130_fd_sc_hd__or2_1
*I *691:Y O *D sky130_fd_sc_hd__nand2_1
*CAP
1 *787:A 0.000379978
2 *692:B 0
3 *691:Y 0.000321779
4 *178:14 0.000696695
5 *178:12 0.000638496
6 *787:A *904:A 0.000133974
7 *787:A *284:10 0
8 *787:A *338:19 0.000210265
9 *178:12 *905:A 5.79559e-05
10 *178:12 *338:19 2.45549e-06
11 *178:14 *685:A 4.32372e-05
12 *178:14 *284:10 0
13 *178:14 *338:19 0.000319469
14 acc[15] *178:12 9.91101e-05
15 *687:A *178:12 6.34277e-05
16 *691:A *178:12 9.88673e-05
17 *693:A *787:A 6.17437e-06
18 *786:B1_N *787:A 0.000120739
19 *42:13 *178:12 0
20 *42:13 *178:14 0
21 *83:16 *178:12 4.6318e-06
22 *173:10 *787:A 4.75766e-05
*RES
1 *691:Y *178:12 44.8046 
2 *178:12 *178:14 5.60321 
3 *178:14 *692:B 38 
4 *178:14 *787:A 45.7679 
*END

*D_NET *179 0.000895856
*CONN
*I *693:B I *D sky130_fd_sc_hd__nor2_1
*I *698:B1 I *D sky130_fd_sc_hd__o221ai_1
*I *692:X O *D sky130_fd_sc_hd__or2_1
*CAP
1 *693:B 0
2 *698:B1 9.64574e-05
3 *692:X 0.000112748
4 *179:10 9.64574e-05
5 *179:8 0.000112748
6 *698:B1 *180:10 0.000137651
7 *698:B1 *185:10 1.21972e-05
8 *179:8 *685:A 7.69293e-05
9 *179:8 *302:34 0.000159704
10 *698:B2 *698:B1 4.26942e-06
11 *698:C1 *698:B1 8.6694e-05
*RES
1 *692:X *179:8 40.2579 
2 *179:8 *179:10 15 
3 *179:10 *698:B1 25.5686 
4 *179:10 *693:B 23 
*END

*D_NET *180 0.00313094
*CONN
*I *699:A3 I *D sky130_fd_sc_hd__a31o_1
*I *697:B1 I *D sky130_fd_sc_hd__o211a_1
*I *693:Y O *D sky130_fd_sc_hd__nor2_1
*CAP
1 *699:A3 0.000269369
2 *697:B1 0.000243128
3 *693:Y 0.000620457
4 *180:10 0.00113295
5 *697:B1 *696:B 1.24376e-05
6 *697:B1 *183:6 4.46742e-06
7 *697:B1 *183:40 7.49493e-06
8 *699:A3 *699:A1 0.00018001
9 *699:A3 *782:A2 3.04661e-05
10 *699:A3 *183:10 3.67644e-05
11 *699:A3 *185:10 0
12 *180:10 *782:A2 3.96053e-05
13 *180:10 *185:10 0
14 *180:10 *279:16 3.39192e-05
15 *180:10 *302:30 3.46241e-05
16 *180:10 *302:82 0
17 *180:10 *372:39 0
18 *691:A *180:10 6.01083e-05
19 *697:A2 *697:B1 3.85196e-05
20 *698:A1 *180:10 9.23705e-06
21 *698:B1 *180:10 0.000137651
22 *698:B2 *180:10 6.17437e-06
23 *169:44 *180:10 0
24 *175:8 *180:10 0.00023355
*RES
1 *693:Y *180:10 48.295 
2 *180:10 *697:B1 41.3764 
3 *180:10 *699:A3 42.9093 
*END

*D_NET *181 0.00104137
*CONN
*I *696:A I *D sky130_fd_sc_hd__and2_1
*I *782:B1_N I *D sky130_fd_sc_hd__a21bo_1
*I *694:Y O *D sky130_fd_sc_hd__nand2_1
*CAP
1 *696:A 0.0001072
2 *782:B1_N 0
3 *694:Y 0.000140334
4 *181:14 0.000117677
5 *181:6 0.000365212
6 *696:A *696:B 9.84851e-05
7 *696:A *336:30 1.37232e-05
8 *181:6 *694:A 1.32939e-05
9 *181:6 *336:24 2.4754e-05
10 *181:6 *336:30 5.50106e-05
11 *181:14 *686:A 7.53384e-06
12 *181:14 *185:10 8.4047e-05
13 *181:14 *302:16 0
14 *171:20 *181:14 1.40958e-05
*RES
1 *694:Y *181:6 25.0507 
2 *181:6 *181:14 31.8229 
3 *181:14 *782:B1_N 23 
4 *181:6 *696:A 25.4236 
*END

*D_NET *182 0.000371578
*CONN
*I *696:B I *D sky130_fd_sc_hd__and2_1
*I *695:X O *D sky130_fd_sc_hd__or2_1
*CAP
1 *696:B 0.000130327
2 *695:X 0.000130327
3 *696:A *696:B 9.84851e-05
4 *697:B1 *696:B 1.24376e-05
*RES
1 *695:X *696:B 48.5479 
*END

*D_NET *183 0.00159391
*CONN
*I *781:B I *D sky130_fd_sc_hd__xor2_1
*I *697:C1 I *D sky130_fd_sc_hd__o211a_1
*I *782:A2 I *D sky130_fd_sc_hd__a21bo_1
*I *696:X O *D sky130_fd_sc_hd__and2_1
*CAP
1 *781:B 0
2 *697:C1 0
3 *782:A2 0.000166983
4 *696:X 5.31256e-05
5 *183:40 0.00027482
6 *183:10 0.000217851
7 *183:6 0.000378813
8 *183:10 *302:82 0
9 *183:40 *699:A2 0
10 *183:40 *184:10 0.000110922
11 *183:40 *186:10 4.84129e-06
12 *183:40 *336:14 2.91016e-05
13 *697:A2 *183:40 1.16915e-05
14 *697:B1 *183:6 4.46742e-06
15 *697:B1 *183:40 7.49493e-06
16 *699:A3 *782:A2 3.04661e-05
17 *699:A3 *183:10 3.67644e-05
18 *781:A *183:40 1.91381e-05
19 *166:28 *183:40 5.37348e-06
20 *168:16 *782:A2 0.000100061
21 *171:20 *782:A2 0.000102389
22 *180:10 *782:A2 3.96053e-05
*RES
1 *696:X *183:6 23.6214 
2 *183:6 *183:10 16.2014 
3 *183:10 *782:A2 41.7079 
4 *183:10 *697:C1 38 
5 *183:6 *183:40 34.7229 
6 *183:40 *781:B 23 
*END

*D_NET *184 0.00138314
*CONN
*I *711:A1 I *D sky130_fd_sc_hd__o211ai_1
*I *700:A I *D sky130_fd_sc_hd__or2_1
*I *697:X O *D sky130_fd_sc_hd__o211a_1
*CAP
1 *711:A1 6.57267e-05
2 *700:A 0
3 *697:X 0.000272448
4 *184:12 6.57267e-05
5 *184:10 0.000272448
6 *711:A1 *772:B 0.000141675
7 *711:A1 *247:6 7.43845e-05
8 *184:10 *711:A2 5.58975e-06
9 *184:10 *186:10 4.80826e-05
10 *184:10 *302:82 4.67488e-05
11 *184:10 *302:94 0.00012839
12 *166:28 *184:10 1.22803e-05
13 *168:16 *184:10 0.000138718
14 *183:40 *184:10 0.000110922
*RES
1 *697:X *184:10 43.4686 
2 *184:10 *184:12 15 
3 *184:12 *700:A 23 
4 *184:12 *711:A1 25.0714 
*END

*D_NET *185 0.00217339
*CONN
*I *699:B1 I *D sky130_fd_sc_hd__a31o_1
*I *698:Y O *D sky130_fd_sc_hd__o221ai_1
*CAP
1 *699:B1 7.08253e-05
2 *698:Y 0.000627799
3 *185:10 0.000698624
4 *699:B1 *336:24 5.47927e-05
5 *185:10 *685:A 3.58436e-05
6 *185:10 *686:A 6.54335e-05
7 *185:10 *694:A 8.21456e-06
8 *185:10 *695:A 2.36804e-05
9 *185:10 *699:A1 0
10 *185:10 *247:19 1.14452e-05
11 *185:10 *248:8 0
12 *185:10 *252:10 0.000136486
13 *185:10 *302:16 0
14 *185:10 *302:30 0.000203416
15 *185:10 *302:34 0.000104515
16 *185:10 *336:24 3.04021e-05
17 *698:B1 *185:10 1.21972e-05
18 *698:C1 *185:10 5.6667e-06
19 *699:A3 *185:10 0
20 *180:10 *185:10 0
21 *181:14 *185:10 8.4047e-05
*RES
1 *698:Y *185:10 49.3307 
2 *185:10 *699:B1 39.5743 
*END

*D_NET *186 0.000811896
*CONN
*I *711:A2 I *D sky130_fd_sc_hd__o211ai_1
*I *700:B I *D sky130_fd_sc_hd__or2_1
*I *699:X O *D sky130_fd_sc_hd__a31o_1
*CAP
1 *711:A2 8.99829e-05
2 *700:B 0
3 *699:X 0.000174564
4 *186:10 0.000264547
5 *711:A2 *772:B 0.000100061
6 *711:A2 *198:8 0.000100061
7 *711:A2 *302:94 1.71223e-05
8 *186:10 *336:14 7.04466e-06
9 *183:40 *186:10 4.84129e-06
10 *184:10 *711:A2 5.58975e-06
11 *184:10 *186:10 4.80826e-05
*RES
1 *699:X *186:10 40.6514 
2 *186:10 *700:B 38 
3 *186:10 *711:A2 40.2993 
*END

*D_NET *187 0.00177091
*CONN
*I *772:A I *D sky130_fd_sc_hd__nand2_1
*I *773:A I *D sky130_fd_sc_hd__xor2_1
*I *700:X O *D sky130_fd_sc_hd__or2_1
*CAP
1 *772:A 1.50307e-05
2 *773:A 0
3 *700:X 0
4 *187:14 0.000586512
5 *187:4 0.000601542
6 *772:A *772:B 5.56356e-05
7 *772:A *247:6 3.07986e-05
8 *187:14 *838:D 0.000187968
9 *187:14 *197:6 1.59094e-05
10 *187:14 *198:16 3.72639e-05
11 *187:14 *302:94 0.000227771
12 *187:14 *341:6 1.24825e-05
*RES
1 *700:X *187:4 23 
2 *187:4 *187:14 39.7771 
3 *187:14 *773:A 23 
4 *187:4 *772:A 23.6214 
*END

*D_NET *188 0.00137611
*CONN
*I *775:A I *D sky130_fd_sc_hd__and3_1
*I *774:B1 I *D sky130_fd_sc_hd__a21oi_1
*I *707:A_N I *D sky130_fd_sc_hd__and2b_1
*I *701:Y O *D sky130_fd_sc_hd__xnor2_1
*CAP
1 *775:A 0
2 *774:B1 0
3 *707:A_N 0
4 *701:Y 8.86093e-05
5 *188:23 0.000220842
6 *188:15 0.000373128
7 *188:8 0.000240895
8 *188:8 *701:A 3.22879e-05
9 *188:8 *342:36 1.22822e-05
10 *188:15 *711:B1 0.000103637
11 *188:15 *194:14 9.24795e-06
12 *188:15 *342:36 5.70419e-05
13 *188:23 *774:A1 9.84794e-05
14 *188:23 *286:10 0.000139657
15 *86:8 *188:23 0
*RES
1 *701:Y *188:8 24.595 
2 *188:8 *707:A_N 23 
3 *188:8 *188:15 3.48 
4 *188:15 *188:23 34.4329 
5 *188:23 *774:B1 23 
6 *188:15 *775:A 23 
*END

*D_NET *189 0.0011913
*CONN
*I *779:A1 I *D sky130_fd_sc_hd__a21bo_1
*I *704:A I *D sky130_fd_sc_hd__nand2_1
*I *702:X O *D sky130_fd_sc_hd__or2_1
*CAP
1 *779:A1 3.39883e-05
2 *704:A 0
3 *702:X 4.39992e-05
4 *189:18 9.70372e-05
5 *189:12 0.000197227
6 *189:8 0.000110201
7 *779:A1 *343:14 2.64616e-05
8 *189:8 *704:B 1.14452e-05
9 *189:8 *190:10 0.00014411
10 *189:8 *341:24 0.000141879
11 *189:12 *341:24 5.3304e-05
12 *189:12 *343:14 2.02872e-05
13 *189:18 *704:B 5.76076e-05
14 *189:18 *201:10 0.000218971
15 *189:18 *341:24 3.47781e-05
*RES
1 *702:X *189:8 39.9057 
2 *189:8 *189:12 16.0979 
3 *189:12 *189:18 32.9621 
4 *189:18 *704:A 23 
5 *189:12 *779:A1 23.6214 
*END

*D_NET *190 0.00140383
*CONN
*I *704:B I *D sky130_fd_sc_hd__nand2_1
*I *779:B1_N I *D sky130_fd_sc_hd__a21bo_1
*I *703:Y O *D sky130_fd_sc_hd__nand2_1
*CAP
1 *704:B 0.000130679
2 *779:B1_N 0
3 *703:Y 0.000225433
4 *190:10 0.000356112
5 *704:B *307:8 0.000107548
6 *704:B *308:10 1.94812e-05
7 *704:B *341:24 1.22803e-05
8 *190:10 *703:A 5.31444e-05
9 *190:10 *307:8 0.000125904
10 *190:10 *341:24 0.000105072
11 *43:19 *190:10 5.50106e-05
12 *189:8 *704:B 1.14452e-05
13 *189:8 *190:10 0.00014411
14 *189:18 *704:B 5.76076e-05
*RES
1 *703:Y *190:10 43.8207 
2 *190:10 *779:B1_N 38 
3 *190:10 *704:B 41.5836 
*END

*D_NET *191 0.00185108
*CONN
*I *778:A I *D sky130_fd_sc_hd__xnor2_1
*I *706:A I *D sky130_fd_sc_hd__nor2_1
*I *704:Y O *D sky130_fd_sc_hd__nand2_1
*CAP
1 *778:A 2.77218e-05
2 *706:A 9.98395e-05
3 *704:Y 0.000391266
4 *191:10 0.000518827
5 *706:A *706:B 0.000244517
6 *706:A *250:10 7.55491e-05
7 *706:A *286:10 6.70363e-05
8 *778:A *250:14 5.3304e-05
9 *778:A *343:6 2.64616e-05
10 *191:10 *706:B 0.000154147
11 *191:10 *780:A 0.000180218
12 *191:10 *344:8 1.21972e-05
*RES
1 *704:Y *191:10 44.6907 
2 *191:10 *706:A 41.3143 
3 *191:10 *778:A 38.6214 
*END

*D_NET *192 0.0024053
*CONN
*I *780:A I *D sky130_fd_sc_hd__xnor2_1
*I *706:B I *D sky130_fd_sc_hd__nor2_1
*I *705:Y O *D sky130_fd_sc_hd__xnor2_1
*CAP
1 *780:A 8.21e-05
2 *706:B 0.000248178
3 *705:Y 0.000155815
4 *192:8 0.000486093
5 *706:B *201:10 0
6 *706:B *343:40 0.000136486
7 *706:B *370:47 2.76611e-06
8 *706:B *374:10 0.000106288
9 *780:A *344:8 4.9662e-05
10 *192:8 *343:40 0.000366117
11 *192:8 *370:47 0.000137901
12 *706:A *706:B 0.000244517
13 *35:17 *706:B 5.50106e-05
14 *191:10 *706:B 0.000154147
15 *191:10 *780:A 0.000180218
*RES
1 *705:Y *192:8 43.075 
2 *192:8 *706:B 44.4007 
3 *192:8 *780:A 40.0507 
*END

*D_NET *193 0.00144517
*CONN
*I *707:B I *D sky130_fd_sc_hd__and2b_1
*I *713:C I *D sky130_fd_sc_hd__and3_1
*I *706:Y O *D sky130_fd_sc_hd__nor2_1
*CAP
1 *707:B 0
2 *713:C 0.000149727
3 *706:Y 0
4 *193:19 0.000260004
5 *193:4 0.00040973
6 *193:19 *711:B1 0.00010018
7 *193:19 *777:A2 4.99867e-05
8 *193:19 *194:6 5.67058e-05
9 *193:19 *200:8 1.78655e-05
10 *193:19 *286:10 0.000151608
11 *193:19 *342:36 0
12 *193:19 *374:10 8.4047e-05
13 *35:17 *713:C 0.000165318
*RES
1 *706:Y *193:4 23 
2 *193:4 *713:C 24.9161 
3 *193:4 *193:19 35.4686 
4 *193:19 *707:B 23 
*END

*D_NET *194 0.00224358
*CONN
*I *711:B1 I *D sky130_fd_sc_hd__o211ai_1
*I *714:A3 I *D sky130_fd_sc_hd__a31o_1
*I *707:X O *D sky130_fd_sc_hd__and2b_1
*CAP
1 *711:B1 0.000406753
2 *714:A3 0
3 *707:X 5.94218e-05
4 *194:14 0.000160592
5 *194:6 0.000626767
6 *711:B1 *709:B 0.000137651
7 *711:B1 *772:B 5.56356e-05
8 *711:B1 *775:B 2.64616e-05
9 *711:B1 *775:C 4.75206e-05
10 *711:B1 *196:10 3.22879e-05
11 *711:B1 *247:6 0.000101778
12 *711:B1 *249:10 5.25848e-05
13 *194:14 *701:A 0.00014411
14 *194:14 *713:B 5.11935e-06
15 *194:14 *342:36 0.000117127
16 *188:15 *711:B1 0.000103637
17 *188:15 *194:14 9.24795e-06
18 *193:19 *711:B1 0.00010018
19 *193:19 *194:6 5.67058e-05
*RES
1 *707:X *194:6 24.0979 
2 *194:6 *194:14 33.48 
3 *194:14 *714:A3 23 
4 *194:6 *711:B1 33.0464 
*END

*D_NET *195 0.00210377
*CONN
*I *710:A I *D sky130_fd_sc_hd__and2_1
*I *775:B I *D sky130_fd_sc_hd__and3_1
*I *774:A1 I *D sky130_fd_sc_hd__a21oi_1
*I *708:Y O *D sky130_fd_sc_hd__nand2_1
*CAP
1 *710:A 3.74773e-05
2 *775:B 5.43738e-05
3 *774:A1 0.000268241
4 *708:Y 6.57573e-05
5 *195:14 0.000443742
6 *195:8 0.000224361
7 *710:A *777:B1 5.3304e-05
8 *710:A *248:29 5.3304e-05
9 *710:A *373:19 9.67842e-05
10 *774:A1 *709:B 8.28736e-05
11 *774:A1 *248:8 9.55308e-05
12 *774:A1 *286:10 6.67764e-05
13 *774:A1 *336:24 5.27215e-06
14 *195:8 *708:B 0.000125192
15 *195:8 *249:10 6.68793e-05
16 *195:14 *708:B 7.72835e-05
17 *195:14 *709:B 7.39034e-05
18 *195:14 *248:8 7.65264e-05
19 *195:14 *249:10 1.12487e-05
20 *711:B1 *775:B 2.64616e-05
21 *188:23 *774:A1 9.84794e-05
*RES
1 *708:Y *195:8 39.9057 
2 *195:8 *195:14 3.02429 
3 *195:14 *774:A1 43.0129 
4 *195:14 *775:B 38.6214 
5 *195:8 *710:A 39.0979 
*END

*D_NET *196 0.000507393
*CONN
*I *710:B I *D sky130_fd_sc_hd__and2_1
*I *709:X O *D sky130_fd_sc_hd__or2_1
*CAP
1 *710:B 0
2 *709:X 0.000136247
3 *196:10 0.000136247
4 *196:10 *709:A 0.000165593
5 *196:10 *248:29 3.70187e-05
6 *711:B1 *196:10 3.22879e-05
7 *44:11 *196:10 0
*RES
1 *709:X *196:10 40.8793 
2 *196:10 *710:B 38 
*END

*D_NET *197 0.00185891
*CONN
*I *773:B I *D sky130_fd_sc_hd__xor2_1
*I *772:B I *D sky130_fd_sc_hd__nand2_1
*I *711:C1 I *D sky130_fd_sc_hd__o211ai_1
*I *710:X O *D sky130_fd_sc_hd__and2_1
*CAP
1 *773:B 0
2 *772:B 0.000273089
3 *711:C1 0
4 *710:X 8.77472e-05
5 *197:12 0.000430075
6 *197:6 0.000244733
7 *772:B *198:8 7.26547e-05
8 *772:B *247:6 0.000105447
9 *197:6 *341:6 9.91701e-05
10 *197:12 *709:A 0
11 *711:A1 *772:B 0.000141675
12 *711:A2 *772:B 0.000100061
13 *711:B1 *772:B 5.56356e-05
14 *772:A *772:B 5.56356e-05
15 *44:11 *197:12 0.00017708
16 *187:14 *197:6 1.59094e-05
*RES
1 *710:X *197:6 25.0507 
2 *197:6 *197:12 32.9621 
3 *197:12 *711:C1 23 
4 *197:12 *772:B 30.0014 
5 *197:6 *773:B 23 
*END

*D_NET *198 0.0038772
*CONN
*I *731:A1 I *D sky130_fd_sc_hd__a211o_1
*I *716:A I *D sky130_fd_sc_hd__nand2_1
*I *711:Y O *D sky130_fd_sc_hd__o211ai_1
*CAP
1 *731:A1 0
2 *716:A 0
3 *711:Y 0.000162811
4 *198:26 0.000270983
5 *198:16 0.00109207
6 *198:8 0.000983902
7 *198:16 *599:A 0
8 *198:16 *731:A2 4.344e-05
9 *198:16 *840:CLK 0
10 *198:16 *218:10 3.59884e-05
11 *198:16 *302:94 0.000136486
12 *198:16 *304:32 0
13 *198:16 *370:27 0
14 *198:16 *370:148 0.000232401
15 *198:26 *730:A 2.68258e-05
16 *198:26 *731:B1 7.19751e-05
17 *198:26 *842:CLK 6.17437e-06
18 *198:26 *216:16 0.000103637
19 *198:26 *346:8 0.000311598
20 *198:26 *346:21 0
21 *711:A2 *198:8 0.000100061
22 *772:B *198:8 7.26547e-05
23 *44:11 *198:16 0
24 *87:10 *198:16 0.000188926
25 *187:14 *198:16 3.72639e-05
*RES
1 *711:Y *198:8 40.5271 
2 *198:8 *198:16 31.1986 
3 *198:16 *198:26 36.235 
4 *198:26 *716:A 23 
5 *198:16 *731:A1 23 
*END

*D_NET *199 0.000238143
*CONN
*I *715:B1 I *D sky130_fd_sc_hd__a211oi_1
*I *712:X O *D sky130_fd_sc_hd__o211a_1
*CAP
1 *715:B1 0
2 *712:X 7.96074e-05
3 *199:8 7.96074e-05
4 *199:8 *308:10 6.07611e-06
5 *199:8 *308:21 7.28526e-05
6 *199:8 *344:10 0
*RES
1 *712:X *199:8 39.9057 
2 *199:8 *715:B1 38 
*END

*D_NET *200 0.000813146
*CONN
*I *714:B1 I *D sky130_fd_sc_hd__a31o_1
*I *713:X O *D sky130_fd_sc_hd__and3_1
*CAP
1 *714:B1 1.91252e-05
2 *713:X 0.000103504
3 *200:8 0.000122629
4 *714:B1 *341:14 5.50106e-05
5 *714:B1 *373:19 5.3304e-05
6 *200:8 *713:B 0.000240416
7 *200:8 *777:A2 1.01436e-05
8 *200:8 *374:10 0.000191148
9 *193:19 *200:8 1.78655e-05
*RES
1 *713:X *200:8 41.3143 
2 *200:8 *714:B1 38.6214 
*END

*D_NET *201 0.00173083
*CONN
*I *715:C1 I *D sky130_fd_sc_hd__a211oi_1
*I *714:X O *D sky130_fd_sc_hd__a31o_1
*CAP
1 *715:C1 0
2 *714:X 0.000505489
3 *201:10 0.000505489
4 *201:10 *713:A 0.000111852
5 *201:10 *713:B 6.68107e-05
6 *201:10 *251:8 5.51058e-05
7 *201:10 *307:8 0
8 *201:10 *308:10 4.58924e-05
9 *201:10 *341:24 0.000115196
10 *201:10 *343:40 0
11 *201:10 *344:10 0
12 *201:10 *373:8 9.5877e-05
13 *201:10 *374:20 1.01436e-05
14 *706:B *201:10 0
15 *189:18 *201:10 0.000218971
*RES
1 *714:X *201:10 49.455 
2 *201:10 *715:C1 38 
*END

*D_NET *202 0.00184067
*CONN
*I *731:A2 I *D sky130_fd_sc_hd__a211o_1
*I *716:B I *D sky130_fd_sc_hd__nand2_1
*I *715:Y O *D sky130_fd_sc_hd__a211oi_1
*CAP
1 *731:A2 0.00030124
2 *716:B 0
3 *715:Y 0.000426978
4 *202:12 0.000138911
5 *202:6 0.000867129
6 *731:A2 *370:148 6.29694e-05
7 *202:12 *731:C1 0
8 *202:12 *370:47 0
9 *198:16 *731:A2 4.344e-05
*RES
1 *715:Y *202:6 29.3386 
2 *202:6 *202:12 32.2579 
3 *202:12 *716:B 23 
4 *202:6 *731:A2 28.4064 
*END

*D_NET *203 0.000971185
*CONN
*I *765:A I *D sky130_fd_sc_hd__xnor2_1
*I *766:A1 I *D sky130_fd_sc_hd__a21bo_1
*I *716:Y O *D sky130_fd_sc_hd__nand2_1
*CAP
1 *765:A 0.000130861
2 *766:A1 6.17858e-05
3 *716:Y 0.000107628
4 *203:10 0.000192647
5 *203:8 0.000107628
6 *765:A *732:B 9.16362e-05
7 *765:A *215:25 8.60475e-05
8 *766:A1 *215:25 5.3304e-05
9 *203:8 *731:C1 0
10 *203:8 *765:B 0
11 *203:8 *215:25 0.000139647
*RES
1 *716:Y *203:8 40.2579 
2 *203:8 *203:10 15 
3 *203:10 *766:A1 24.0979 
4 *203:10 *765:A 26.0036 
*END

*D_NET *204 0.00263898
*CONN
*I *734:A I *D sky130_fd_sc_hd__or3_1
*I *719:A I *D sky130_fd_sc_hd__nand2_1
*I *768:B1_N I *D sky130_fd_sc_hd__a21bo_1
*I *717:Y O *D sky130_fd_sc_hd__nand2_1
*CAP
1 *734:A 4.79891e-05
2 *719:A 8.91269e-06
3 *768:B1_N 0
4 *717:Y 0.00018177
5 *204:15 0.00062084
6 *204:6 0.000745709
7 *719:A *719:B 2.02517e-05
8 *719:A *734:C 1.14154e-05
9 *734:A *734:C 4.37033e-05
10 *734:A *847:CLK 0
11 *734:A *206:25 3.7122e-06
12 *734:A *209:16 5.61255e-06
13 *734:A *304:84 5.67058e-05
14 *204:6 *717:A 0.000141052
15 *204:6 *311:12 0.000143655
16 *204:15 *719:B 0.000484551
17 *204:15 *767:A 1.76557e-05
18 *204:15 *205:6 5.6241e-05
19 *204:15 *206:25 7.43025e-06
20 *204:15 *311:12 4.17736e-05
*RES
1 *717:Y *204:6 26.0036 
2 *204:6 *768:B1_N 23 
3 *204:6 *204:15 8.74143 
4 *204:15 *719:A 23.4971 
5 *204:15 *734:A 24.595 
*END

*D_NET *205 0.0014605
*CONN
*I *719:B I *D sky130_fd_sc_hd__nand2_1
*I *768:A1 I *D sky130_fd_sc_hd__a21bo_1
*I *718:X O *D sky130_fd_sc_hd__or2_1
*CAP
1 *719:B 0.00015863
2 *768:A1 0
3 *718:X 0.000120672
4 *205:6 0.000279302
5 *719:B *767:A 8.28951e-05
6 *719:B *767:B 2.93845e-05
7 *719:B *768:A2 0.000128391
8 *205:6 *311:12 0.00010018
9 *719:A *719:B 2.02517e-05
10 *204:15 *719:B 0.000484551
11 *204:15 *205:6 5.6241e-05
*RES
1 *718:X *205:6 25.5271 
2 *205:6 *768:A1 23 
3 *205:6 *719:B 29.38 
*END

*D_NET *206 0.00102524
*CONN
*I *726:A I *D sky130_fd_sc_hd__nor3_1
*I *767:A I *D sky130_fd_sc_hd__xnor2_1
*I *719:Y O *D sky130_fd_sc_hd__nand2_1
*CAP
1 *726:A 0
2 *767:A 6.55275e-05
3 *719:Y 0
4 *206:25 0.00018756
5 *206:4 0.000253088
6 *767:A *734:C 0
7 *767:A *209:16 9.61128e-05
8 *206:25 *727:A 5.50106e-05
9 *206:25 *734:C 5.90675e-06
10 *206:25 *209:16 5.50049e-05
11 *206:25 *209:24 0.000114074
12 *206:25 *212:54 2.45579e-05
13 *206:25 *214:14 5.67058e-05
14 *206:25 *244:8 0
15 *719:B *767:A 8.28951e-05
16 *734:A *206:25 3.7122e-06
17 *204:15 *767:A 1.76557e-05
18 *204:15 *206:25 7.43025e-06
*RES
1 *719:Y *206:4 23 
2 *206:4 *767:A 25.5479 
3 *206:4 *206:25 34.7021 
4 *206:25 *726:A 23 
*END

*D_NET *207 0.00140101
*CONN
*I *722:A I *D sky130_fd_sc_hd__nand2_1
*I *770:A1 I *D sky130_fd_sc_hd__a21bo_1
*I *720:X O *D sky130_fd_sc_hd__or2_1
*CAP
1 *722:A 0.00017153
2 *770:A1 8.14951e-05
3 *720:X 0.000101846
4 *207:8 0.000354871
5 *722:A *209:10 0.000212752
6 *722:A *304:84 0
7 *722:A *312:21 0.000194309
8 *722:A *344:47 0
9 *770:A1 *209:10 1.01436e-05
10 *770:A1 *209:16 0.000141869
11 *770:A1 *304:84 0
12 *207:8 *844:CLK 7.88926e-05
13 *50:13 *722:A 5.3304e-05
*RES
1 *720:X *207:8 39.5743 
2 *207:8 *770:A1 39.9057 
3 *207:8 *722:A 42.2879 
*END

*D_NET *208 0.00250109
*CONN
*I *722:B I *D sky130_fd_sc_hd__nand2_1
*I *733:A_N I *D sky130_fd_sc_hd__nand2b_1
*I *770:B1_N I *D sky130_fd_sc_hd__a21bo_1
*I *721:Y O *D sky130_fd_sc_hd__nand2_1
*CAP
1 *722:B 9.08125e-05
2 *733:A_N 0.000181675
3 *770:B1_N 1.08768e-05
4 *721:Y 0
5 *208:10 0.000439763
6 *208:4 0.000338024
7 *722:B *721:A 3.24946e-05
8 *722:B *721:B 5.90675e-06
9 *722:B *209:10 1.24376e-05
10 *733:A_N *770:A2 0.000182832
11 *733:A_N *771:A 7.87561e-05
12 *733:A_N *771:B 7.73389e-05
13 *733:A_N *212:18 4.78593e-05
14 *733:A_N *370:77 0.000660436
15 *770:B1_N *770:A2 5.50049e-05
16 *770:B1_N *370:77 5.67058e-05
17 *208:10 *209:10 0.000106516
18 *208:10 *209:16 9.39056e-05
19 *208:10 *245:8 2.22079e-05
20 *208:10 *344:47 0
21 *50:13 *722:B 7.53384e-06
22 *91:8 *208:10 0
*RES
1 *721:Y *208:4 23 
2 *208:4 *208:10 35.4271 
3 *208:10 *770:B1_N 23.6214 
4 *208:10 *733:A_N 30.7886 
5 *208:4 *722:B 25.0921 
*END

*D_NET *209 0.00444453
*CONN
*I *769:A I *D sky130_fd_sc_hd__xnor2_1
*I *734:B I *D sky130_fd_sc_hd__or3_1
*I *726:B I *D sky130_fd_sc_hd__nor3_1
*I *722:Y O *D sky130_fd_sc_hd__nand2_1
*CAP
1 *769:A 0
2 *734:B 0
3 *726:B 0
4 *722:Y 0.000190591
5 *209:42 0.000665753
6 *209:24 0.000109518
7 *209:16 0.000631715
8 *209:10 0.00137854
9 *209:16 *734:C 6.17437e-06
10 *209:16 *212:54 0
11 *209:16 *244:8 3.31127e-05
12 *209:16 *245:8 0
13 *209:16 *304:84 0
14 *209:16 *344:47 0
15 *209:24 *843:CLK 9.84794e-05
16 *209:24 *212:54 5.31444e-05
17 *209:42 *720:B 1.44715e-05
18 *209:42 *844:CLK 2.93747e-05
19 *209:42 *844:D 0.000189272
20 *209:42 *912:A 0.000171906
21 *209:42 *291:8 0
22 *209:42 *343:55 0
23 *209:42 *348:6 1.55671e-05
24 *722:A *209:10 0.000212752
25 *722:B *209:10 1.24376e-05
26 *734:A *209:16 5.61255e-06
27 *767:A *209:16 9.61128e-05
28 *770:A1 *209:10 1.01436e-05
29 *770:A1 *209:16 0.000141869
30 *50:13 *209:10 8.48502e-06
31 *206:25 *209:16 5.50049e-05
32 *206:25 *209:24 0.000114074
33 *208:10 *209:10 0.000106516
34 *208:10 *209:16 9.39056e-05
*RES
1 *722:Y *209:10 41.5836 
2 *209:10 *209:16 23.7829 
3 *209:16 *209:24 32.6514 
4 *209:24 *726:B 23 
5 *209:16 *734:B 23 
6 *209:10 *209:42 40.0257 
7 *209:42 *769:A 38 
*END

*D_NET *210 0.00363744
*CONN
*I *735:A I *D sky130_fd_sc_hd__and4_1
*I *725:A I *D sky130_fd_sc_hd__nand2_1
*I *723:Y O *D sky130_fd_sc_hd__nand2_1
*CAP
1 *735:A 0
2 *725:A 0
3 *723:Y 9.1219e-05
4 *210:41 0.000423232
5 *210:27 0.000793283
6 *210:14 0.000271935
7 *210:6 0.000733205
8 *210:6 *723:A 2.79662e-05
9 *210:14 *723:A 1.40958e-05
10 *210:14 *725:B 5.58975e-06
11 *210:14 *212:14 1.39317e-05
12 *210:14 *370:105 6.48049e-05
13 *210:27 *313:12 3.54728e-05
14 *210:27 *349:8 8.91468e-07
15 *210:27 *349:21 0.000138727
16 *210:41 *211:23 1.12487e-05
17 *210:41 *212:14 0.000207542
18 *210:41 *220:14 0.000278708
19 *210:41 *304:69 0.000222113
20 *210:41 *313:12 0
21 acc[23] *210:14 0.000100061
22 *51:21 *210:14 0.000103405
23 *51:21 *210:27 6.25829e-05
24 *92:8 *210:41 3.743e-05
*RES
1 *723:Y *210:6 24.5743 
2 *210:6 *210:14 35.2821 
3 *210:14 *725:A 23 
4 *210:6 *210:27 35.6136 
5 *210:27 *210:41 40.4814 
6 *210:41 *735:A 23 
*END

*D_NET *211 0.00173489
*CONN
*I *725:B I *D sky130_fd_sc_hd__nand2_1
*I *733:B I *D sky130_fd_sc_hd__nand2b_1
*I *724:X O *D sky130_fd_sc_hd__or2_1
*CAP
1 *725:B 0.000185675
2 *733:B 1.25633e-05
3 *724:X 7.51187e-05
4 *211:23 0.000403431
5 *211:6 0.000305438
6 *725:B *212:14 3.98105e-05
7 *725:B *292:10 2.67562e-05
8 *725:B *304:84 0
9 *733:B *212:18 6.91814e-05
10 *733:B *370:77 7.08823e-05
11 *211:6 *212:18 5.3304e-05
12 *211:6 *370:77 0.000173837
13 *211:23 *845:D 5.0555e-05
14 *211:23 *212:14 0.000139647
15 *211:23 *292:10 0.000111852
16 *211:23 *304:84 0
17 *210:14 *725:B 5.58975e-06
18 *210:41 *211:23 1.12487e-05
*RES
1 *724:X *211:6 25.0507 
2 *211:6 *733:B 23.7768 
3 *211:6 *211:23 48.8321 
4 *211:23 *725:B 41.6664 
*END

*D_NET *212 0.00330208
*CONN
*I *726:C I *D sky130_fd_sc_hd__nor3_1
*I *734:C I *D sky130_fd_sc_hd__or3_1
*I *771:A I *D sky130_fd_sc_hd__xnor2_1
*I *725:Y O *D sky130_fd_sc_hd__nand2_1
*CAP
1 *726:C 0
2 *734:C 6.98163e-05
3 *771:A 9.22521e-05
4 *725:Y 0.000223644
5 *212:54 0.000188742
6 *212:35 0.000546214
7 *212:18 0.000484199
8 *212:14 0.000327935
9 *734:C *304:84 1.40958e-05
10 *212:14 *292:10 3.81486e-05
11 *212:18 *292:10 0.000146195
12 *212:18 *370:77 2.89478e-05
13 *212:35 *221:14 2.93432e-05
14 *212:35 *304:84 4.77393e-05
15 *212:54 *214:14 0
16 *212:54 *220:14 0
17 *212:54 *221:14 0.000157341
18 *719:A *734:C 1.14154e-05
19 *725:B *212:14 3.98105e-05
20 *733:A_N *771:A 7.87561e-05
21 *733:A_N *212:18 4.78593e-05
22 *733:B *212:18 6.91814e-05
23 *734:A *734:C 4.37033e-05
24 *767:A *734:C 0
25 *92:8 *212:14 0.000112535
26 *206:25 *734:C 5.90675e-06
27 *206:25 *212:54 2.45579e-05
28 *209:16 *734:C 6.17437e-06
29 *209:16 *212:54 0
30 *209:24 *212:54 5.31444e-05
31 *210:14 *212:14 1.39317e-05
32 *210:41 *212:14 0.000207542
33 *211:6 *212:18 5.3304e-05
34 *211:23 *212:14 0.000139647
*RES
1 *725:Y *212:14 44.1107 
2 *212:14 *212:18 18.0036 
3 *212:18 *771:A 25.0714 
4 *212:18 *212:35 34.8886 
5 *212:35 *734:C 24.595 
6 *212:35 *212:54 34.0807 
7 *212:54 *726:C 23 
*END

*D_NET *213 0.000553568
*CONN
*I *727:A I *D sky130_fd_sc_hd__inv_2
*I *726:Y O *D sky130_fd_sc_hd__nor3_1
*CAP
1 *727:A 0.000105529
2 *726:Y 0.000105529
3 *727:A *843:CLK 0.000190519
4 *727:A *214:14 9.69792e-05
5 *206:25 *727:A 5.50106e-05
*RES
1 *726:Y *727:A 49.6664 
*END

*D_NET *214 0.00250723
*CONN
*I *732:A I *D sky130_fd_sc_hd__or2_1
*I *731:B1 I *D sky130_fd_sc_hd__a211o_1
*I *727:Y O *D sky130_fd_sc_hd__inv_2
*CAP
1 *732:A 0.000226287
2 *731:B1 0.000246865
3 *727:Y 0.000305497
4 *214:14 0.00077865
5 *731:B1 *731:C1 0.00026506
6 *731:B1 *765:B 0.000124829
7 *732:A *732:B 0.000100069
8 *732:A *736:A1 0
9 *732:A *736:A2 0
10 *732:A *222:12 4.50291e-05
11 *732:A *289:10 9.66133e-05
12 *732:A *304:19 5.50381e-06
13 *214:14 *765:B 1.38978e-05
14 *214:14 *843:CLK 1.76557e-05
15 *214:14 *222:8 5.561e-05
16 *214:14 *244:8 0
17 *214:14 *304:19 0
18 *727:A *214:14 9.69792e-05
19 *198:26 *731:B1 7.19751e-05
20 *206:25 *214:14 5.67058e-05
21 *212:54 *214:14 0
*RES
1 *727:Y *214:14 43.7275 
2 *214:14 *731:B1 43.2511 
3 *214:14 *732:A 42.4432 
*END

*D_NET *215 0.00269014
*CONN
*I *766:B1_N I *D sky130_fd_sc_hd__a21bo_1
*I *732:B I *D sky130_fd_sc_hd__or2_1
*I *730:A I *D sky130_fd_sc_hd__nand2_1
*I *728:Y O *D sky130_fd_sc_hd__nand2_1
*CAP
1 *766:B1_N 0
2 *732:B 0.000262994
3 *730:A 0.000224887
4 *728:Y 0.00013739
5 *215:25 0.000404511
6 *215:6 0.000503795
7 *730:A *216:16 0.000292629
8 *730:A *217:8 5.3304e-05
9 *732:B *222:12 0.000162729
10 *215:6 *216:16 4.66047e-05
11 *215:6 *346:8 3.58084e-06
12 *215:6 *346:21 3.22879e-05
13 *215:25 *216:16 6.79006e-05
14 *732:A *732:B 0.000100069
15 *765:A *732:B 9.16362e-05
16 *765:A *215:25 8.60475e-05
17 *766:A1 *215:25 5.3304e-05
18 *198:26 *730:A 2.68258e-05
19 *203:8 *215:25 0.000139647
*RES
1 *728:Y *215:6 25.0507 
2 *215:6 *730:A 28.3029 
3 *215:6 *215:25 33.48 
4 *215:25 *732:B 28.9243 
5 *215:25 *766:B1_N 23 
*END

*D_NET *216 0.00123474
*CONN
*I *766:A2 I *D sky130_fd_sc_hd__a21bo_1
*I *730:B I *D sky130_fd_sc_hd__nand2_1
*I *729:X O *D sky130_fd_sc_hd__or2_1
*CAP
1 *766:A2 0
2 *730:B 0
3 *729:X 9.37445e-05
4 *216:16 0.000235654
5 *216:6 0.000329398
6 *216:16 *731:C1 0
7 *216:16 *346:8 6.51763e-05
8 *216:16 *370:47 0
9 *730:A *216:16 0.000292629
10 *198:26 *216:16 0.000103637
11 *215:6 *216:16 4.66047e-05
12 *215:25 *216:16 6.79006e-05
*RES
1 *729:X *216:6 24.5743 
2 *216:6 *216:16 37.0636 
3 *216:16 *730:B 23 
4 *216:6 *766:A2 23 
*END

*D_NET *217 0.00109836
*CONN
*I *765:B I *D sky130_fd_sc_hd__xnor2_1
*I *731:C1 I *D sky130_fd_sc_hd__a211o_1
*I *730:Y O *D sky130_fd_sc_hd__nand2_1
*CAP
1 *765:B 8.05781e-05
2 *731:C1 0.000190132
3 *730:Y 4.99221e-05
4 *217:8 0.000320632
5 *730:A *217:8 5.3304e-05
6 *731:B1 *731:C1 0.00026506
7 *731:B1 *765:B 0.000124829
8 *202:12 *731:C1 0
9 *203:8 *731:C1 0
10 *203:8 *765:B 0
11 *214:14 *765:B 1.38978e-05
12 *216:16 *731:C1 0
*RES
1 *730:Y *217:8 38.6214 
2 *217:8 *731:C1 41.6664 
3 *217:8 *765:B 39.9057 
*END

*D_NET *218 0.00248693
*CONN
*I *737:A1 I *D sky130_fd_sc_hd__a21o_1
*I *756:B I *D sky130_fd_sc_hd__and3_1
*I *736:A1 I *D sky130_fd_sc_hd__a21oi_1
*I *731:X O *D sky130_fd_sc_hd__a211o_1
*CAP
1 *737:A1 1.37491e-05
2 *756:B 0.000189123
3 *736:A1 1.45995e-05
4 *731:X 0.000367088
5 *218:23 0.000247613
6 *218:14 0.000164743
7 *218:10 0.00047249
8 *736:A1 *736:A2 1.12349e-05
9 *736:A1 *737:A2 1.12349e-05
10 *737:A1 *737:A2 4.00259e-06
11 *756:B *223:10 0.000141954
12 *756:B *239:10 9.84851e-05
13 *218:10 *289:10 8.4047e-05
14 *218:10 *304:19 5.20305e-05
15 *218:10 *370:148 9.87985e-06
16 *218:14 *222:12 0.000103415
17 *218:14 *222:21 2.46906e-05
18 *218:23 *737:A2 0.00010018
19 *218:23 *222:21 2.47128e-05
20 *218:23 *223:10 4.95081e-05
21 *732:A *736:A1 0
22 *736:B1 *737:A1 5.90675e-06
23 *736:B1 *756:B 2.9938e-05
24 *736:B1 *218:23 2.4754e-05
25 *120:18 *756:B 0.000205566
26 *198:16 *218:10 3.59884e-05
*RES
1 *731:X *218:10 44.2971 
2 *218:10 *218:14 17.5271 
3 *218:14 *736:A1 23.4971 
4 *218:14 *218:23 2.05071 
5 *218:23 *756:B 28.9036 
6 *218:23 *737:A1 23.4971 
*END

*D_NET *219 0.000654211
*CONN
*I *735:B I *D sky130_fd_sc_hd__and4_1
*I *732:X O *D sky130_fd_sc_hd__or2_1
*CAP
1 *735:B 0
2 *732:X 0.000191216
3 *219:10 0.000191216
4 *219:10 *222:12 0.000186733
5 *219:10 *304:19 8.50457e-05
*RES
1 *732:X *219:10 41.2521 
2 *219:10 *735:B 38 
*END

*D_NET *220 0.00121905
*CONN
*I *735:C I *D sky130_fd_sc_hd__and4_1
*I *733:Y O *D sky130_fd_sc_hd__nand2b_1
*CAP
1 *735:C 2.98451e-05
2 *733:Y 0.000344971
3 *220:14 0.000374816
4 *735:C *843:CLK 5.56279e-05
5 *220:14 *304:19 3.43144e-05
6 *220:14 *304:69 3.98882e-06
7 *220:14 *370:77 9.67842e-05
8 *210:41 *220:14 0.000278708
9 *212:54 *220:14 0
*RES
1 *733:Y *220:14 44.9393 
2 *220:14 *735:C 38.6214 
*END

*D_NET *221 0.000771707
*CONN
*I *735:D I *D sky130_fd_sc_hd__and4_1
*I *734:X O *D sky130_fd_sc_hd__or3_1
*CAP
1 *735:D 4.64393e-05
2 *734:X 0.000196038
3 *221:14 0.000242477
4 *735:D *843:CLK 0.000100069
5 *212:35 *221:14 2.93432e-05
6 *212:54 *221:14 0.000157341
*RES
1 *734:X *221:14 41.6457 
2 *221:14 *735:D 39.0979 
*END

*D_NET *222 0.00268015
*CONN
*I *756:C I *D sky130_fd_sc_hd__and3_1
*I *737:A2 I *D sky130_fd_sc_hd__a21o_1
*I *736:A2 I *D sky130_fd_sc_hd__a21oi_1
*I *735:X O *D sky130_fd_sc_hd__and4_1
*CAP
1 *756:C 0.000382557
2 *737:A2 2.58411e-05
3 *736:A2 1.46567e-05
4 *735:X 8.17519e-05
5 *222:21 0.000451496
6 *222:12 0.000267704
7 *222:8 0.000291701
8 *732:A *736:A2 0
9 *732:A *222:12 4.50291e-05
10 *732:B *222:12 0.000162729
11 *736:A1 *736:A2 1.12349e-05
12 *736:A1 *737:A2 1.12349e-05
13 *736:B1 *737:A2 5.67058e-05
14 *736:B1 *756:C 0.000187129
15 *737:A1 *737:A2 4.00259e-06
16 *120:18 *756:C 0.000191037
17 *214:14 *222:8 5.561e-05
18 *218:14 *222:12 0.000103415
19 *218:14 *222:21 2.46906e-05
20 *218:23 *737:A2 0.00010018
21 *218:23 *222:21 2.47128e-05
22 *219:10 *222:12 0.000186733
*RES
1 *735:X *222:8 39.5536 
2 *222:8 *222:12 20.3857 
3 *222:12 *736:A2 23.4971 
4 *222:12 *222:21 1.09786 
5 *222:21 *737:A2 24.595 
6 *222:21 *756:C 29.7011 
*END

*D_NET *223 0.00117529
*CONN
*I *757:A I *D sky130_fd_sc_hd__nor2_1
*I *736:Y O *D sky130_fd_sc_hd__a21oi_1
*CAP
1 *757:A 2.53838e-05
2 *736:Y 0.00038255
3 *223:10 0.000407934
4 *757:A *605:A 5.67058e-05
5 *223:10 *239:10 0.000111253
6 *756:B *223:10 0.000141954
7 *89:12 *223:10 0
8 *218:23 *223:10 4.95081e-05
*RES
1 *736:Y *223:10 45.25 
2 *223:10 *757:A 38.6214 
*END

*D_NET *224 0.00291819
*CONN
*I *739:A3 I *D sky130_fd_sc_hd__a311o_1
*I *738:A3 I *D sky130_fd_sc_hd__a31oi_1
*I *761:A2 I *D sky130_fd_sc_hd__a21o_1
*I *758:B I *D sky130_fd_sc_hd__nand2_1
*I *737:X O *D sky130_fd_sc_hd__a21o_1
*CAP
1 *739:A3 4.20672e-05
2 *738:A3 0
3 *761:A2 2.34823e-05
4 *758:B 0
5 *737:X 0.000137634
6 *224:40 0.000180948
7 *224:32 0.00033137
8 *224:23 0.00038979
9 *224:12 0.000452122
10 *224:8 0.000331804
11 *739:A3 *857:A 7.27182e-05
12 *224:12 *857:A 0.00010018
13 *224:23 *857:A 6.82878e-05
14 *224:32 *857:A 9.16362e-05
15 *224:40 *747:A 0
16 *738:A2 *224:40 2.64616e-05
17 *739:A2 *739:A3 0.000181098
18 *739:A2 *224:32 5.3304e-05
19 *739:A2 *224:40 8.72173e-05
20 *761:B1 *224:32 5.50106e-05
21 *117:24 *224:40 0
22 *118:10 *224:40 6.87573e-05
23 *118:21 *224:40 8.4047e-05
24 *120:10 *224:8 0
25 *120:10 *224:23 0.000140259
*RES
1 *737:X *224:8 40.2579 
2 *224:8 *224:12 18.9564 
3 *224:12 *758:B 23 
4 *224:12 *224:23 5.30286 
5 *224:23 *761:A2 23.4971 
6 *224:23 *224:32 2.52714 
7 *224:32 *224:40 33.5836 
8 *224:40 *738:A3 23 
9 *224:32 *739:A3 25.0714 
*END

*D_NET *225 0.000346823
*CONN
*I *740:B I *D sky130_fd_sc_hd__xnor2_1
*I *738:Y O *D sky130_fd_sc_hd__a31oi_1
*CAP
1 *740:B 0
2 *738:Y 0.000166894
3 *225:10 0.000166894
4 *225:10 *301:28 0
5 *225:10 *351:12 0
6 *738:A1 *225:10 8.98844e-06
7 *117:24 *225:10 4.04598e-06
*RES
1 *738:Y *225:10 40.5271 
2 *225:10 *740:B 38 
*END

*D_NET *226 0.00613259
*CONN
*I *753:A1 I *D sky130_fd_sc_hd__a21oi_1
*I *749:A2 I *D sky130_fd_sc_hd__a31o_1
*I *744:B I *D sky130_fd_sc_hd__nand2_1
*I *739:X O *D sky130_fd_sc_hd__a311o_1
*CAP
1 *753:A1 0.000188443
2 *749:A2 0
3 *744:B 3.22705e-05
4 *739:X 0.000409166
5 *226:50 0.000581695
6 *226:31 0.000390669
7 *226:17 0.000858008
8 *226:8 0.000515522
9 *753:A1 *615:B 5.50049e-05
10 *753:A1 *747:B 1.03955e-05
11 *753:A1 *753:A2 7.59794e-05
12 *226:8 *857:A 2.80924e-06
13 *226:17 *230:10 0.000313244
14 *226:31 *749:B1 2.34279e-05
15 *226:31 *227:27 9.18195e-05
16 *226:31 *230:10 0.000135557
17 *226:31 *232:35 0
18 *226:31 *305:89 0.000127261
19 *226:50 *852:CLK 7.57281e-06
20 *226:50 *230:10 5.50106e-05
21 *226:50 *235:14 4.14907e-05
22 *226:50 *298:10 6.10551e-06
23 *226:50 *305:96 0
24 *226:50 *320:14 0.000267167
25 *226:50 *323:28 0.000397236
26 *226:50 *355:42 8.62876e-05
27 *739:A2 *226:8 0.000143655
28 *739:B1 *744:B 0
29 *739:C1 *744:B 0
30 *55:17 *226:31 6.77278e-05
31 *57:17 *226:50 0.000106729
32 *101:31 *226:50 2.24608e-05
33 *101:41 *226:31 5.29842e-05
34 *103:16 *744:B 3.84128e-05
35 *103:16 *226:8 9.24795e-06
36 *103:16 *226:17 0.000332606
37 *103:16 *226:50 0.000342591
38 *107:33 *226:31 0.000153212
39 *112:23 *226:31 4.5051e-05
40 *113:10 *226:31 2.75733e-06
41 *117:12 *226:8 9.62666e-05
42 *117:24 *226:8 4.67488e-05
*RES
1 *739:X *226:8 28.8829 
2 *226:8 *744:B 23.8493 
3 *226:8 *226:17 3.95643 
4 *226:17 *226:31 38.1407 
5 *226:31 *749:A2 23 
6 *226:17 *226:50 38.4544 
7 *226:50 *753:A1 40.5271 
*END

*D_NET *227 0.00837578
*CONN
*I *749:B1 I *D sky130_fd_sc_hd__a31o_1
*I *743:A_N I *D sky130_fd_sc_hd__nand2b_1
*I *752:A1 I *D sky130_fd_sc_hd__a21o_1
*I *741:Y O *D sky130_fd_sc_hd__nor2_1
*CAP
1 *749:B1 3.94298e-05
2 *743:A_N 0.000101249
3 *752:A1 0.000154017
4 *741:Y 9.47293e-05
5 *227:41 0.000638852
6 *227:27 0.0017832
7 *227:10 0.00179699
8 *227:8 0.000531539
9 *743:A_N *743:B 6.17437e-06
10 *743:A_N *229:20 0.000110854
11 *752:A1 *356:48 0.000139352
12 *227:8 *359:8 5.3304e-05
13 *227:10 *741:B 0.00022393
14 *227:10 *754:B 0.000272331
15 *227:10 *923:A 3.47781e-05
16 *227:10 *356:31 0.000168129
17 *227:10 *358:31 0.000108561
18 *227:27 *746:B 6.10781e-05
19 *227:27 *852:D 0.000143536
20 *227:27 *232:50 0
21 *227:27 *358:31 7.19989e-05
22 *227:41 *747:A 2.52624e-05
23 *227:41 *228:34 2.12234e-05
24 *227:41 *296:10 3.22879e-05
25 *227:41 *305:89 0.000101225
26 *227:41 *316:20 3.18831e-05
27 *227:41 *323:28 8.04117e-05
28 *227:41 *351:30 4.30894e-05
29 acc[1] *227:10 8.0934e-05
30 acc[29] *227:10 2.5343e-05
31 *626:A *227:27 1.41077e-05
32 *630:B1 *743:A_N 4.09681e-05
33 *36:11 *227:10 3.13392e-05
34 *56:11 *227:10 0.000134965
35 *57:17 *227:41 2.46922e-05
36 *60:17 *227:41 1.00291e-05
37 *98:8 *227:10 0.000323283
38 *99:8 *227:10 1.02556e-05
39 *99:8 *227:27 2.68724e-05
40 *107:16 *227:27 3.58084e-06
41 *111:29 *227:41 0.0003162
42 *112:23 *749:B1 5.50049e-05
43 *112:23 *227:27 5.61255e-06
44 *112:23 *227:41 0.000151182
45 *113:10 *227:27 0.000136743
46 *226:31 *749:B1 2.34279e-05
47 *226:31 *227:27 9.18195e-05
*RES
1 *741:Y *227:8 39.0979 
2 *227:8 *227:10 13.1743 
3 *227:10 *752:A1 40.0507 
4 *227:10 *227:27 31.82 
5 *227:27 *227:41 38.5756 
6 *227:41 *743:A_N 40.5686 
7 *227:27 *749:B1 24.1186 
*END

*D_NET *228 0.00465855
*CONN
*I *751:A1 I *D sky130_fd_sc_hd__o211a_1
*I *749:A3 I *D sky130_fd_sc_hd__a31o_1
*I *743:B I *D sky130_fd_sc_hd__nand2b_1
*I *742:Y O *D sky130_fd_sc_hd__nand2_1
*CAP
1 *751:A1 2.0026e-05
2 *749:A3 0
3 *743:B 7.79474e-06
4 *742:Y 0.000508822
5 *228:49 8.79856e-05
6 *228:34 0.000508263
7 *228:20 0.000849633
8 *228:14 0.000310278
9 *228:10 0.000537894
10 *743:B *229:20 1.32578e-07
11 *751:A1 *751:A2 1.09903e-05
12 *228:10 *852:CLK 7.34407e-05
13 *228:10 *918:A 9.5877e-05
14 *228:10 *232:35 0
15 *228:10 *299:8 3.04062e-05
16 *228:10 *320:20 0.000102484
17 *228:10 *322:33 2.79662e-05
18 *228:10 *354:12 9.67842e-05
19 *228:14 *751:A2 2.4754e-05
20 *228:20 *751:A2 2.93845e-05
21 *228:20 *751:B1 3.34247e-05
22 *228:20 *316:16 8.59719e-06
23 *228:34 *747:A 1.34542e-05
24 *228:34 *229:20 0.000329272
25 *228:34 *316:16 9.24795e-06
26 *228:34 *316:20 4.9808e-05
27 *228:34 *351:30 2.11157e-05
28 *228:49 *232:35 5.75047e-05
29 acc[26] *228:10 0
30 *630:B1 *743:B 6.39489e-06
31 *743:A_N *743:B 6.17437e-06
32 *849:RESET_B *228:10 9.67842e-05
33 *60:17 *228:34 0.000123037
34 *96:10 *228:10 8.58484e-05
35 *101:41 *228:20 6.68822e-05
36 *101:41 *228:34 2.93845e-05
37 *101:41 *228:49 0.00013139
38 *107:10 *228:10 0
39 *111:29 *228:34 0.000246095
40 *113:10 *228:10 0
41 *227:41 *228:34 2.12234e-05
*RES
1 *742:Y *228:10 47.5907 
2 *228:10 *228:14 15.6214 
3 *228:14 *228:20 4.12214 
4 *228:20 *228:34 37.3889 
5 *228:34 *743:B 38.1502 
6 *228:20 *228:49 31.9057 
7 *228:49 *749:A3 23 
8 *228:14 *751:A1 23.4971 
*END

*D_NET *229 0.00155462
*CONN
*I *745:A I *D sky130_fd_sc_hd__xnor2_1
*I *743:Y O *D sky130_fd_sc_hd__nand2b_1
*CAP
1 *745:A 0
2 *743:Y 0.000446512
3 *229:20 0.000446512
4 *229:20 *316:16 0.00010684
5 *630:B1 *229:20 4.29883e-05
6 *743:A_N *229:20 0.000110854
7 *743:B *229:20 1.32578e-07
8 *107:33 *229:20 7.15126e-05
9 *228:34 *229:20 0.000329272
*RES
1 *743:Y *229:20 32.5907 
2 *229:20 *745:A 23 
*END

*D_NET *230 0.0012477
*CONN
*I *745:B I *D sky130_fd_sc_hd__xnor2_1
*I *744:Y O *D sky130_fd_sc_hd__nand2_1
*CAP
1 *745:B 0
2 *744:Y 0.00032992
3 *230:10 0.00032992
4 *230:10 *232:10 0
5 *230:10 *320:10 8.4047e-05
6 *226:17 *230:10 0.000313244
7 *226:31 *230:10 0.000135557
8 *226:50 *230:10 5.50106e-05
*RES
1 *744:Y *230:10 43.8621 
2 *230:10 *745:B 38 
*END

*D_NET *231 0.00320237
*CONN
*I *752:B1 I *D sky130_fd_sc_hd__a21o_1
*I *751:A2 I *D sky130_fd_sc_hd__o211a_1
*I *748:A_N I *D sky130_fd_sc_hd__and2b_1
*I *746:Y O *D sky130_fd_sc_hd__nor2_1
*CAP
1 *752:B1 0
2 *751:A2 0.000267874
3 *748:A_N 8.77015e-05
4 *746:Y 7.60958e-05
5 *231:27 0.000528191
6 *231:12 0.000403336
7 *231:8 0.000131414
8 *748:A_N *917:A 0.000138444
9 *748:A_N *919:A 9.67842e-05
10 *751:A2 *751:B1 3.84098e-05
11 *751:A2 *235:14 4.9662e-05
12 *751:A2 *316:16 0.000207275
13 *751:A2 *356:48 6.9805e-05
14 *231:8 *370:116 0.000112619
15 *231:12 *919:A 4.3198e-05
16 *231:27 *232:50 0.000364899
17 *231:27 *355:42 0.000194013
18 *231:27 *356:48 5.50049e-05
19 *231:27 *370:116 6.7177e-06
20 *751:A1 *751:A2 1.09903e-05
21 *21:8 *748:A_N 0.000225393
22 *96:10 *748:A_N 1.56665e-05
23 *96:10 *231:12 2.47321e-05
24 *228:14 *751:A2 2.4754e-05
25 *228:20 *751:A2 2.93845e-05
*RES
1 *746:Y *231:8 39.5536 
2 *231:8 *231:12 16.0979 
3 *231:12 *748:A_N 26.0036 
4 *231:12 *231:27 36.7529 
5 *231:27 *751:A2 29.38 
6 *231:27 *752:B1 23 
*END

*D_NET *232 0.00726741
*CONN
*I *752:A2 I *D sky130_fd_sc_hd__a21o_1
*I *748:B I *D sky130_fd_sc_hd__and2b_1
*I *751:B1 I *D sky130_fd_sc_hd__o211a_1
*I *747:Y O *D sky130_fd_sc_hd__nand2_1
*CAP
1 *752:A2 0
2 *748:B 0
3 *751:B1 7.091e-05
4 *747:Y 0.000634977
5 *232:50 0.000529887
6 *232:35 0.00106346
7 *232:10 0.00094915
8 *232:8 0.000979647
9 *751:B1 *316:16 0.000182832
10 *232:8 *747:B 0.000212309
11 *232:10 *305:12 0
12 *232:10 *305:66 0
13 *232:10 *305:89 0
14 *232:10 *305:96 0
15 *232:10 *320:10 2.29192e-05
16 *232:35 *750:A 0.000179824
17 *232:35 *852:CLK 0
18 *232:35 *917:A 1.6558e-05
19 *232:35 *234:10 0.000184437
20 *232:50 *746:B 0
21 *232:50 *917:A 4.66047e-05
22 *232:50 *356:48 5.3304e-05
23 *616:B *232:10 0.000123317
24 *751:A2 *751:B1 3.84098e-05
25 *96:10 *232:50 0.000389777
26 *97:10 *232:8 0.00048023
27 *99:8 *232:50 0.000155449
28 *101:16 *232:10 0.000132345
29 *101:25 *232:10 2.12347e-06
30 *101:31 *232:10 8.54667e-05
31 *101:31 *232:35 3.33082e-05
32 *101:41 *751:B1 9.41704e-05
33 *101:41 *232:35 1.16679e-05
34 *107:10 *232:35 0.000138504
35 *226:31 *232:35 0
36 *227:27 *232:50 0
37 *228:10 *232:35 0
38 *228:20 *751:B1 3.34247e-05
39 *228:49 *232:35 5.75047e-05
40 *230:10 *232:10 0
41 *231:27 *232:50 0.000364899
*RES
1 *747:Y *232:8 47.6736 
2 *232:8 *232:10 6.48357 
3 *232:10 *751:B1 40.5479 
4 *232:10 *232:35 25.1914 
5 *232:35 *748:B 23 
6 *232:35 *232:50 41.0821 
7 *232:50 *752:A2 23 
*END

*D_NET *233 0.000551628
*CONN
*I *750:A I *D sky130_fd_sc_hd__xnor2_1
*I *748:X O *D sky130_fd_sc_hd__and2b_1
*CAP
1 *750:A 5.39667e-05
2 *748:X 5.39667e-05
3 *750:A *917:A 0.000242019
4 *107:10 *750:A 2.18506e-05
5 *232:35 *750:A 0.000179824
*RES
1 *748:X *750:A 49.0243 
*END

*D_NET *234 0.000666336
*CONN
*I *750:B I *D sky130_fd_sc_hd__xnor2_1
*I *749:X O *D sky130_fd_sc_hd__a31o_1
*CAP
1 *750:B 0
2 *749:X 0.000118661
3 *234:10 0.000118661
4 *112:23 *234:10 2.93747e-05
5 *113:10 *234:10 0.000215202
6 *232:35 *234:10 0.000184437
*RES
1 *749:X *234:10 41.2314 
2 *234:10 *750:B 38 
*END

*D_NET *235 0.00186482
*CONN
*I *753:A2 I *D sky130_fd_sc_hd__a21oi_1
*I *751:X O *D sky130_fd_sc_hd__o211a_1
*CAP
1 *753:A2 6.53256e-05
2 *751:X 0.000379648
3 *235:14 0.000444974
4 *753:A2 *747:B 7.23724e-05
5 *753:A2 *371:78 9.65021e-05
6 *235:14 *236:8 0.000265017
7 *235:14 *298:10 0
8 *235:14 *320:20 0.000185183
9 *235:14 *320:39 7.76364e-06
10 *235:14 *355:10 1.14452e-05
11 *235:14 *355:42 0.000135547
12 *751:A2 *235:14 4.9662e-05
13 *753:A1 *753:A2 7.59794e-05
14 *876:A *235:14 3.39102e-05
15 *226:50 *235:14 4.14907e-05
*RES
1 *751:X *235:14 46.4721 
2 *235:14 *753:A2 40.0507 
*END

*D_NET *236 0.000811791
*CONN
*I *753:B1 I *D sky130_fd_sc_hd__a21oi_1
*I *752:X O *D sky130_fd_sc_hd__a21o_1
*CAP
1 *753:B1 0
2 *752:X 0.00014078
3 *236:8 0.00014078
4 *236:8 *320:39 4.74706e-05
5 *236:8 *355:42 0.000217743
6 *235:14 *236:8 0.000265017
*RES
1 *752:X *236:8 42.3707 
2 *236:8 *753:B1 38 
*END

*D_NET *237 0.000626761
*CONN
*I *755:A I *D sky130_fd_sc_hd__xnor2_1
*I *753:Y O *D sky130_fd_sc_hd__a21oi_1
*CAP
1 *755:A 8.12683e-05
2 *753:Y 8.0145e-05
3 *237:8 0.000161413
4 *755:A *755:B 7.88828e-05
5 *755:A *355:10 1.76557e-05
6 *237:8 *319:16 0
7 *237:8 *355:10 4.08641e-05
8 *237:8 *371:78 0.000166532
*RES
1 *753:Y *237:8 40.2579 
2 *237:8 *755:A 40.0507 
*END

*D_NET *238 0.000371997
*CONN
*I *755:B I *D sky130_fd_sc_hd__xnor2_1
*I *754:Y O *D sky130_fd_sc_hd__xnor2_1
*CAP
1 *755:B 0.000116348
2 *754:Y 0.000116348
3 *755:B *355:10 5.67058e-05
4 *755:B *371:78 3.7122e-06
5 *755:A *755:B 7.88828e-05
*RES
1 *754:Y *755:B 48.5479 
*END

*D_NET *239 0.000814211
*CONN
*I *757:B I *D sky130_fd_sc_hd__nor2_1
*I *756:X O *D sky130_fd_sc_hd__and3_1
*CAP
1 *757:B 0
2 *756:X 0.000274426
3 *239:10 0.000274426
4 *239:10 *293:10 5.56203e-05
5 *756:B *239:10 9.84851e-05
6 *93:10 *239:10 0
7 *223:10 *239:10 0.000111253
*RES
1 *756:X *239:10 43.8207 
2 *239:10 *757:B 38 
*END

*D_NET *240 0.00144983
*CONN
*I *760:A2 I *D sky130_fd_sc_hd__a21bo_1
*I *759:B I *D sky130_fd_sc_hd__xnor2_1
*I *758:Y O *D sky130_fd_sc_hd__nand2_1
*CAP
1 *760:A2 0.000310259
2 *759:B 0
3 *758:Y 8.20336e-05
4 *240:8 0.000392293
5 *760:A2 *618:A 3.61695e-05
6 *760:A2 *618:B 4.6318e-06
7 *760:A2 *352:10 6.38895e-05
8 *760:A2 *352:25 2.12708e-05
9 *760:A2 *370:77 0
10 *240:8 *314:16 4.41619e-05
11 *619:A *760:A2 0.000157555
12 *619:A *240:8 1.14452e-05
13 *625:A *760:A2 3.95159e-06
14 *760:A1 *760:A2 0.000139346
15 *104:6 *760:A2 0.00018282
*RES
1 *758:Y *240:8 39.9057 
2 *240:8 *759:B 38 
3 *240:8 *760:A2 44.4007 
*END

*D_NET *241 0.000573254
*CONN
*I *762:B I *D sky130_fd_sc_hd__xnor2_1
*I *760:X O *D sky130_fd_sc_hd__a21bo_1
*CAP
1 *762:B 0
2 *760:X 0.000140664
3 *241:10 0.000140664
4 *241:10 *617:B 9.75779e-05
5 *241:10 *315:8 0.000138727
6 *241:10 *349:21 0
7 *241:10 *370:91 5.56203e-05
*RES
1 *760:X *241:10 41.0036 
2 *241:10 *762:B 38 
*END

*D_NET *242 0.000652698
*CONN
*I *763:C I *D sky130_fd_sc_hd__and3_1
*I *761:X O *D sky130_fd_sc_hd__a21o_1
*CAP
1 *763:C 5.79014e-05
2 *761:X 0.000210542
3 *242:8 0.000268443
4 *242:8 *314:16 0
5 *624:B *242:8 0
6 *761:B1 *242:8 3.56386e-05
7 *55:17 *242:8 6.79006e-05
8 *111:29 *242:8 6.10551e-06
9 *112:6 *763:C 5.27215e-06
10 *112:23 *763:C 8.9521e-07
11 *116:10 *242:8 0
*RES
1 *761:X *242:8 42.0186 
2 *242:8 *763:C 38.7043 
*END

*D_NET *243 0.00106555
*CONN
*I *764:B I *D sky130_fd_sc_hd__xor2_1
*I *763:X O *D sky130_fd_sc_hd__and3_1
*CAP
1 *764:B 0
2 *763:X 0.000209134
3 *243:8 0.000209134
4 *243:8 *323:12 5.97296e-05
5 *764:A *243:8 1.4557e-05
6 *883:A *243:8 9.62666e-05
7 *112:23 *243:8 0.000476732
*RES
1 *763:X *243:8 28.8829 
2 *243:8 *764:B 23 
*END

*D_NET *244 0.00097509
*CONN
*I *767:B I *D sky130_fd_sc_hd__xnor2_1
*I *768:A2 I *D sky130_fd_sc_hd__a21bo_1
*I *766:X O *D sky130_fd_sc_hd__a21bo_1
*CAP
1 *767:B 2.63843e-05
2 *768:A2 9.72992e-05
3 *766:X 0.000218542
4 *244:10 0.000123683
5 *244:8 0.000218542
6 *768:A2 *290:10 2.93845e-05
7 *244:8 *290:10 7.03663e-05
8 *244:8 *344:47 0
9 *719:B *767:B 2.93845e-05
10 *719:B *768:A2 0.000128391
11 *206:25 *244:8 0
12 *209:16 *244:8 3.31127e-05
13 *214:14 *244:8 0
*RES
1 *766:X *244:8 42.7229 
2 *244:8 *244:10 15 
3 *244:10 *768:A2 25.5271 
4 *244:10 *767:B 23.6214 
*END

*D_NET *245 0.00182267
*CONN
*I *770:A2 I *D sky130_fd_sc_hd__a21bo_1
*I *769:B I *D sky130_fd_sc_hd__xnor2_1
*I *768:X O *D sky130_fd_sc_hd__a21bo_1
*CAP
1 *770:A2 0.000173108
2 *769:B 0.00022352
3 *768:X 0.000164949
4 *245:10 0.000396628
5 *245:8 0.000164949
6 *769:B *370:62 4.56219e-05
7 *769:B *370:77 1.94693e-05
8 *770:A2 *603:A 4.00259e-06
9 *770:A2 *370:77 2.80512e-05
10 *245:8 *344:47 5.15908e-05
11 *733:A_N *770:A2 0.000182832
12 *770:B1_N *770:A2 5.50049e-05
13 *49:17 *769:B 0.000272377
14 *91:8 *245:8 1.83564e-05
15 *208:10 *245:8 2.22079e-05
16 *209:16 *245:8 0
*RES
1 *768:X *245:8 40.9621 
2 *245:8 *245:10 15 
3 *245:10 *769:B 27.9093 
4 *245:10 *770:A2 27.1221 
*END

*D_NET *246 0.00022252
*CONN
*I *771:B I *D sky130_fd_sc_hd__xnor2_1
*I *770:X O *D sky130_fd_sc_hd__a21bo_1
*CAP
1 *771:B 7.25907e-05
2 *770:X 7.25907e-05
3 *733:A_N *771:B 7.73389e-05
*RES
1 *770:X *771:B 47.5743 
*END

*D_NET *247 0.00215739
*CONN
*I *774:A2 I *D sky130_fd_sc_hd__a21oi_1
*I *775:C I *D sky130_fd_sc_hd__and3_1
*I *772:Y O *D sky130_fd_sc_hd__nand2_1
*CAP
1 *774:A2 0
2 *775:C 0.000208949
3 *772:Y 0.000529496
4 *247:19 0.000101426
5 *247:6 0.000839871
6 *775:C *709:B 6.743e-05
7 *247:19 *248:8 3.884e-05
8 *711:A1 *247:6 7.43845e-05
9 *711:B1 *775:C 4.75206e-05
10 *711:B1 *247:6 0.000101778
11 *772:A *247:6 3.07986e-05
12 *772:B *247:6 0.000105447
13 *185:10 *247:19 1.14452e-05
*RES
1 *772:Y *247:6 30.7679 
2 *247:6 *775:C 25.8689 
3 *247:6 *247:19 31.9057 
4 *247:19 *774:A2 23 
*END

*D_NET *248 0.00231618
*CONN
*I *776:A I *D sky130_fd_sc_hd__nor2_1
*I *777:B1 I *D sky130_fd_sc_hd__a21o_1
*I *774:Y O *D sky130_fd_sc_hd__a21oi_1
*CAP
1 *776:A 0
2 *777:B1 0.000118195
3 *774:Y 0.000273904
4 *248:29 0.000265797
5 *248:10 0.000383993
6 *248:8 0.000273904
7 *777:B1 *714:A1 0
8 *777:B1 *341:6 7.15126e-05
9 *777:B1 *341:14 3.38644e-05
10 *777:B1 *373:19 6.08617e-05
11 *248:8 *709:A 3.11378e-05
12 *248:8 *249:10 0.000136486
13 *248:8 *286:10 0
14 *248:8 *302:16 3.92407e-05
15 *248:29 *708:A 8.16459e-05
16 *248:29 *709:A 1.22803e-05
17 *248:29 *341:6 8.40718e-05
18 *248:29 *373:19 2.02872e-05
19 *248:29 *374:10 1.94693e-05
20 *710:A *777:B1 5.3304e-05
21 *710:A *248:29 5.3304e-05
22 *774:A1 *248:8 9.55308e-05
23 *35:17 *248:29 5.50049e-05
24 *44:11 *248:29 0
25 *185:10 *248:8 0
26 *195:14 *248:8 7.65264e-05
27 *196:10 *248:29 3.70187e-05
28 *247:19 *248:8 3.884e-05
*RES
1 *774:Y *248:8 44.1314 
2 *248:8 *248:10 15 
3 *248:10 *777:B1 25.5479 
4 *248:10 *248:29 35.6343 
5 *248:29 *776:A 23 
*END

*D_NET *249 0.00111443
*CONN
*I *776:B I *D sky130_fd_sc_hd__nor2_1
*I *775:X O *D sky130_fd_sc_hd__and3_1
*CAP
1 *776:B 0
2 *775:X 0.00024406
3 *249:10 0.00024406
4 *249:10 *708:A 0.000156388
5 *249:10 *708:B 1.69668e-05
6 *249:10 *709:A 0.000185755
7 *711:B1 *249:10 5.25848e-05
8 *195:8 *249:10 6.68793e-05
9 *195:14 *249:10 1.12487e-05
10 *248:8 *249:10 0.000136486
*RES
1 *775:X *249:10 43.8207 
2 *249:10 *776:B 38 
*END

*D_NET *250 0.00154318
*CONN
*I *778:B I *D sky130_fd_sc_hd__xnor2_1
*I *779:A2 I *D sky130_fd_sc_hd__a21bo_1
*I *777:X O *D sky130_fd_sc_hd__a21o_1
*CAP
1 *778:B 0
2 *779:A2 7.48441e-05
3 *777:X 0.000251913
4 *250:14 0.00018491
5 *250:10 0.000361979
6 *779:A2 *343:14 0.00010655
7 *250:10 *599:A 0
8 *250:10 *708:A 0
9 *250:10 *708:B 0.000138727
10 *250:10 *286:10 0.000194318
11 *250:10 *370:27 0
12 *250:10 *373:19 5.3304e-05
13 *250:14 *343:6 4.02485e-05
14 *250:14 *343:14 7.53384e-06
15 *706:A *250:10 7.55491e-05
16 *778:A *250:14 5.3304e-05
*RES
1 *777:X *250:10 43.3443 
2 *250:10 *250:14 17.0507 
3 *250:14 *779:A2 25.0507 
4 *250:14 *778:B 23 
*END

*D_NET *251 0.000299652
*CONN
*I *780:B I *D sky130_fd_sc_hd__xnor2_1
*I *779:X O *D sky130_fd_sc_hd__a21bo_1
*CAP
1 *780:B 0
2 *779:X 8.19712e-05
3 *251:8 8.19712e-05
4 *251:8 *343:40 8.06039e-05
5 *201:10 *251:8 5.51058e-05
*RES
1 *779:X *251:8 40.2579 
2 *251:8 *780:B 38 
*END

*D_NET *252 0.00253119
*CONN
*I *783:B I *D sky130_fd_sc_hd__xnor2_1
*I *784:A2 I *D sky130_fd_sc_hd__a21bo_1
*I *782:X O *D sky130_fd_sc_hd__a21bo_1
*CAP
1 *783:B 0
2 *784:A2 0.000185267
3 *782:X 0.000341581
4 *252:12 0.000185267
5 *252:10 0.000341581
6 *784:A2 *683:A 0.000173278
7 *784:A2 *350:12 8.69849e-05
8 *252:10 *686:A 0.000136486
9 *252:10 *302:6 0.000259378
10 *252:10 *302:10 9.41704e-05
11 *783:A *784:A2 9.41704e-05
12 *784:A1 *784:A2 5.67058e-05
13 *170:33 *784:A2 0.000439831
14 *185:10 *252:10 0.000136486
*RES
1 *782:X *252:10 43.8621 
2 *252:10 *252:12 15 
3 *252:12 *784:A2 29.815 
4 *252:12 *783:B 23 
*END

*D_NET *253 0.00172138
*CONN
*I *786:A2 I *D sky130_fd_sc_hd__a21bo_1
*I *785:B I *D sky130_fd_sc_hd__xnor2_1
*I *784:X O *D sky130_fd_sc_hd__a21bo_1
*CAP
1 *786:A2 7.13592e-05
2 *785:B 0.000188673
3 *784:X 0.000274617
4 *253:8 0.000534649
5 *785:B *284:10 5.26101e-05
6 *785:B *302:44 1.01436e-05
7 *786:A2 *332:12 0.000313255
8 *253:8 *862:A 0
9 *253:8 *903:A 0
10 *253:8 *254:10 0
11 *253:8 *284:10 5.26204e-05
12 *35:9 *253:8 0
13 *68:11 *785:B 0
14 *169:21 *253:8 0
15 *174:36 *785:B 5.0001e-05
16 *174:36 *786:A2 0.000173452
*RES
1 *784:X *253:8 43.075 
2 *253:8 *785:B 42.35 
3 *253:8 *786:A2 41.48 
*END

*D_NET *254 0.000415151
*CONN
*I *787:B I *D sky130_fd_sc_hd__xnor2_1
*I *786:X O *D sky130_fd_sc_hd__a21bo_1
*CAP
1 *787:B 0
2 *786:X 0.000148292
3 *254:10 0.000148292
4 *254:10 *862:A 0
5 *254:10 *284:10 8.62783e-05
6 *254:10 *332:12 3.22879e-05
7 *253:8 *254:10 0
*RES
1 *786:X *254:10 40.5271 
2 *254:10 *787:B 38 
*END

*D_NET *255 0.00152852
*CONN
*I *789:B I *D sky130_fd_sc_hd__and2_1
*I *788:Y O *D sky130_fd_sc_hd__nand3_1
*CAP
1 *789:B 0.00015335
2 *788:Y 0.000356225
3 *255:10 0.000509575
4 *679:A2 *255:10 0.000114846
5 *679:C1 *789:B 3.52383e-05
6 *164:21 *255:10 2.93747e-05
7 *165:10 *789:B 0.000183733
8 *165:10 *255:10 0.00014196
9 *166:8 *255:10 4.21594e-06
*RES
1 *788:Y *255:10 43.2821 
2 *255:10 *789:B 41.5007 
*END

*D_NET *256 0.00174627
*CONN
*I *791:B I *D sky130_fd_sc_hd__xnor2_1
*I *792:A2 I *D sky130_fd_sc_hd__a21bo_1
*I *790:Y O *D sky130_fd_sc_hd__nand2_1
*CAP
1 *791:B 0
2 *792:A2 0.000148503
3 *790:Y 0.000117353
4 *256:12 0.000178843
5 *256:8 0.000147693
6 *792:A2 *368:56 9.67842e-05
7 *792:A2 *368:65 5.3304e-05
8 *256:8 *368:114 0
9 *644:C *256:12 5.50106e-05
10 *790:A *256:8 3.92407e-05
11 *791:A *256:12 5.50049e-05
12 *127:42 *792:A2 9.45591e-05
13 *127:42 *256:12 1.72202e-05
14 *134:18 *256:8 0.000110922
15 *170:33 *792:A2 0.000440786
16 *170:33 *256:8 4.90891e-05
17 *170:33 *256:12 0.000141954
*RES
1 *790:Y *256:8 40.61 
2 *256:8 *256:12 16.5743 
3 *256:12 *792:A2 27.9093 
4 *256:12 *791:B 23 
*END

*D_NET *257 0.00250901
*CONN
*I *794:A2 I *D sky130_fd_sc_hd__a21bo_1
*I *793:B I *D sky130_fd_sc_hd__xnor2_1
*I *792:X O *D sky130_fd_sc_hd__a21bo_1
*CAP
1 *794:A2 0.000350165
2 *793:B 0.00012459
3 *792:X 5.37571e-05
4 *257:8 0.000528511
5 *794:A2 *317:12 0.000142482
6 *794:A2 *331:10 8.4047e-05
7 *794:A2 *331:18 4.99132e-06
8 *257:8 *317:12 0.000170367
9 *793:A *793:B 0.000103603
10 *40:11 *257:8 0.00012758
11 *83:8 *794:A2 0.000221889
12 *125:10 *794:A2 9.97685e-05
13 *125:10 *257:8 1.25212e-05
14 *125:18 *794:A2 8.45984e-05
15 *126:12 *794:A2 0.000182663
16 *126:31 *794:A2 0.000217473
*RES
1 *792:X *257:8 40.2579 
2 *257:8 *793:B 40.6721 
3 *257:8 *794:A2 47.7771 
*END

*D_NET *258 0.00139112
*CONN
*I *795:B I *D sky130_fd_sc_hd__xnor2_1
*I *794:X O *D sky130_fd_sc_hd__a21bo_1
*CAP
1 *795:B 3.28208e-05
2 *794:X 0.000215791
3 *258:10 0.000248611
4 *795:B *368:56 9.5877e-05
5 *258:10 *900:A 0.000193107
6 *258:10 *331:18 0.000286976
7 *258:10 *334:25 0.000174142
8 *39:19 *795:B 9.5877e-05
9 *67:11 *258:10 1.16915e-05
10 *126:12 *258:10 3.62219e-05
*RES
1 *794:X *258:10 43.6964 
2 *258:10 *795:B 39.0979 
*END

*D_NET *259 0.00290509
*CONN
*I *798:A I *D sky130_fd_sc_hd__and2_1
*I *800:C I *D sky130_fd_sc_hd__nand3_1
*I *799:A2 I *D sky130_fd_sc_hd__a21o_1
*I *796:X O *D sky130_fd_sc_hd__or2_1
*CAP
1 *798:A 0.000109203
2 *800:C 0.000435688
3 *799:A2 7.30268e-05
4 *796:X 0
5 *259:12 0.000762638
6 *259:4 0.000363126
7 *798:A *798:B 0.000140313
8 *798:A *324:14 1.76557e-05
9 *798:A *367:46 5.90675e-06
10 *799:A2 *326:10 6.07611e-06
11 *800:C *925:A 1.94298e-05
12 *800:C *261:44 0.000251345
13 *800:C *262:10 5.50106e-05
14 *800:C *263:29 7.43025e-06
15 *800:C *367:46 9.80863e-05
16 *259:12 *798:B 2.02872e-05
17 *259:12 *326:10 0.000129751
18 *259:12 *367:46 0.000169873
19 *796:A *798:A 1.75562e-05
20 *29:8 *800:C 2.16844e-05
21 *34:12 *798:A 9.84851e-05
22 *154:18 *800:C 7.44257e-05
23 *159:29 *799:A2 2.74987e-05
24 *159:29 *800:C 5.92738e-07
*RES
1 *796:X *259:4 23 
2 *259:4 *259:12 19.1532 
3 *259:12 *799:A2 39.2946 
4 *259:12 *800:C 47.1454 
5 *259:4 *798:A 26.045 
*END

*D_NET *260 0.00194374
*CONN
*I *798:B I *D sky130_fd_sc_hd__and2_1
*I *797:Y O *D sky130_fd_sc_hd__nand2_1
*CAP
1 *798:B 9.86823e-05
2 *797:Y 0.000482486
3 *260:12 0.000581169
4 *798:B *324:14 2.32101e-05
5 *798:B *360:45 0.000222953
6 *260:12 *324:8 0
7 *260:12 *326:10 0.000154272
8 *796:A *798:B 2.93335e-05
9 *797:B *260:12 5.97975e-05
10 *798:A *798:B 0.000140313
11 *886:A *260:12 2.93747e-05
12 *63:17 *260:12 9.72298e-05
13 *71:8 *260:12 4.6318e-06
14 *259:12 *798:B 2.02872e-05
*RES
1 *797:Y *260:12 45.5193 
2 *260:12 *798:B 41.0036 
*END

*D_NET *261 0.00357414
*CONN
*I *802:A2 I *D sky130_fd_sc_hd__a21oi_1
*I *801:A I *D sky130_fd_sc_hd__and2_1
*I *803:C I *D sky130_fd_sc_hd__and3_1
*I *799:X O *D sky130_fd_sc_hd__a21o_1
*CAP
1 *802:A2 0
2 *801:A 0
3 *803:C 0.000351252
4 *799:X 0
5 *261:44 0.00035002
6 *261:10 0.000506299
7 *261:4 0.000505067
8 *803:C *827:CLK 4.39359e-05
9 *803:C *262:10 0.000135557
10 *803:C *263:12 3.11378e-05
11 *261:10 *262:10 1.14452e-05
12 *261:44 *263:29 2.63049e-05
13 *261:44 *326:28 0
14 *799:B1 *261:10 3.17634e-05
15 *799:B1 *261:44 5.70419e-05
16 *800:B *803:C 0.000185755
17 *800:B *261:10 4.92689e-05
18 *800:C *261:44 0.000251345
19 *29:8 *261:44 7.53384e-06
20 *74:10 *261:44 2.62931e-05
21 *149:12 *803:C 6.42666e-05
22 *149:27 *803:C 0.000226595
23 *154:10 *803:C 1.17049e-05
24 *154:10 *261:10 4.83941e-05
25 *154:10 *261:44 0.000137651
26 *154:48 *803:C 1.59559e-05
27 *157:20 *261:10 0.000114092
28 *159:10 *261:44 0.000246757
29 *159:29 *261:44 0.000138708
*RES
1 *799:X *261:4 23 
2 *261:4 *261:10 18.3557 
3 *261:10 *803:C 45.6021 
4 *261:10 *801:A 38 
5 *261:4 *261:44 38.7207 
6 *261:44 *802:A2 23 
*END

*D_NET *262 0.000630231
*CONN
*I *801:B I *D sky130_fd_sc_hd__and2_1
*I *800:Y O *D sky130_fd_sc_hd__nand3_1
*CAP
1 *801:B 0
2 *800:Y 0.000158131
3 *262:10 0.000158131
4 *262:10 *303:126 6.16531e-05
5 *800:B *262:10 6.17437e-06
6 *800:C *262:10 5.50106e-05
7 *803:C *262:10 0.000135557
8 *154:10 *262:10 3.3746e-05
9 *154:18 *262:10 1.03836e-05
10 *261:10 *262:10 1.14452e-05
*RES
1 *800:Y *262:10 41.0036 
2 *262:10 *801:B 38 
*END

*D_NET *263 0.00656057
*CONN
*I *805:B1 I *D sky130_fd_sc_hd__a21oi_1
*I *804:A I *D sky130_fd_sc_hd__nor2_1
*I *802:Y O *D sky130_fd_sc_hd__a21oi_1
*CAP
1 *805:B1 0
2 *804:A 0
3 *802:Y 0
4 *263:29 0.000933529
5 *263:12 0.000755696
6 *263:4 0.00168922
7 *263:12 *824:CLK 0.000131538
8 *263:12 *827:CLK 2.75376e-05
9 *263:12 *303:99 2.3529e-05
10 *263:12 *324:35 4.51797e-05
11 *263:29 *805:A2 2.4754e-05
12 *263:29 *364:35 0.000280441
13 acc[6] *263:29 0.000612737
14 *674:B1 *263:12 1.14987e-05
15 *799:B1 *263:12 0.000167443
16 *800:A *263:12 0.000268212
17 *800:B *263:12 0.000238185
18 *800:C *263:29 7.43025e-06
19 *803:C *263:12 3.11378e-05
20 *5:10 *263:29 2.63437e-05
21 *29:8 *263:29 5.50049e-05
22 *58:15 *263:12 0
23 *145:26 *263:12 0.000105899
24 *146:14 *263:12 0.000202481
25 *148:10 *263:12 0.000211597
26 *150:22 *263:29 0.000209661
27 *154:18 *263:12 7.15126e-05
28 *154:18 *263:29 5.41385e-05
29 *154:48 *263:12 1.01436e-05
30 *157:20 *263:12 0.000236614
31 *159:10 *263:29 0.000102795
32 *159:29 *263:12 0
33 *162:12 *263:29 0
34 *261:44 *263:29 2.63049e-05
*RES
1 *802:Y *263:4 23 
2 *263:4 *263:12 46.5093 
3 *263:12 *804:A 23 
4 *263:4 *263:29 47.4829 
5 *263:29 *805:B1 23 
*END

*D_NET *264 0.00368382
*CONN
*I *804:B I *D sky130_fd_sc_hd__nor2_1
*I *803:X O *D sky130_fd_sc_hd__and3_1
*CAP
1 *804:B 0
2 *803:X 4.5791e-05
3 *264:18 0.00072484
4 *264:8 0.000770631
5 *264:8 *365:26 5.50049e-05
6 *264:18 *824:CLK 0.0004873
7 *264:18 *827:CLK 0.000288114
8 *264:18 *303:99 0.000337002
9 *264:18 *321:14 2.99187e-05
10 *264:18 *360:30 0.000107218
11 *676:B1 *264:18 0.00015754
12 *826:RESET_B *264:18 7.49001e-05
13 *58:15 *264:18 0
14 *73:10 *264:18 4.18014e-05
15 *137:39 *264:18 0.000132749
16 *151:54 *264:18 7.94021e-05
17 *160:8 *264:18 0.000351608
*RES
1 *803:X *264:8 38.6214 
2 *264:8 *264:18 32.8557 
3 *264:18 *804:B 23 
*END

*D_NET *265 0.00209213
*CONN
*I *806:B I *D sky130_fd_sc_hd__xnor2_1
*I *805:Y O *D sky130_fd_sc_hd__a21oi_1
*CAP
1 *806:B 8.8758e-05
2 *805:Y 0.000291232
3 *265:12 0.00037999
4 *265:12 *805:A1 0.000445669
5 *265:12 *327:16 0.000344958
6 *265:12 *364:43 2.33476e-05
7 *5:10 *806:B 8.03338e-05
8 *65:15 *265:12 0.000394563
9 *152:16 *806:B 4.32782e-05
*RES
1 *805:Y *265:12 47.7509 
2 *265:12 *806:B 47.7918 
*END

*D_NET *266 0.000742839
*CONN
*I *809:B I *D sky130_fd_sc_hd__nor2_1
*I *808:X O *D sky130_fd_sc_hd__o21a_1
*CAP
1 *809:B 0
2 *808:X 0.000192667
3 *266:8 0.000192667
4 *658:C *266:8 0.000144231
5 *137:18 *266:8 5.10686e-05
6 *145:8 *266:8 0.000120432
7 *145:26 *266:8 4.17736e-05
*RES
1 *808:X *266:8 27.93 
2 *266:8 *809:B 23 
*END

*D_NET *267 0.000437992
*CONN
*I *811:B I *D sky130_fd_sc_hd__xnor2_1
*I *810:Y O *D sky130_fd_sc_hd__nor2_1
*CAP
1 *811:B 9.37445e-05
2 *810:Y 0.000125252
3 *267:8 0.000218996
4 *267:8 *332:30 0
5 *145:26 *267:8 0
6 *147:10 *267:8 0
*RES
1 *810:Y *267:8 40.2579 
2 *267:8 *811:B 39.5743 
*END

*D_NET *268 0.00170885
*CONN
*I *813:B I *D sky130_fd_sc_hd__and2_1
*I *812:X O *D sky130_fd_sc_hd__or2_1
*CAP
1 *813:B 0
2 *812:X 0.000626418
3 *268:10 0.000626418
4 *268:10 *823:CLK 0
5 *268:10 *853:CLK 1.18615e-05
6 *268:10 *853:D 0.000275371
7 *268:10 *305:14 0
8 *268:10 *305:38 3.58084e-06
9 *268:10 *319:16 0.000163343
10 *853:RESET_B *268:10 1.8561e-06
*RES
1 *812:X *268:10 48.0257 
2 *268:10 *813:B 38 
*END

*D_NET *269 0.000355841
*CONN
*I *822:D I *D sky130_fd_sc_hd__dfrtp_1
*I *813:X O *D sky130_fd_sc_hd__and2_1
*CAP
1 *822:D 6.44678e-05
2 *813:X 6.44678e-05
3 *822:D *333:31 8.75535e-05
4 *141:10 *822:D 0.000139352
*RES
1 *813:X *822:D 48.0507 
*END

*D_NET *270 0.000774875
*CONN
*I *823:D I *D sky130_fd_sc_hd__dfrtp_1
*I *807:Y O *D sky130_fd_sc_hd__xnor2_1
*CAP
1 *823:D 0
2 *807:Y 0.000210668
3 *270:10 0.000210668
4 *270:10 *823:CLK 5.61311e-05
5 *657:B1 *270:10 2.93747e-05
6 *807:B *270:10 9.58714e-05
7 *139:10 *270:10 0
8 *143:18 *270:10 2.80512e-05
9 *144:8 *270:10 0.00014411
*RES
1 *807:Y *270:10 42.785 
2 *270:10 *823:D 38 
*END

*D_NET *271 0.00098633
*CONN
*I *824:D I *D sky130_fd_sc_hd__dfrtp_1
*I *809:Y O *D sky130_fd_sc_hd__nor2_1
*CAP
1 *824:D 0.000246911
2 *809:Y 5.7591e-05
3 *271:8 0.000304502
4 *824:D *321:14 0.00010018
5 *824:D *321:31 0.000226315
6 *137:39 *271:8 2.5415e-05
7 *145:26 *271:8 2.5415e-05
*RES
1 *809:Y *271:8 39.2014 
2 *271:8 *824:D 41.858 
*END

*D_NET *272 0.00122293
*CONN
*I *825:D I *D sky130_fd_sc_hd__dfrtp_4
*I *811:Y O *D sky130_fd_sc_hd__xnor2_1
*CAP
1 *825:D 0
2 *811:Y 0.000557593
3 *272:10 0.000557593
4 *272:10 *301:8 0.000107748
5 *272:10 *301:12 0
6 *72:8 *272:10 0
*RES
1 *811:Y *272:10 45.8921 
2 *272:10 *825:D 38 
*END

*D_NET *273 0.00129516
*CONN
*I *826:D I *D sky130_fd_sc_hd__dfrtp_1
*I *798:X O *D sky130_fd_sc_hd__and2_1
*CAP
1 *826:D 0.000129151
2 *798:X 0.000174665
3 *273:8 0.000303816
4 *273:8 *670:A 0
5 *273:8 *928:A 0.000218962
6 *273:8 *367:46 0.000339498
7 *826:RESET_B *826:D 0.000118528
8 *827:RESET_B *273:8 0
9 *34:12 *273:8 1.05441e-05
*RES
1 *798:X *273:8 42.7229 
2 *273:8 *826:D 40.5271 
*END

*D_NET *274 0.0010688
*CONN
*I *827:D I *D sky130_fd_sc_hd__dfrtp_1
*I *801:X O *D sky130_fd_sc_hd__and2_1
*CAP
1 *827:D 0
2 *801:X 0.00024457
3 *274:10 0.00024457
4 *826:RESET_B *274:10 5.3304e-05
5 *149:27 *274:10 5.09008e-05
6 *154:10 *274:10 0.000138718
7 *159:10 *274:10 0.00033674
*RES
1 *801:X *274:10 43.3443 
2 *274:10 *827:D 38 
*END

*D_NET *275 0.00467862
*CONN
*I *828:D I *D sky130_fd_sc_hd__dfrtp_1
*I *804:Y O *D sky130_fd_sc_hd__nor2_1
*CAP
1 *828:D 0
2 *804:Y 0.000161462
3 *275:16 0.000964925
4 *275:8 0.00112639
5 *275:8 *321:14 0.000226306
6 *275:16 *360:10 6.38845e-05
7 *275:16 *360:14 0.000217448
8 *76:10 *275:16 0.000517325
9 *137:39 *275:16 2.47097e-05
10 *138:8 *275:16 4.08641e-05
11 *151:54 *275:16 0.000667071
12 *152:16 *275:16 0.000652305
13 *163:10 *275:16 1.59312e-05
*RES
1 *804:Y *275:8 40.5271 
2 *275:8 *275:16 36.9364 
3 *275:16 *828:D 23 
*END

*D_NET *276 0.000708589
*CONN
*I *829:D I *D sky130_fd_sc_hd__dfrtp_1
*I *806:Y O *D sky130_fd_sc_hd__xnor2_1
*CAP
1 *829:D 6.90236e-05
2 *806:Y 0.000138749
3 *276:8 0.000207772
4 *829:D *329:18 1.8561e-06
5 *829:D *364:27 0.000123934
6 *829:RESET_B *829:D 0.000120847
7 *5:10 *276:8 1.14452e-05
8 *64:19 *276:8 0
9 *150:22 *276:8 0
10 *162:12 *276:8 3.49621e-05
*RES
1 *806:Y *276:8 40.2579 
2 *276:8 *829:D 40.5271 
*END

*D_NET *277 0.00044447
*CONN
*I *830:D I *D sky130_fd_sc_hd__dfrtp_1
*I *789:X O *D sky130_fd_sc_hd__and2_1
*CAP
1 *830:D 2.25683e-05
2 *789:X 0.000174165
3 *277:10 0.000196733
4 *830:D *830:CLK 7.53384e-06
5 *830:D *303:73 1.40958e-05
6 *277:10 *368:114 0
7 *166:18 *830:D 2.93747e-05
*RES
1 *789:X *277:10 40.5271 
2 *277:10 *830:D 38.6214 
*END

*D_NET *278 0.000678877
*CONN
*I *831:D I *D sky130_fd_sc_hd__dfrtp_1
*I *791:Y O *D sky130_fd_sc_hd__xnor2_1
*CAP
1 *831:D 0.000135483
2 *791:Y 5.8348e-05
3 *278:8 0.000193831
4 *831:D *831:CLK 5.3304e-05
5 *278:8 *303:20 0.000114092
6 *65:15 *831:D 9.59186e-05
7 *130:8 *278:8 2.79004e-05
*RES
1 *791:Y *278:8 39.5536 
2 *278:8 *831:D 40.5271 
*END

*D_NET *279 0.00177505
*CONN
*I *832:D I *D sky130_fd_sc_hd__dfrtp_1
*I *793:Y O *D sky130_fd_sc_hd__xnor2_1
*CAP
1 *832:D 0
2 *793:Y 0.000523455
3 *279:16 0.000523455
4 *279:16 *905:A 6.95992e-05
5 *279:16 *340:33 0.000108681
6 *279:16 *340:50 1.10891e-05
7 *279:16 *372:27 4.21048e-05
8 *279:16 *372:39 5.79559e-05
9 *691:A *279:16 8.79771e-05
10 *698:A1 *279:16 7.67423e-05
11 *698:A2 *279:16 5.25732e-05
12 *698:B2 *279:16 8.71923e-05
13 *793:A *279:16 0
14 *174:18 *279:16 0.00010031
15 *180:10 *279:16 3.39192e-05
*RES
1 *793:Y *279:16 48.5229 
2 *279:16 *832:D 38 
*END

*D_NET *280 0.00184824
*CONN
*I *833:D I *D sky130_fd_sc_hd__dfrtp_1
*I *795:Y O *D sky130_fd_sc_hd__xnor2_1
*CAP
1 *833:D 8.1911e-05
2 *795:Y 0.000394645
3 *280:14 0.000476556
4 *833:D *833:CLK 4.54722e-05
5 *280:14 *303:22 0
6 *280:14 *328:29 8.62783e-05
7 *280:14 *335:35 0.000165593
8 *795:A *280:14 9.84851e-05
9 *38:13 *280:14 0.000147956
10 *121:8 *280:14 5.50049e-05
11 *121:16 *280:14 0.000197479
12 *123:10 *280:14 1.36079e-05
13 *124:21 *280:14 8.52481e-05
14 *133:10 *280:14 0
*RES
1 *795:Y *280:14 46.2443 
2 *280:14 *833:D 38.9995 
*END

*D_NET *281 0.000651756
*CONN
*I *834:D I *D sky130_fd_sc_hd__dfrtp_1
*I *781:X O *D sky130_fd_sc_hd__xor2_1
*CAP
1 *834:D 0
2 *781:X 0.000182607
3 *281:10 0.000182607
4 *281:10 *302:94 1.75433e-05
5 *281:10 *336:10 3.54728e-05
6 *281:10 *336:14 5.3304e-05
7 *125:10 *281:10 7.18129e-05
8 *166:18 *281:10 1.24376e-05
9 *166:28 *281:10 4.03352e-05
10 *168:6 *281:10 5.56356e-05
*RES
1 *781:X *281:10 41.8321 
2 *281:10 *834:D 38 
*END

*D_NET *282 0.000654187
*CONN
*I *835:D I *D sky130_fd_sc_hd__dfrtp_1
*I *783:Y O *D sky130_fd_sc_hd__xnor2_1
*CAP
1 *835:D 0
2 *783:Y 0.000180209
3 *282:10 0.000180209
4 *282:10 *337:36 8.4047e-05
5 *282:10 *368:132 7.03766e-05
6 *170:33 *282:10 0.000139346
*RES
1 *783:Y *282:10 41.48 
2 *282:10 *835:D 38 
*END

*D_NET *283 0.000501989
*CONN
*I *836:D I *D sky130_fd_sc_hd__dfrtp_1
*I *785:Y O *D sky130_fd_sc_hd__xnor2_1
*CAP
1 *836:D 0
2 *785:Y 0.000220814
3 *283:10 0.000220814
4 *283:10 *302:44 0
5 *68:11 *283:10 6.03608e-05
*RES
1 *785:Y *283:10 41.7079 
2 *283:10 *836:D 38 
*END

*D_NET *284 0.000714467
*CONN
*I *837:D I *D sky130_fd_sc_hd__dfrtp_1
*I *787:Y O *D sky130_fd_sc_hd__xnor2_1
*CAP
1 *837:D 0
2 *787:Y 0.000251744
3 *284:10 0.000251744
4 *284:10 *862:A 0
5 *284:10 *904:A 1.94693e-05
6 *785:B *284:10 5.26101e-05
7 *787:A *284:10 0
8 *178:14 *284:10 0
9 *253:8 *284:10 5.26204e-05
10 *254:10 *284:10 8.62783e-05
*RES
1 *787:Y *284:10 42.9921 
2 *284:10 *837:D 38 
*END

*D_NET *285 0.000443227
*CONN
*I *838:D I *D sky130_fd_sc_hd__dfrtp_1
*I *773:X O *D sky130_fd_sc_hd__xor2_1
*CAP
1 *838:D 8.33367e-05
2 *773:X 8.33367e-05
3 *838:D *302:94 7.87782e-05
4 *838:D *341:6 9.80703e-06
5 *187:14 *838:D 0.000187968
*RES
1 *773:X *838:D 48.9 
*END

*D_NET *286 0.00209253
*CONN
*I *839:D I *D sky130_fd_sc_hd__dfrtp_1
*I *776:Y O *D sky130_fd_sc_hd__nor2_1
*CAP
1 *839:D 0
2 *776:Y 0.000397949
3 *286:10 0.000397949
4 *286:10 *701:A 0
5 *286:10 *708:A 0.000143655
6 *286:10 *708:B 0.000105844
7 *286:10 *709:B 0.00016216
8 *286:10 *302:16 4.21594e-06
9 *286:10 *374:10 0.00023697
10 *706:A *286:10 6.70363e-05
11 *774:A1 *286:10 6.67764e-05
12 *35:17 *286:10 2.43944e-05
13 *86:8 *286:10 0
14 *188:23 *286:10 0.000139657
15 *193:19 *286:10 0.000151608
16 *248:8 *286:10 0
17 *250:10 *286:10 0.000194318
*RES
1 *776:Y *286:10 49.8279 
2 *286:10 *839:D 38 
*END

*D_NET *287 0.00108542
*CONN
*I *840:D I *D sky130_fd_sc_hd__dfrtp_1
*I *778:Y O *D sky130_fd_sc_hd__xnor2_1
*CAP
1 *840:D 0
2 *778:Y 0.000371451
3 *287:8 0.000371451
4 *287:8 *343:6 2.30292e-05
5 *287:8 *370:12 0.000195152
6 *840:RESET_B *287:8 0.000124339
*RES
1 *778:Y *287:8 31.7414 
2 *287:8 *840:D 23 
*END

*D_NET *288 0.00267046
*CONN
*I *841:D I *D sky130_fd_sc_hd__dfrtp_1
*I *780:Y O *D sky130_fd_sc_hd__xnor2_1
*CAP
1 *841:D 0
2 *780:Y 0.00102726
3 *288:6 0.00102726
4 *288:6 *841:CLK 8.82053e-06
5 *288:6 *344:8 0.000571494
6 *288:6 *370:31 1.40958e-05
7 *841:RESET_B *288:6 2.15259e-05
*RES
1 *780:Y *288:6 37.0236 
2 *288:6 *841:D 23 
*END

*D_NET *289 0.000922103
*CONN
*I *842:D I *D sky130_fd_sc_hd__dfrtp_1
*I *765:Y O *D sky130_fd_sc_hd__xnor2_1
*CAP
1 *842:D 9.08179e-05
2 *765:Y 0.000206777
3 *289:10 0.000297595
4 *842:D *842:CLK 3.28224e-05
5 *842:D *304:28 2.93845e-05
6 *289:10 *304:19 8.4047e-05
7 *732:A *289:10 9.66133e-05
8 *218:10 *289:10 8.4047e-05
*RES
1 *765:Y *289:10 41.2521 
2 *289:10 *842:D 39.1652 
*END

*D_NET *290 0.000356362
*CONN
*I *843:D I *D sky130_fd_sc_hd__dfrtp_1
*I *767:Y O *D sky130_fd_sc_hd__xnor2_1
*CAP
1 *843:D 0
2 *767:Y 0.000128305
3 *290:10 0.000128305
4 *290:10 *344:47 0
5 *768:A2 *290:10 2.93845e-05
6 *244:8 *290:10 7.03663e-05
*RES
1 *767:Y *290:10 40.5271 
2 *290:10 *843:D 38 
*END

*D_NET *291 0.000867602
*CONN
*I *844:D I *D sky130_fd_sc_hd__dfrtp_1
*I *769:Y O *D sky130_fd_sc_hd__xnor2_1
*CAP
1 *844:D 0.000132517
2 *769:Y 0.000108283
3 *291:8 0.0002408
4 *844:D *720:B 0.000100457
5 *291:8 *912:A 0
6 *291:8 *343:55 5.26101e-05
7 *844:RESET_B *844:D 4.36616e-05
8 *209:42 *844:D 0.000189272
9 *209:42 *291:8 0
*RES
1 *769:Y *291:8 40.2579 
2 *291:8 *844:D 41.9564 
*END

*D_NET *292 0.00107045
*CONN
*I *845:D I *D sky130_fd_sc_hd__dfrtp_1
*I *771:Y O *D sky130_fd_sc_hd__xnor2_1
*CAP
1 *845:D 0.000184973
2 *771:Y 0.000163499
3 *292:10 0.000348472
4 *292:10 *304:84 0
5 *725:B *292:10 2.67562e-05
6 *211:23 *845:D 5.0555e-05
7 *211:23 *292:10 0.000111852
8 *212:14 *292:10 3.81486e-05
9 *212:18 *292:10 0.000146195
*RES
1 *771:Y *292:10 41.8321 
2 *292:10 *845:D 41.0036 
*END

*D_NET *293 0.000474358
*CONN
*I *846:D I *D sky130_fd_sc_hd__dfrtp_1
*I *757:Y O *D sky130_fd_sc_hd__nor2_1
*CAP
1 *846:D 0
2 *757:Y 0.000180199
3 *293:10 0.000180199
4 *293:10 *605:A 5.83407e-05
5 *93:10 *293:10 0
6 *239:10 *293:10 5.56203e-05
*RES
1 *757:Y *293:10 41.1279 
2 *293:10 *846:D 38 
*END

*D_NET *294 0.0010452
*CONN
*I *847:D I *D sky130_fd_sc_hd__dfrtp_1
*I *759:Y O *D sky130_fd_sc_hd__xnor2_1
*CAP
1 *847:D 0
2 *759:Y 0.000489026
3 *294:8 0.000489026
4 *294:8 *304:69 2.64616e-05
5 *294:8 *352:10 4.06849e-05
*RES
1 *759:Y *294:8 32.2179 
2 *294:8 *847:D 23 
*END

*D_NET *295 0.000792812
*CONN
*I *848:D I *D sky130_fd_sc_hd__dfrtp_1
*I *762:Y O *D sky130_fd_sc_hd__xnor2_1
*CAP
1 *848:D 0
2 *762:Y 0.000241587
3 *295:10 0.000241587
4 *295:10 *370:97 3.21327e-05
5 acc[25] *295:10 5.21127e-05
6 *762:A *295:10 0.000225393
*RES
1 *762:Y *295:10 42.0807 
2 *295:10 *848:D 38 
*END

*D_NET *296 0.000951224
*CONN
*I *849:D I *D sky130_fd_sc_hd__dfrtp_1
*I *764:X O *D sky130_fd_sc_hd__xor2_1
*CAP
1 *849:D 0
2 *764:X 0.000215372
3 *296:10 0.000215372
4 *296:10 *305:89 0.00031749
5 *296:10 *316:20 0
6 *296:10 *353:34 7.75329e-06
7 *296:10 *354:12 0.000160182
8 *112:23 *296:10 2.76611e-06
9 *227:41 *296:10 3.22879e-05
*RES
1 *764:X *296:10 42.9921 
2 *296:10 *849:D 38 
*END

*D_NET *297 0.000591569
*CONN
*I *850:D I *D sky130_fd_sc_hd__dfrtp_1
*I *740:Y O *D sky130_fd_sc_hd__xnor2_1
*CAP
1 *850:D 0.000200902
2 *740:Y 0.000200902
3 *850:D *850:CLK 7.88926e-05
4 *850:D *351:30 1.32939e-05
5 *103:33 *850:D 9.75779e-05
*RES
1 *740:Y *850:D 49.9771 
*END

*D_NET *298 0.00116045
*CONN
*I *851:D I *D sky130_fd_sc_hd__dfrtp_1
*I *745:Y O *D sky130_fd_sc_hd__xnor2_1
*CAP
1 *851:D 0
2 *745:Y 0.000362226
3 *298:10 0.000362226
4 *298:10 *852:CLK 3.63286e-05
5 *298:10 *305:96 2.75733e-06
6 *298:10 *316:16 0.000352426
7 *298:10 *320:20 3.83778e-05
8 *226:50 *298:10 6.10551e-06
9 *235:14 *298:10 0
*RES
1 *745:Y *298:10 43.8621 
2 *298:10 *851:D 38 
*END

*D_NET *299 0.00065531
*CONN
*I *852:D I *D sky130_fd_sc_hd__dfrtp_1
*I *750:Y O *D sky130_fd_sc_hd__xnor2_1
*CAP
1 *852:D 0.000115284
2 *750:Y 6.58254e-05
3 *299:8 0.000181109
4 *626:A *852:D 7.53384e-06
5 *107:10 *299:8 0.000111615
6 *227:27 *852:D 0.000143536
7 *228:10 *299:8 3.04062e-05
*RES
1 *750:Y *299:8 39.5536 
2 *299:8 *852:D 40.6929 
*END

*D_NET *300 0.00111211
*CONN
*I *853:D I *D sky130_fd_sc_hd__dfrtp_1
*I *755:Y O *D sky130_fd_sc_hd__xnor2_1
*CAP
1 *853:D 0.00014061
2 *755:Y 0.000125483
3 *300:10 0.000266093
4 *853:D *305:38 0.000143059
5 *300:10 *305:12 4.98501e-05
6 *300:10 *305:14 2.3724e-05
7 *300:10 *319:16 8.26569e-05
8 *300:10 *355:10 5.26733e-06
9 *268:10 *853:D 0.000275371
*RES
1 *755:Y *300:10 40.8793 
2 *300:10 *853:D 43.3857 
*END

*D_NET *301 0.0104966
*CONN
*I *858:A I *D sky130_fd_sc_hd__clkbuf_16
*I *857:A I *D sky130_fd_sc_hd__clkbuf_16
*I *856:A I *D sky130_fd_sc_hd__clkbuf_16
*I *855:A I *D sky130_fd_sc_hd__clkbuf_16
*I *854:X O *D sky130_fd_sc_hd__clkbuf_16
*CAP
1 *858:A 0
2 *857:A 0.000536181
3 *856:A 0
4 *855:A 0.000570786
5 *854:X 0.000125676
6 *301:49 0.000351539
7 *301:28 0.00157952
8 *301:12 0.00101591
9 *301:8 0.00126259
10 *855:A *818:A 0.00018127
11 *855:A *303:8 0.000219383
12 *301:12 *332:30 0.000218627
13 *301:12 *369:47 0.000342558
14 *301:12 *369:66 0.000243048
15 *301:28 *747:A 0.000139647
16 *301:28 *332:30 7.41334e-05
17 *301:28 *333:12 0
18 *301:28 *371:10 0.000141879
19 *301:28 *371:27 0.000345772
20 *301:49 *351:30 0
21 *649:B *855:A 5.50106e-05
22 *684:B *855:A 5.50106e-05
23 *739:A1 *857:A 5.3304e-05
24 *739:A2 *857:A 1.76557e-05
25 *739:A3 *857:A 7.27182e-05
26 *739:C1 *857:A 1.24376e-05
27 *739:C1 *301:49 5.3304e-05
28 *758:A *857:A 5.50049e-05
29 *761:B1 *857:A 5.67058e-05
30 *72:8 *301:12 0.000131878
31 *74:10 *855:A 1.14876e-05
32 *101:16 *301:49 6.17437e-06
33 *102:14 *301:49 5.49355e-05
34 *103:16 *301:49 0.000180772
35 *103:33 *301:28 0.000367689
36 *117:12 *857:A 8.48502e-06
37 *117:24 *857:A 1.21972e-05
38 *118:10 *301:28 0
39 *118:25 *857:A 0.000141954
40 *118:33 *857:A 0.000267167
41 *120:10 *857:A 4.21378e-05
42 *154:35 *301:12 0.000389028
43 *167:10 *855:A 0.000141954
44 *169:44 *855:A 5.60292e-05
45 *171:10 *855:A 0.000223698
46 *171:20 *855:A 0.000310641
47 *224:12 *857:A 0.00010018
48 *224:23 *857:A 6.82878e-05
49 *224:32 *857:A 9.16362e-05
50 *225:10 *301:28 0
51 *226:8 *857:A 2.80924e-06
52 *272:10 *301:8 0.000107748
53 *272:10 *301:12 0
*RES
1 *854:X *301:8 41.0036 
2 *301:8 *301:12 28.8786 
3 *301:12 *855:A 36.485 
4 *301:12 *856:A 23 
5 *301:8 *301:28 30.9914 
6 *301:28 *857:A 34.745 
7 *301:28 *301:49 35.1786 
8 *301:49 *858:A 23 
*END

*D_NET *302 0.0105235
*CONN
*I *834:CLK I *D sky130_fd_sc_hd__dfrtp_1
*I *838:CLK I *D sky130_fd_sc_hd__dfrtp_1
*I *859:A I *D sky130_fd_sc_hd__clkbuf_8
*I *832:CLK I *D sky130_fd_sc_hd__dfrtp_1
*I *837:CLK I *D sky130_fd_sc_hd__dfrtp_1
*I *836:CLK I *D sky130_fd_sc_hd__dfrtp_1
*I *835:CLK I *D sky130_fd_sc_hd__dfrtp_1
*I *839:CLK I *D sky130_fd_sc_hd__dfrtp_1
*I *855:X O *D sky130_fd_sc_hd__clkbuf_16
*CAP
1 *834:CLK 0
2 *838:CLK 0
3 *859:A 0.000143756
4 *832:CLK 6.6544e-05
5 *837:CLK 0
6 *836:CLK 0
7 *835:CLK 0
8 *839:CLK 0
9 *855:X 0
10 *302:94 0.00050225
11 *302:82 0.000797305
12 *302:44 0.000366219
13 *302:36 0.000889853
14 *302:34 0.000952186
15 *302:30 0.000614342
16 *302:16 0.000303843
17 *302:10 0.000448001
18 *302:6 0.000408119
19 *302:4 0.000450438
20 *859:A *350:12 7.80378e-05
21 *859:A *361:8 0.000178235
22 *859:A *372:39 0.000100069
23 *302:16 *686:B 1.47563e-05
24 *302:16 *336:24 8.41115e-05
25 *302:16 *368:132 0.000169665
26 *302:30 *340:69 3.70187e-05
27 *302:34 *685:A 2.68935e-05
28 *302:34 *340:69 9.21981e-05
29 *302:94 *336:10 8.50366e-05
30 *302:94 *341:6 9.77551e-05
31 *691:A *302:34 9.49758e-05
32 *697:A2 *302:82 2.46906e-05
33 *711:A2 *302:94 1.71223e-05
34 *785:B *302:44 1.01436e-05
35 *837:RESET_B *832:CLK 4.67488e-05
36 *837:RESET_B *302:36 4.58951e-05
37 *838:D *302:94 7.87782e-05
38 *41:21 *859:A 5.79559e-05
39 *42:13 *302:34 0.000217489
40 *68:11 *302:44 0
41 *86:8 *302:16 0
42 *166:28 *302:82 9.41704e-05
43 *166:28 *302:94 0.000207402
44 *168:16 *302:82 0.000187456
45 *169:44 *302:82 6.17437e-06
46 *171:20 *302:6 0.000383335
47 *171:20 *302:10 0.000219383
48 *171:20 *302:82 5.82435e-05
49 *171:22 *302:16 1.14452e-05
50 *172:23 *302:34 0.000215257
51 *173:10 *302:10 0.000135037
52 *175:8 *302:30 2.60152e-05
53 *175:8 *302:34 2.29488e-05
54 *179:8 *302:34 0.000159704
55 *180:10 *302:30 3.46241e-05
56 *180:10 *302:82 0
57 *181:14 *302:16 0
58 *183:10 *302:82 0
59 *184:10 *302:82 4.67488e-05
60 *184:10 *302:94 0.00012839
61 *185:10 *302:16 0
62 *185:10 *302:30 0.000203416
63 *185:10 *302:34 0.000104515
64 *187:14 *302:94 0.000227771
65 *198:16 *302:94 0.000136486
66 *248:8 *302:16 3.92407e-05
67 *252:10 *302:6 0.000259378
68 *252:10 *302:10 9.41704e-05
69 *281:10 *302:94 1.75433e-05
70 *283:10 *302:44 0
71 *286:10 *302:16 4.21594e-06
*RES
1 *855:X *302:4 23 
2 *302:4 *302:6 4.90929 
3 *302:6 *302:10 3.50071 
4 *302:10 *302:16 35.7793 
5 *302:16 *839:CLK 23 
6 *302:10 *835:CLK 23 
7 *302:6 *302:30 17.9621 
8 *302:30 *302:34 23.2443 
9 *302:34 *302:36 8.72071 
10 *302:36 *302:44 36.09 
11 *302:44 *836:CLK 23 
12 *302:36 *837:CLK 23 
13 *302:34 *832:CLK 24.0979 
14 *302:30 *859:A 41.48 
15 *302:4 *302:82 36.0071 
16 *302:82 *302:94 41.5379 
17 *302:94 *838:CLK 23 
18 *302:82 *834:CLK 23 
*END

*D_NET *303 0.0167607
*CONN
*I *824:CLK I *D sky130_fd_sc_hd__dfrtp_1
*I *826:CLK I *D sky130_fd_sc_hd__dfrtp_1
*I *827:CLK I *D sky130_fd_sc_hd__dfrtp_1
*I *825:CLK I *D sky130_fd_sc_hd__dfrtp_4
*I *830:CLK I *D sky130_fd_sc_hd__dfrtp_1
*I *860:A I *D sky130_fd_sc_hd__clkbuf_4
*I *831:CLK I *D sky130_fd_sc_hd__dfrtp_1
*I *829:CLK I *D sky130_fd_sc_hd__dfrtp_1
*I *828:CLK I *D sky130_fd_sc_hd__dfrtp_1
*I *833:CLK I *D sky130_fd_sc_hd__dfrtp_1
*I *856:X O *D sky130_fd_sc_hd__clkbuf_16
*CAP
1 *824:CLK 0.000452622
2 *826:CLK 0
3 *827:CLK 0.000271584
4 *825:CLK 0
5 *830:CLK 0.000101826
6 *860:A 0
7 *831:CLK 2.32701e-05
8 *829:CLK 1.73025e-05
9 *828:CLK 0
10 *833:CLK 0.00021504
11 *856:X 0
12 *303:126 0.000299778
13 *303:99 0.000702776
14 *303:97 0.000584037
15 *303:90 0.000418356
16 *303:73 0.00134562
17 *303:37 0.000453312
18 *303:22 0.00093527
19 *303:20 0.000865343
20 *303:10 0.000600159
21 *303:8 0.00161826
22 *303:4 0.000750511
23 *824:CLK *321:14 0.00010018
24 *824:CLK *321:31 0.000125213
25 *824:CLK *324:35 4.77883e-05
26 *827:CLK *365:26 0.000141835
27 *829:CLK *364:27 2.32101e-05
28 *833:CLK *636:A 1.24376e-05
29 *833:CLK *636:B 4.39488e-05
30 *833:CLK *328:29 6.25829e-05
31 *833:CLK *335:6 1.94812e-05
32 *833:CLK *335:25 0.000161121
33 *303:10 *368:103 6.16439e-05
34 *303:20 *647:A 4.66047e-05
35 *303:20 *648:B 5.50049e-05
36 *303:20 *330:10 9.47911e-06
37 *303:20 *368:77 4.45778e-05
38 *303:20 *368:103 0.000244103
39 *303:22 *328:19 0.000129504
40 *303:22 *328:29 3.47781e-05
41 *303:22 *330:10 0
42 *303:22 *367:22 0
43 *303:37 *635:A 5.3304e-05
44 *303:37 *328:29 2.64616e-05
45 *303:37 *329:18 7.73854e-05
46 *303:37 *330:10 0.000139352
47 *303:37 *364:6 0.000235703
48 *303:37 *364:27 0.000166072
49 *303:73 *366:10 3.55215e-05
50 *303:73 *368:103 0.000172915
51 *303:73 *369:47 0
52 *303:73 *369:66 0
53 *303:90 *368:114 0.000131019
54 *644:A *303:20 0.000136486
55 *644:A *303:22 4.65727e-05
56 *673:C *303:126 9.5877e-05
57 *676:B1 *827:CLK 2.0342e-05
58 *679:B1 *303:10 0
59 *679:B1 *303:73 0
60 *799:B1 *303:99 0.000159531
61 *800:A *827:CLK 0.000141869
62 *800:A *303:99 0.000136486
63 *803:C *827:CLK 4.39359e-05
64 *826:RESET_B *303:126 0.000353513
65 *828:RESET_B *303:37 4.88179e-05
66 *829:RESET_B *829:CLK 2.93845e-05
67 *829:RESET_B *303:37 5.41288e-05
68 *830:D *830:CLK 7.53384e-06
69 *830:D *303:73 1.40958e-05
70 *831:D *831:CLK 5.3304e-05
71 *833:D *833:CLK 4.54722e-05
72 *855:A *303:8 0.000219383
73 *38:13 *833:CLK 1.37349e-05
74 *38:13 *303:22 0.000188918
75 *58:15 *824:CLK 1.59094e-05
76 *64:19 *303:22 2.60152e-05
77 *65:15 *831:CLK 5.3304e-05
78 *66:9 *833:CLK 0
79 *66:9 *303:37 0.000140259
80 *74:10 *303:8 0.000287863
81 *77:8 *303:73 0
82 *77:8 *303:90 0
83 *124:21 *303:22 0.000107212
84 *127:42 *303:20 9.5877e-05
85 *133:10 *303:22 0
86 *134:18 *303:20 6.0606e-05
87 *134:42 *303:20 7.81176e-05
88 *136:8 *303:10 6.07611e-06
89 *136:8 *303:73 3.47776e-05
90 *137:39 *824:CLK 2.6355e-05
91 *145:26 *824:CLK 0
92 *146:14 *824:CLK 0.000202481
93 *149:12 *827:CLK 3.22409e-05
94 *149:27 *827:CLK 1.94693e-05
95 *150:64 *824:CLK 2.33476e-05
96 *154:10 *303:126 5.94125e-05
97 *154:48 *827:CLK 8.04879e-05
98 *155:30 *303:73 1.9574e-05
99 *162:12 *827:CLK 0
100 *165:10 *303:73 0
101 *166:8 *303:73 0
102 *166:18 *830:CLK 3.6485e-05
103 *166:18 *303:73 1.83763e-05
104 *262:10 *303:126 6.16531e-05
105 *263:12 *824:CLK 0.000131538
106 *263:12 *827:CLK 2.75376e-05
107 *263:12 *303:99 2.3529e-05
108 *264:18 *824:CLK 0.0004873
109 *264:18 *827:CLK 0.000288114
110 *264:18 *303:99 0.000337002
111 *278:8 *303:20 0.000114092
112 *280:14 *303:22 0
*RES
1 *856:X *303:4 23 
2 *303:4 *303:8 24.1971 
3 *303:8 *303:10 0.849286 
4 *303:10 *303:20 40.8336 
5 *303:20 *303:22 6.13143 
6 *303:22 *833:CLK 42.6607 
7 *303:22 *303:37 26.5793 
8 *303:37 *828:CLK 23 
9 *303:37 *829:CLK 23.6214 
10 *303:20 *831:CLK 38.6214 
11 *303:10 *860:A 38 
12 *303:8 *303:73 28.0914 
13 *303:73 *830:CLK 25.0714 
14 *303:73 *303:90 38.0786 
15 *303:90 *825:CLK 23 
16 *303:4 *303:97 15 
17 *303:97 *303:99 4.72286 
18 *303:99 *827:CLK 45.54 
19 *303:99 *303:126 49.9507 
20 *303:126 *826:CLK 23 
21 *303:97 *824:CLK 49.0407 
*END

*D_NET *304 0.010506
*CONN
*I *848:CLK I *D sky130_fd_sc_hd__dfrtp_1
*I *845:CLK I *D sky130_fd_sc_hd__dfrtp_1
*I *844:CLK I *D sky130_fd_sc_hd__dfrtp_1
*I *847:CLK I *D sky130_fd_sc_hd__dfrtp_1
*I *846:CLK I *D sky130_fd_sc_hd__dfrtp_1
*I *841:CLK I *D sky130_fd_sc_hd__dfrtp_1
*I *840:CLK I *D sky130_fd_sc_hd__dfrtp_1
*I *842:CLK I *D sky130_fd_sc_hd__dfrtp_1
*I *843:CLK I *D sky130_fd_sc_hd__dfrtp_1
*I *857:X O *D sky130_fd_sc_hd__clkbuf_16
*CAP
1 *848:CLK 0
2 *845:CLK 0
3 *844:CLK 0.000197501
4 *847:CLK 2.32689e-05
5 *846:CLK 0.000208954
6 *841:CLK 9.02844e-05
7 *840:CLK 0.000256414
8 *842:CLK 7.90405e-05
9 *843:CLK 0.000359636
10 *857:X 0
11 *304:112 0.00125341
12 *304:86 0.000197501
13 *304:84 0.00189003
14 *304:69 0.000951296
15 *304:32 0.000687613
16 *304:28 0.000709729
17 *304:19 0.000544342
18 *304:6 0.000731537
19 *304:4 0.000357866
20 *840:CLK *864:A 0.000146822
21 *840:CLK *370:12 2.46906e-05
22 *842:CLK *346:8 6.34941e-05
23 *844:CLK *720:B 1.94693e-05
24 *846:CLK *346:8 0.000128466
25 *304:28 *346:8 0.000103233
26 *304:84 *312:21 0
27 *304:112 *312:21 0
28 *304:112 *315:8 0
29 *304:112 *349:21 0
30 acc[25] *304:112 0.000173714
31 *722:A *304:84 0
32 *725:B *304:84 0
33 *727:A *843:CLK 0.000190519
34 *732:A *304:19 5.50381e-06
35 *734:A *847:CLK 0
36 *734:A *304:84 5.67058e-05
37 *734:C *304:84 1.40958e-05
38 *735:C *843:CLK 5.56279e-05
39 *735:D *843:CLK 0.000100069
40 *770:A1 *304:84 0
41 *842:D *842:CLK 3.28224e-05
42 *842:D *304:28 2.93845e-05
43 *89:12 *304:32 2.78373e-05
44 *198:16 *840:CLK 0
45 *198:16 *304:32 0
46 *198:26 *842:CLK 6.17437e-06
47 *207:8 *844:CLK 7.88926e-05
48 *209:16 *304:84 0
49 *209:24 *843:CLK 9.84794e-05
50 *209:42 *844:CLK 2.93747e-05
51 *210:41 *304:69 0.000222113
52 *211:23 *304:84 0
53 *212:35 *304:84 4.77393e-05
54 *214:14 *843:CLK 1.76557e-05
55 *214:14 *304:19 0
56 *218:10 *304:19 5.20305e-05
57 *219:10 *304:19 8.50457e-05
58 *220:14 *304:19 3.43144e-05
59 *220:14 *304:69 3.98882e-06
60 *288:6 *841:CLK 8.82053e-06
61 *289:10 *304:19 8.4047e-05
62 *292:10 *304:84 0
63 *294:8 *304:69 2.64616e-05
*RES
1 *857:X *304:4 23 
2 *304:4 *304:6 1.09786 
3 *304:6 *843:CLK 30.7679 
4 *304:6 *304:19 35.7793 
5 *304:19 *842:CLK 25.0507 
6 *304:19 *304:28 3.48 
7 *304:28 *304:32 20.7793 
8 *304:32 *840:CLK 43.1579 
9 *304:32 *841:CLK 39.5743 
10 *304:28 *846:CLK 27.4329 
11 *304:4 *304:69 35.365 
12 *304:69 *847:CLK 23.4971 
13 *304:69 *304:84 24.0521 
14 *304:84 *304:86 15 
15 *304:86 *844:CLK 26.9771 
16 *304:86 *845:CLK 23 
17 *304:84 *304:112 36.2153 
18 *304:112 *848:CLK 23 
*END

*D_NET *305 0.00936084
*CONN
*I *852:CLK I *D sky130_fd_sc_hd__dfrtp_1
*I *851:CLK I *D sky130_fd_sc_hd__dfrtp_1
*I *849:CLK I *D sky130_fd_sc_hd__dfrtp_1
*I *861:A I *D sky130_fd_sc_hd__clkbuf_8
*I *850:CLK I *D sky130_fd_sc_hd__dfrtp_1
*I *853:CLK I *D sky130_fd_sc_hd__dfrtp_1
*I *822:CLK I *D sky130_fd_sc_hd__dfrtp_1
*I *823:CLK I *D sky130_fd_sc_hd__dfrtp_1
*I *858:X O *D sky130_fd_sc_hd__clkbuf_16
*CAP
1 *852:CLK 0.000377204
2 *851:CLK 0
3 *849:CLK 0
4 *861:A 8.91408e-05
5 *850:CLK 0.000236867
6 *853:CLK 0.000119952
7 *822:CLK 4.12227e-05
8 *823:CLK 0.000295101
9 *858:X 3.27378e-05
10 *305:96 0.000623228
11 *305:89 0.000687213
12 *305:66 0.00109901
13 *305:51 0.000661025
14 *305:38 0.000516017
15 *305:14 0.000596042
16 *305:12 0.000739195
17 *305:8 0.000463675
18 *823:CLK *319:16 0
19 *852:CLK *320:20 0
20 *305:8 *747:B 5.50049e-05
21 *305:12 *319:16 0
22 *305:14 *319:16 0
23 *305:51 *371:27 0
24 *305:89 *316:33 0
25 *305:89 *322:33 0.000103637
26 *305:89 *323:12 0
27 *305:89 *353:34 6.17437e-06
28 *305:89 *354:12 2.81066e-05
29 *655:B *823:CLK 0.000218962
30 *850:D *850:CLK 7.88926e-05
31 *853:D *305:38 0.000143059
32 *55:17 *305:89 0.00046261
33 *57:17 *305:89 2.26406e-05
34 *97:10 *305:51 6.48049e-05
35 *97:10 *305:66 0.000154138
36 *101:16 *861:A 0.000185428
37 *101:16 *305:66 0
38 *101:25 *305:96 6.16653e-05
39 *101:31 *852:CLK 4.58829e-05
40 *101:31 *305:96 6.72184e-06
41 *102:14 *305:66 3.15813e-05
42 *102:28 *305:66 6.12496e-06
43 *107:10 *852:CLK 4.6318e-06
44 *107:33 *305:89 0.000153212
45 *112:23 *305:89 0
46 *141:10 *823:CLK 0.000138708
47 *226:31 *305:89 0.000127261
48 *226:50 *852:CLK 7.57281e-06
49 *226:50 *305:96 0
50 *227:41 *305:89 0.000101225
51 *228:10 *852:CLK 7.34407e-05
52 *232:10 *305:12 0
53 *232:10 *305:66 0
54 *232:10 *305:89 0
55 *232:10 *305:96 0
56 *232:35 *852:CLK 0
57 *268:10 *823:CLK 0
58 *268:10 *853:CLK 1.18615e-05
59 *268:10 *305:14 0
60 *268:10 *305:38 3.58084e-06
61 *270:10 *823:CLK 5.61311e-05
62 *296:10 *305:89 0.00031749
63 *298:10 *852:CLK 3.63286e-05
64 *298:10 *305:96 2.75733e-06
65 *300:10 *305:12 4.98501e-05
66 *300:10 *305:14 2.3724e-05
*RES
1 *858:X *305:8 38.6214 
2 *305:8 *305:12 5.1475 
3 *305:12 *305:14 3.86321 
4 *305:14 *823:CLK 43.4271 
5 *305:14 *822:CLK 38.6214 
6 *305:12 *305:38 19.7332 
7 *305:38 *853:CLK 24.9471 
8 *305:38 *305:51 17.2579 
9 *305:51 *850:CLK 42.4329 
10 *305:51 *305:66 5.84143 
11 *305:66 *861:A 40.0507 
12 *305:66 *305:89 30.7014 
13 *305:89 *849:CLK 23 
14 *305:8 *305:96 3.66643 
15 *305:96 *851:CLK 38 
16 *305:96 *852:CLK 43.4271 
*END

*D_NET *306 0.00344414
*CONN
*I *656:A I *D sky130_fd_sc_hd__nand2_1
*I *812:A I *D sky130_fd_sc_hd__or2_1
*I *866:X O *D sky130_fd_sc_hd__clkbuf_1
*CAP
1 *656:A 0
2 *812:A 0
3 *866:X 0.000101428
4 *306:29 8.8465e-05
5 *306:18 0.000822564
6 *306:6 0.00101246
7 *306:6 *333:31 4.17736e-05
8 *306:18 *333:12 8.76088e-05
9 *306:18 *333:31 0.000778609
10 *306:29 *910:A 1.12487e-05
11 *306:29 *333:31 0.000187986
12 *100:10 *306:6 9.5877e-05
13 *100:10 *306:18 5.50049e-05
14 *100:10 *306:29 0.000161121
*RES
1 *866:X *306:6 25.0507 
2 *306:6 *306:18 44.4793 
3 *306:18 *812:A 23 
4 *306:6 *306:29 32.61 
5 *306:29 *656:A 23 
*END

*D_NET *307 0.00207579
*CONN
*I *712:B1 I *D sky130_fd_sc_hd__o211a_1
*I *702:A I *D sky130_fd_sc_hd__or2_1
*I *703:A I *D sky130_fd_sc_hd__nand2_1
*I *867:X O *D sky130_fd_sc_hd__buf_1
*CAP
1 *712:B1 8.47193e-05
2 *702:A 3.27104e-05
3 *703:A 0.000115684
4 *867:X 0
5 *307:8 0.000533914
6 *307:6 0.000470239
7 *703:A *703:B 8.16356e-05
8 *703:A *341:24 0
9 *703:A *343:14 4.6318e-06
10 *712:B1 *344:26 0.000140958
11 *307:8 *308:10 5.61311e-05
12 *307:8 *308:21 6.02277e-06
13 *307:8 *343:14 0.000118484
14 *307:8 *344:26 3.92407e-05
15 acc[16] *307:8 4.9808e-05
16 *704:B *307:8 0.000107548
17 *35:17 *702:A 5.50106e-05
18 *190:10 *703:A 5.31444e-05
19 *190:10 *307:8 0.000125904
20 *201:10 *307:8 0
*RES
1 *867:X *307:6 38 
2 *307:6 *307:8 10.005 
3 *307:8 *703:A 40.2579 
4 *307:8 *702:A 38.6214 
5 *307:6 *712:B1 39.9057 
*END

*D_NET *308 0.00154162
*CONN
*I *705:A I *D sky130_fd_sc_hd__xnor2_1
*I *712:A1 I *D sky130_fd_sc_hd__o211a_1
*I *715:A1 I *D sky130_fd_sc_hd__a211oi_1
*I *868:X O *D sky130_fd_sc_hd__buf_1
*CAP
1 *705:A 3.29525e-05
2 *712:A1 1.50079e-05
3 *715:A1 0
4 *868:X 0.000208826
5 *308:21 0.000140239
6 *308:10 0.000301105
7 *705:A *712:C1 0.000216471
8 *705:A *344:18 0.000228909
9 *712:A1 *712:C1 5.50049e-05
10 *712:A1 *344:18 5.50049e-05
11 *308:10 *344:10 0
12 *308:21 *344:10 0
13 *308:21 *344:26 8.16459e-05
14 *704:B *308:10 1.94812e-05
15 *199:8 *308:10 6.07611e-06
16 *199:8 *308:21 7.28526e-05
17 *201:10 *308:10 4.58924e-05
18 *307:8 *308:10 5.61311e-05
19 *307:8 *308:21 6.02277e-06
*RES
1 *868:X *308:10 41.8321 
2 *308:10 *715:A1 38 
3 *308:10 *308:21 17.61 
4 *308:21 *712:A1 23.6214 
5 *308:21 *705:A 25.5271 
*END

*D_NET *309 0.00173702
*CONN
*I *654:A I *D sky130_fd_sc_hd__nor2_1
*I *652:A I *D sky130_fd_sc_hd__nand2_1
*I *869:X O *D sky130_fd_sc_hd__clkbuf_1
*CAP
1 *654:A 0.000170104
2 *652:A 0.000196126
3 *869:X 0.000138861
4 *309:8 0.000505091
5 *652:A *652:B 0.000123418
6 *652:A *921:A 0
7 *652:A *345:23 4.08641e-05
8 *654:A *910:A 6.07611e-06
9 *654:A *345:23 0.000130045
10 *654:A *371:51 4.58924e-05
11 *309:8 *319:12 9.42133e-05
12 *56:11 *654:A 0
13 *61:13 *652:A 0
14 *70:10 *652:A 0.000194299
15 *70:10 *654:A 3.70187e-05
16 *70:10 *309:8 5.50106e-05
17 *144:8 *652:A 0
*RES
1 *869:X *309:8 40.0507 
2 *309:8 *652:A 42.7229 
3 *309:8 *654:A 41.6664 
*END

*D_NET *310 0.00163293
*CONN
*I *729:A I *D sky130_fd_sc_hd__or2_1
*I *728:A I *D sky130_fd_sc_hd__nand2_1
*I *870:X O *D sky130_fd_sc_hd__clkbuf_1
*CAP
1 *729:A 0
2 *728:A 0
3 *870:X 0.000282403
4 *310:20 0.000164131
5 *310:12 0.000446534
6 *310:12 *602:A 5.50049e-05
7 *310:12 *911:A 0.000123878
8 *310:12 *370:47 0.000123736
9 *310:20 *729:B 2.96154e-05
10 *310:20 *344:10 9.20311e-06
11 *310:20 *346:21 0.000178544
12 *310:20 *370:47 0.000219882
*RES
1 *870:X *310:12 28.5721 
2 *310:12 *310:20 34.4121 
3 *310:20 *728:A 23 
4 *310:12 *729:A 23 
*END

*D_NET *311 0.000963193
*CONN
*I *718:A I *D sky130_fd_sc_hd__or2_1
*I *717:A I *D sky130_fd_sc_hd__nand2_1
*I *871:X O *D sky130_fd_sc_hd__clkbuf_1
*CAP
1 *718:A 0
2 *717:A 6.98419e-05
3 *871:X 7.89401e-05
4 *311:12 0.000110516
5 *311:8 0.000119614
6 *717:A *717:B 4.66969e-05
7 *311:8 *912:A 0
8 *311:8 *370:62 0.000110922
9 *204:6 *717:A 0.000141052
10 *204:6 *311:12 0.000143655
11 *204:15 *311:12 4.17736e-05
12 *205:6 *311:12 0.00010018
*RES
1 *871:X *311:8 39.5536 
2 *311:8 *311:12 17.0507 
3 *311:12 *717:A 25.0714 
4 *311:12 *718:A 23 
*END

*D_NET *312 0.00136874
*CONN
*I *720:A I *D sky130_fd_sc_hd__or2_1
*I *721:A I *D sky130_fd_sc_hd__nand2_1
*I *872:X O *D sky130_fd_sc_hd__clkbuf_1
*CAP
1 *720:A 0
2 *721:A 0.00018383
3 *872:X 0.000126254
4 *312:21 0.000162828
5 *312:6 0.000472911
6 *721:A *721:B 5.90675e-06
7 *722:A *312:21 0.000194309
8 *722:B *721:A 3.24946e-05
9 *13:12 *721:A 0
10 *50:13 *721:A 7.43805e-05
11 *50:13 *312:6 9.74722e-05
12 *50:13 *312:21 1.83564e-05
13 *304:84 *312:21 0
14 *304:112 *312:21 0
*RES
1 *872:X *312:6 25.0507 
2 *312:6 *721:A 26.2521 
3 *312:6 *312:21 33.6664 
4 *312:21 *720:A 23 
*END

*D_NET *313 0.00119339
*CONN
*I *723:A I *D sky130_fd_sc_hd__nand2_1
*I *724:A I *D sky130_fd_sc_hd__or2_1
*I *873:X O *D sky130_fd_sc_hd__clkbuf_1
*CAP
1 *723:A 0.000166489
2 *724:A 0
3 *873:X 4.72813e-05
4 *313:12 0.000246942
5 *313:6 0.000460713
6 *313:12 *724:B 8.0614e-05
7 *313:12 *349:21 3.37492e-05
8 *51:21 *723:A 5.73288e-05
9 *51:21 *313:6 2.27397e-05
10 *53:15 *723:A 0
11 *210:6 *723:A 2.79662e-05
12 *210:14 *723:A 1.40958e-05
13 *210:27 *313:12 3.54728e-05
14 *210:41 *313:12 0
*RES
1 *873:X *313:6 23.6214 
2 *313:6 *313:12 35.075 
3 *313:12 *724:A 23 
4 *313:6 *723:A 26.045 
*END

*D_NET *314 0.00231574
*CONN
*I *632:A I *D sky130_fd_sc_hd__or2_1
*I *631:A I *D sky130_fd_sc_hd__nand2_1
*I *874:X O *D sky130_fd_sc_hd__clkbuf_1
*CAP
1 *632:A 9.27576e-05
2 *631:A 3.04931e-05
3 *874:X 0.000164755
4 *314:16 0.000564983
5 *314:12 0.000606487
6 *632:A *631:B 0.000143655
7 *314:12 *916:A 4.117e-05
8 *314:16 *916:A 7.52846e-06
9 *619:A *314:16 1.22906e-05
10 *624:B *314:16 5.26308e-05
11 *625:A *314:16 4.49946e-05
12 *761:B1 *314:16 0
13 *762:A *314:12 2.7237e-05
14 *105:25 *314:16 0.000140958
15 *110:23 *314:12 0
16 *110:23 *314:16 2.87111e-05
17 *111:29 *314:16 0
18 *118:10 *631:A 7.53384e-06
19 *118:10 *632:A 1.22822e-05
20 *118:10 *314:16 0
21 *118:33 *314:16 5.94125e-05
22 *119:10 *632:A 5.67058e-05
23 *119:10 *314:16 0.000137788
24 *120:10 *314:16 3.92014e-05
25 *120:18 *632:A 0
26 *240:8 *314:16 4.41619e-05
27 *242:8 *314:16 0
*RES
1 *874:X *314:12 40.8689 
2 *314:12 *314:16 24.3525 
3 *314:16 *631:A 23.6214 
4 *314:16 *632:A 25.5479 
*END

*D_NET *315 0.0018717
*CONN
*I *618:A I *D sky130_fd_sc_hd__or2_1
*I *617:A I *D sky130_fd_sc_hd__nand2_1
*I *875:X O *D sky130_fd_sc_hd__clkbuf_1
*CAP
1 *618:A 0.000194526
2 *617:A 0
3 *875:X 0.000296256
4 *315:12 0.000200854
5 *315:8 0.000302584
6 *618:A *617:B 0.000230269
7 *315:8 *916:A 0
8 *315:8 *349:21 0
9 *315:8 *352:10 0
10 *315:8 *370:91 3.07161e-05
11 *315:12 *617:B 7.93848e-06
12 acc[25] *315:8 0
13 *625:A *618:A 5.50106e-05
14 *760:A1 *618:A 0.000301792
15 *760:A2 *618:A 3.61695e-05
16 *104:6 *618:A 5.96378e-05
17 *104:6 *315:12 9.68637e-06
18 *105:6 *618:A 7.53384e-06
19 *241:10 *315:8 0.000138727
20 *304:112 *315:8 0
*RES
1 *875:X *315:8 43.075 
2 *315:8 *315:12 15.1864 
3 *315:12 *617:A 23 
4 *315:12 *618:A 29.4836 
*END

*D_NET *316 0.00555937
*CONN
*I *622:A I *D sky130_fd_sc_hd__or2_1
*I *621:A I *D sky130_fd_sc_hd__nand2_1
*I *627:B1 I *D sky130_fd_sc_hd__o211a_1
*I *876:X O *D sky130_fd_sc_hd__buf_1
*CAP
1 *622:A 2.34823e-05
2 *621:A 0
3 *627:B1 0
4 *876:X 0.000437266
5 *316:43 0.000254363
6 *316:33 0.000496058
7 *316:20 0.000698139
8 *316:16 0.000917192
9 *316:16 *320:10 0.000136738
10 *316:20 *323:12 0.000228261
11 *316:20 *351:30 6.99494e-05
12 *316:20 *353:34 6.07611e-06
13 *316:20 *354:12 0
14 *316:33 *915:A 5.50106e-05
15 *316:33 *322:33 0.000270682
16 *316:33 *351:30 5.51118e-05
17 *316:33 *353:21 2.80394e-05
18 *316:33 *353:34 0.000194518
19 *316:43 *322:33 0
20 *316:43 *353:12 4.3407e-05
21 *316:43 *353:21 3.53115e-05
22 *623:A *316:43 5.67058e-05
23 *751:A2 *316:16 0.000207275
24 *751:B1 *316:16 0.000182832
25 *19:8 *316:33 4.79544e-05
26 *19:8 *316:43 7.53384e-06
27 *52:13 *316:43 0.000181976
28 *101:41 *316:16 4.79544e-05
29 *107:33 *316:16 0.000139357
30 *109:14 *316:43 0.000121919
31 *111:29 *316:20 9.86551e-06
32 *112:23 *316:20 4.75873e-05
33 *227:41 *316:20 3.18831e-05
34 *228:20 *316:16 8.59719e-06
35 *228:34 *316:16 9.24795e-06
36 *228:34 *316:20 4.9808e-05
37 *229:20 *316:16 0.00010684
38 *296:10 *316:20 0
39 *298:10 *316:16 0.000352426
40 *305:89 *316:33 0
*RES
1 *876:X *316:16 49.4343 
2 *316:16 *316:20 7.45714 
3 *316:20 *627:B1 38 
4 *316:20 *316:33 21.9186 
5 *316:33 *316:43 36.5871 
6 *316:43 *621:A 23 
7 *316:33 *622:A 23.4971 
*END

*D_NET *317 0.00329814
*CONN
*I *638:A I *D sky130_fd_sc_hd__nand2_1
*I *639:A I *D sky130_fd_sc_hd__or2_1
*I *877:X O *D sky130_fd_sc_hd__clkbuf_1
*CAP
1 *638:A 7.36276e-05
2 *639:A 0
3 *877:X 0
4 *317:12 0.000652546
5 *317:6 0.000726173
6 *638:A *334:25 2.54046e-05
7 *317:12 *331:18 0.000379723
8 *317:12 *334:8 9.41704e-05
9 *317:12 *334:25 0.000192238
10 *646:A2 *317:12 2.43944e-05
11 *681:B *638:A 7.70737e-05
12 *681:B *317:12 0.000212454
13 *794:A2 *317:12 0.000142482
14 *40:11 *317:12 2.95125e-05
15 *125:10 *317:12 8.37835e-05
16 *126:31 *317:12 0.00020004
17 *129:12 *317:12 7.28526e-05
18 *166:18 *638:A 5.50106e-05
19 *167:10 *317:12 8.62876e-05
20 *257:8 *317:12 0.000170367
*RES
1 *877:X *317:6 38 
2 *317:6 *317:12 31.7371 
3 *317:12 *639:A 23 
4 *317:6 *638:A 39.8229 
*END

*D_NET *318 0.00259659
*CONN
*I *628:A1 I *D sky130_fd_sc_hd__a211o_1
*I *620:A I *D sky130_fd_sc_hd__xnor2_1
*I *627:A1 I *D sky130_fd_sc_hd__o211a_1
*I *878:X O *D sky130_fd_sc_hd__buf_1
*CAP
1 *628:A1 0
2 *620:A 0.000120881
3 *627:A1 0
4 *878:X 0.000318074
5 *318:18 0.000241888
6 *318:12 0.000121007
7 *318:10 0.000318074
8 *620:A *627:A2 3.16671e-05
9 *620:A *628:A2 1.76557e-05
10 *620:A *917:A 0.000171179
11 *620:A *354:16 0.000166215
12 *318:10 *747:A 2.5415e-05
13 *318:10 *322:33 8.19842e-05
14 *318:10 *353:12 4.6318e-06
15 *318:18 *627:A2 3.91386e-05
16 *318:18 *628:A2 0.000349791
17 *628:B1 *620:A 0.000153335
18 *628:B1 *318:18 6.38109e-05
19 *628:C1 *620:A 9.72057e-06
20 *628:C1 *318:18 5.90132e-05
21 *878:A *318:10 6.17437e-06
22 *110:23 *318:10 0
23 *115:10 *318:10 0.000289406
24 *116:6 *318:10 7.53384e-06
*RES
1 *878:X *318:10 44.1729 
2 *318:10 *318:12 15 
3 *318:12 *318:18 4.47429 
4 *318:18 *627:A1 23 
5 *318:18 *620:A 28.6136 
6 *318:12 *628:A1 23 
*END

*D_NET *319 0.00519021
*CONN
*I *614:A I *D sky130_fd_sc_hd__nand2_1
*I *615:A I *D sky130_fd_sc_hd__or2_1
*I *879:X O *D sky130_fd_sc_hd__clkbuf_1
*CAP
1 *614:A 1.22655e-05
2 *615:A 0.000207921
3 *879:X 0.000304772
4 *319:16 0.00076223
5 *319:12 0.000846816
6 *614:A *615:B 5.50106e-05
7 *614:A *747:B 4.2573e-05
8 *615:A *615:B 0.000830493
9 *615:A *747:B 0.000958903
10 *319:12 *371:38 5.7831e-05
11 *319:12 *371:51 3.53115e-05
12 *319:16 *910:A 3.74442e-05
13 *319:16 *320:39 0
14 *319:16 *345:23 3.95159e-06
15 *319:16 *355:10 5.01247e-05
16 *319:16 *371:78 0
17 *657:B1 *319:12 9.67842e-05
18 *823:CLK *319:16 0
19 *47:15 *319:12 0.000104183
20 *70:10 *319:12 5.50106e-05
21 *102:14 *615:A 5.50049e-05
22 *139:10 *319:16 1.58805e-05
23 *143:10 *319:16 0.000126343
24 *143:18 *319:16 0.000191148
25 *237:8 *319:16 0
26 *268:10 *319:16 0.000163343
27 *300:10 *319:16 8.26569e-05
28 *305:12 *319:16 0
29 *305:14 *319:16 0
30 *309:8 *319:12 9.42133e-05
*RES
1 *879:X *319:12 44.9807 
2 *319:12 *319:16 26.7657 
3 *319:16 *615:A 34.31 
4 *319:16 *614:A 23.6214 
*END

*D_NET *320 0.00585509
*CONN
*I *741:A I *D sky130_fd_sc_hd__nor2_1
*I *742:A I *D sky130_fd_sc_hd__nand2_1
*I *880:X O *D sky130_fd_sc_hd__clkbuf_1
*CAP
1 *741:A 0
2 *742:A 0
3 *880:X 0.000178638
4 *320:39 0.000702329
5 *320:20 0.000458179
6 *320:14 0.00162265
7 *320:10 0.000640784
8 *320:39 *741:B 1.99391e-05
9 *320:39 *910:A 5.3304e-05
10 *320:39 *323:28 0.000281529
11 *320:39 *333:31 3.41998e-06
12 *320:39 *333:58 7.57281e-06
13 *320:39 *355:10 0
14 *320:39 *355:42 0.000151278
15 *320:39 *359:8 2.93747e-05
16 *320:39 *371:66 0.000135159
17 *320:39 *371:78 0.000132136
18 *852:CLK *320:20 0
19 *876:A *320:20 0.000264749
20 *96:10 *320:20 0.00021039
21 *99:8 *320:39 4.67532e-05
22 *103:16 *320:14 2.4754e-05
23 *226:50 *320:14 0.000267167
24 *228:10 *320:20 0.000102484
25 *230:10 *320:10 8.4047e-05
26 *232:10 *320:10 2.29192e-05
27 *235:14 *320:20 0.000185183
28 *235:14 *320:39 7.76364e-06
29 *236:8 *320:39 4.74706e-05
30 *298:10 *320:20 3.83778e-05
31 *316:16 *320:10 0.000136738
32 *319:16 *320:39 0
*RES
1 *880:X *320:10 40.7757 
2 *320:10 *320:14 21.3386 
3 *320:14 *320:20 40.3571 
4 *320:20 *742:A 23 
5 *320:14 *320:39 43.6921 
6 *320:39 *741:A 23 
*END

*D_NET *321 0.00376748
*CONN
*I *650:A I *D sky130_fd_sc_hd__and2_1
*I *651:A I *D sky130_fd_sc_hd__nor2_1
*I *881:X O *D sky130_fd_sc_hd__clkbuf_1
*CAP
1 *650:A 0
2 *651:A 0
3 *881:X 0
4 *321:31 0.000718916
5 *321:14 0.000357207
6 *321:4 0.00107612
7 *321:14 *324:56 2.04774e-05
8 *321:14 *332:30 0.000255292
9 *321:14 *360:10 0
10 *321:14 *360:14 0
11 *321:31 *650:B 1.05658e-05
12 *321:31 *921:A 4.54033e-05
13 *321:31 *357:8 3.3577e-05
14 *321:31 *357:10 5.91772e-05
15 *824:CLK *321:14 0.00010018
16 *824:CLK *321:31 0.000125213
17 *824:D *321:14 0.00010018
18 *824:D *321:31 0.000226315
19 *73:10 *321:14 2.93747e-05
20 *147:10 *321:14 0.00014196
21 *152:8 *321:14 6.94063e-05
22 *152:16 *321:14 0.000141888
23 *264:18 *321:14 2.99187e-05
24 *275:8 *321:14 0.000226306
*RES
1 *881:X *321:4 23 
2 *321:4 *321:14 40.2743 
3 *321:14 *651:A 23 
4 *321:4 *321:31 44.2307 
5 *321:31 *650:A 23 
*END

*D_NET *322 0.00561375
*CONN
*I *746:A I *D sky130_fd_sc_hd__nor2_1
*I *747:A I *D sky130_fd_sc_hd__nand2_1
*I *882:X O *D sky130_fd_sc_hd__clkbuf_1
*CAP
1 *746:A 0
2 *747:A 0.000355553
3 *882:X 0
4 *322:33 0.00132547
5 *322:6 0.00168102
6 *747:A *351:30 8.75753e-05
7 *322:33 *746:B 5.90675e-06
8 *322:33 *918:A 1.89178e-05
9 *322:33 *351:30 0.000106965
10 *322:33 *353:12 0
11 *322:33 *353:34 2.31992e-05
12 *322:33 *354:12 6.00262e-05
13 *322:33 *356:48 2.64616e-05
14 *738:A1 *747:A 0.000108681
15 *849:RESET_B *322:33 9.987e-05
16 *19:8 *322:33 0.000272383
17 *22:8 *322:33 0.000358425
18 *52:13 *322:33 0
19 *59:11 *322:33 1.9534e-05
20 *60:17 *747:A 2.47015e-05
21 *60:17 *322:33 5.80693e-05
22 *103:33 *747:A 1.37349e-05
23 *115:10 *747:A 0
24 *116:10 *747:A 0.000267951
25 *117:24 *747:A 1.12487e-05
26 *224:40 *747:A 0
27 *227:41 *747:A 2.52624e-05
28 *228:10 *322:33 2.79662e-05
29 *228:34 *747:A 1.34542e-05
30 *301:28 *747:A 0.000139647
31 *305:89 *322:33 0.000103637
32 *316:33 *322:33 0.000270682
33 *316:43 *322:33 0
34 *318:10 *747:A 2.5415e-05
35 *318:10 *322:33 8.19842e-05
*RES
1 *882:X *322:6 38 
2 *322:6 *747:A 46.1614 
3 *322:6 *322:33 41.6179 
4 *322:33 *746:A 23 
*END

*D_NET *323 0.00592123
*CONN
*I *754:A I *D sky130_fd_sc_hd__xnor2_1
*I *883:X O *D sky130_fd_sc_hd__clkbuf_1
*CAP
1 *754:A 0
2 *883:X 0.000573632
3 *323:28 0.00136485
4 *323:12 0.00193848
5 *323:12 *351:30 7.20144e-05
6 *323:28 *610:A 5.56279e-05
7 *323:28 *741:B 0.000223864
8 *323:28 *371:78 1.3523e-05
9 *764:A *323:12 0
10 *883:A *323:12 9.58714e-05
11 *57:17 *323:28 0.00013071
12 *60:17 *323:28 0
13 *99:8 *323:28 7.20089e-05
14 *102:28 *323:28 0.000105379
15 *117:8 *323:12 0.000228103
16 *226:50 *323:28 0.000397236
17 *227:41 *323:28 8.04117e-05
18 *243:8 *323:12 5.97296e-05
19 *305:89 *323:12 0
20 *316:20 *323:12 0.000228261
21 *320:39 *323:28 0.000281529
*RES
1 *883:X *323:12 47.1039 
2 *323:12 *323:28 39.4772 
3 *323:28 *754:A 23 
*END

*D_NET *324 0.00537305
*CONN
*I *659:A1 I *D sky130_fd_sc_hd__a21o_1
*I *660:A I *D sky130_fd_sc_hd__xor2_1
*I *661:A1 I *D sky130_fd_sc_hd__o22ai_1
*I *674:A1 I *D sky130_fd_sc_hd__o221ai_4
*I *884:X O *D sky130_fd_sc_hd__clkbuf_2
*CAP
1 *659:A1 0
2 *660:A 0
3 *661:A1 4.4896e-05
4 *674:A1 3.12119e-05
5 *884:X 0.000367813
6 *324:56 0.000145606
7 *324:48 0.000407287
8 *324:35 0.000729201
9 *324:14 0.000702015
10 *324:8 0.000615993
11 *324:8 *650:B 6.10551e-06
12 *324:8 *357:10 8.33951e-06
13 *324:8 *360:45 4.11325e-05
14 *324:14 *360:45 0.000391641
15 *324:14 *367:46 0.000221992
16 *324:35 *357:29 0.000336544
17 *324:48 *661:A2 2.03764e-06
18 *324:48 *360:20 1.87545e-05
19 *324:56 *360:14 0.000138718
20 *324:56 *360:20 1.94693e-05
21 acc[3] *324:8 2.33476e-05
22 *661:B2 *661:A1 1.24376e-05
23 *797:B *674:A1 5.80693e-05
24 *797:B *324:35 0.000110379
25 *798:A *324:14 1.76557e-05
26 *798:B *324:14 2.32101e-05
27 *824:CLK *324:35 4.77883e-05
28 *34:12 *324:14 1.32939e-05
29 *58:15 *324:35 2.08882e-05
30 *63:17 *324:8 0
31 *63:17 *324:35 2.01057e-05
32 *71:8 *324:8 0
33 *73:10 *324:56 1.32939e-05
34 *137:8 *324:8 0.000329214
35 *137:39 *661:A1 2.93104e-06
36 *137:39 *324:48 3.51395e-05
37 *146:6 *661:A1 5.3304e-05
38 *146:6 *324:48 1.21972e-05
39 *148:22 *674:A1 6.01687e-05
40 *148:22 *324:35 0.000184364
41 *152:16 *324:56 4.08537e-05
42 *260:12 *324:8 0
43 *263:12 *324:35 4.51797e-05
44 *321:14 *324:56 2.04774e-05
*RES
1 *884:X *324:8 45.54 
2 *324:8 *324:14 35.8621 
3 *324:14 *674:A1 38.8493 
4 *324:14 *324:35 35.8206 
5 *324:35 *661:A1 24.1186 
6 *324:35 *324:48 3.50071 
7 *324:48 *324:56 33.0036 
8 *324:56 *660:A 23 
9 *324:48 *659:A1 23 
*END

*D_NET *325 0.00239031
*CONN
*I *670:A I *D sky130_fd_sc_hd__nand2_1
*I *671:A I *D sky130_fd_sc_hd__or2_1
*I *885:X O *D sky130_fd_sc_hd__clkbuf_1
*CAP
1 *670:A 0.000234066
2 *671:A 0
3 *885:X 0.000451042
4 *325:10 0.000685108
5 *670:A *362:42 0
6 *325:10 *667:B 1.34354e-05
7 *325:10 *925:A 0.000182087
8 *325:10 *326:28 0.000296937
9 *325:10 *364:43 2.64616e-05
10 *34:12 *670:A 6.17437e-06
11 *62:15 *325:10 3.83498e-05
12 *63:17 *670:A 0
13 *63:17 *325:10 0
14 *157:8 *670:A 3.33677e-05
15 *157:59 *670:A 5.01986e-05
16 *157:59 *325:10 0.000373081
17 *273:8 *670:A 0
*RES
1 *885:X *325:10 47.0314 
2 *325:10 *671:A 38 
3 *325:10 *670:A 41.7079 
*END

*D_NET *326 0.00337162
*CONN
*I *667:A I *D sky130_fd_sc_hd__nand2_1
*I *668:A I *D sky130_fd_sc_hd__or2_1
*I *886:X O *D sky130_fd_sc_hd__clkbuf_1
*CAP
1 *667:A 0
2 *668:A 0
3 *886:X 0.000360245
4 *326:28 0.000574971
5 *326:14 0.000588256
6 *326:10 0.000373529
7 *326:10 *367:46 4.93247e-05
8 *326:10 *368:103 2.06964e-05
9 *326:28 *667:B 0.000134553
10 *797:B *326:10 0
11 *799:A2 *326:10 6.07611e-06
12 *32:8 *326:28 0.000219383
13 *74:10 *326:14 5.56279e-05
14 *74:10 *326:28 1.16778e-05
15 *154:10 *326:28 5.56356e-05
16 *157:59 *326:28 1.37246e-05
17 *158:8 *326:28 0.000326964
18 *159:29 *326:10 0
19 *259:12 *326:10 0.000129751
20 *260:12 *326:10 0.000154272
21 *261:44 *326:28 0
22 *325:10 *326:28 0.000296937
*RES
1 *886:X *326:10 43.3443 
2 *326:10 *326:14 15.6214 
3 *326:14 *326:28 41.7243 
4 *326:28 *668:A 23 
5 *326:14 *667:A 23 
*END

*D_NET *327 0.00629541
*CONN
*I *662:A I *D sky130_fd_sc_hd__xnor2_1
*I *805:A1 I *D sky130_fd_sc_hd__a21oi_1
*I *675:A1 I *D sky130_fd_sc_hd__a21oi_1
*I *887:X O *D sky130_fd_sc_hd__buf_1
*CAP
1 *662:A 5.85716e-05
2 *805:A1 0.000370391
3 *675:A1 1.46179e-05
4 *887:X 0.000380449
5 *327:16 0.00128262
6 *327:10 0.00125529
7 *327:8 0.000679554
8 *662:A *364:14 0.000139357
9 *675:A1 *364:27 1.05441e-05
10 *327:8 *592:A 2.64616e-05
11 *327:8 *664:A 3.17634e-05
12 *327:8 *819:A 0.000119313
13 *327:8 *365:26 9.58714e-05
14 *327:10 *329:10 7.98243e-05
15 *327:10 *329:18 0.000107212
16 *327:10 *332:30 2.05503e-05
17 *327:10 *364:14 0.000132921
18 acc[11] *662:A 0.000139352
19 acc[6] *675:A1 2.33476e-05
20 acc[8] *327:10 0
21 acc[8] *327:16 0
22 acc[9] *327:16 0
23 *33:8 *662:A 1.76557e-05
24 *65:15 *805:A1 3.1869e-05
25 *65:15 *327:16 0.000283903
26 *80:10 *327:10 0
27 *152:16 *327:10 0.000195126
28 *152:16 *327:16 8.21456e-06
29 *265:12 *805:A1 0.000445669
30 *265:12 *327:16 0.000344958
*RES
1 *887:X *327:8 44.815 
2 *327:8 *327:10 6.48357 
3 *327:10 *327:16 10.4379 
4 *327:16 *675:A1 46.3211 
5 *327:16 *805:A1 47.3216 
6 *327:10 *662:A 40.0507 
*END

*D_NET *328 0.0026732
*CONN
*I *635:A I *D sky130_fd_sc_hd__nor2_1
*I *636:A I *D sky130_fd_sc_hd__or2_1
*I *634:A I *D sky130_fd_sc_hd__nand2_1
*I *888:X O *D sky130_fd_sc_hd__clkbuf_1
*CAP
1 *635:A 6.25492e-05
2 *636:A 9.23404e-05
3 *634:A 0.000158604
4 *888:X 0
5 *328:29 0.000489934
6 *328:19 0.000597889
7 *328:4 0.00029635
8 *634:A *335:35 6.8523e-05
9 *635:A *335:25 6.17437e-06
10 *636:A *636:B 4.37033e-05
11 *328:29 *900:A 0
12 *328:29 *335:25 9.41704e-05
13 *646:A1 *328:29 8.06804e-06
14 *833:CLK *636:A 1.24376e-05
15 *833:CLK *328:29 6.25829e-05
16 *38:13 *634:A 6.17437e-06
17 *38:13 *328:19 4.67488e-05
18 *38:13 *328:29 5.20202e-05
19 *64:19 *328:19 0.000139647
20 *64:19 *328:29 4.77461e-05
21 *66:9 *328:29 0
22 *121:8 *634:A 2.36126e-05
23 *123:10 *636:A 5.37348e-06
24 *123:10 *328:29 2.5415e-05
25 *124:21 *634:A 2.80924e-06
26 *280:14 *328:29 8.62783e-05
27 *303:22 *328:19 0.000129504
28 *303:22 *328:29 3.47781e-05
29 *303:37 *635:A 5.3304e-05
30 *303:37 *328:29 2.64616e-05
*RES
1 *888:X *328:4 23 
2 *328:4 *634:A 25.4236 
3 *328:4 *328:19 18.0036 
4 *328:19 *328:29 36.3386 
5 *328:29 *636:A 40.0714 
6 *328:19 *635:A 39.0979 
*END

*D_NET *329 0.00572186
*CONN
*I *664:A I *D sky130_fd_sc_hd__nor2_1
*I *663:A I *D sky130_fd_sc_hd__and2_1
*I *889:X O *D sky130_fd_sc_hd__clkbuf_1
*CAP
1 *664:A 6.49662e-05
2 *663:A 0
3 *889:X 0.000737659
4 *329:18 0.00119999
5 *329:10 0.00200261
6 *664:A *819:A 1.83444e-05
7 *664:A *365:26 3.52815e-05
8 *664:A *369:6 0.000140259
9 *329:10 *332:30 8.65606e-05
10 *329:10 *366:28 1.32289e-05
11 *329:10 *369:23 4.29613e-05
12 *329:18 *663:B 4.48401e-05
13 *329:18 *364:27 2.77798e-05
14 *329:18 *369:23 9.48381e-06
15 *645:A *329:10 5.3304e-05
16 *829:D *329:18 1.8561e-06
17 *829:RESET_B *329:18 0.000475327
18 *65:15 *329:10 0.000213872
19 *80:10 *329:18 0
20 *150:6 *329:18 9.67842e-05
21 *150:22 *329:18 9.56899e-05
22 *151:12 *329:10 9.86551e-06
23 *154:35 *329:10 5.50049e-05
24 *303:37 *329:18 7.73854e-05
25 *327:8 *664:A 3.17634e-05
26 *327:10 *329:10 7.98243e-05
27 *327:10 *329:18 0.000107212
*RES
1 *889:X *329:10 48.8543 
2 *329:10 *329:18 32.7936 
3 *329:18 *663:A 23 
4 *329:10 *664:A 40.0714 
*END

*D_NET *330 0.00189865
*CONN
*I *647:A I *D sky130_fd_sc_hd__nand2_1
*I *648:A I *D sky130_fd_sc_hd__or2_1
*I *890:X O *D sky130_fd_sc_hd__clkbuf_1
*CAP
1 *647:A 6.65762e-05
2 *648:A 0
3 *890:X 0.000545087
4 *330:12 6.65762e-05
5 *330:10 0.000545087
6 *647:A *648:B 5.50049e-05
7 *330:10 *364:6 9.84851e-05
8 *330:10 *368:77 0
9 *644:A *330:10 0
10 *64:19 *330:10 0
11 *65:15 *330:10 0.000126137
12 *66:9 *330:10 2.21277e-05
13 *75:8 *330:10 0.000114092
14 *124:21 *330:10 0
15 *134:6 *647:A 3.17516e-05
16 *134:18 *647:A 3.22879e-05
17 *303:20 *647:A 4.66047e-05
18 *303:20 *330:10 9.47911e-06
19 *303:22 *330:10 0
20 *303:37 *330:10 0.000139352
*RES
1 *890:X *330:10 48.1707 
2 *330:10 *330:12 15 
3 *330:12 *648:A 23 
4 *330:12 *647:A 25.0714 
*END

*D_NET *331 0.00344166
*CONN
*I *642:A I *D sky130_fd_sc_hd__or2_1
*I *641:A I *D sky130_fd_sc_hd__nand2_1
*I *891:X O *D sky130_fd_sc_hd__clkbuf_1
*CAP
1 *642:A 0.000128795
2 *641:A 0
3 *891:X 0.00024227
4 *331:22 0.000154959
5 *331:18 0.000436589
6 *331:10 0.000652695
7 *642:A *641:B 0.000137651
8 *642:A *367:22 9.67842e-05
9 *331:18 *334:25 8.12743e-05
10 *645:C *642:A 2.77477e-05
11 *645:C *331:22 5.50106e-05
12 *646:A2 *331:18 0.000135037
13 *794:A2 *331:10 8.4047e-05
14 *794:A2 *331:18 4.99132e-06
15 *67:11 *331:10 4.94964e-05
16 *83:8 *331:10 8.62876e-05
17 *126:12 *331:10 5.37348e-06
18 *126:12 *331:18 5.79466e-05
19 *126:31 *331:18 1.22906e-05
20 *128:15 *642:A 2.02872e-05
21 *129:12 *642:A 0.000305431
22 *258:10 *331:18 0.000286976
23 *317:12 *331:18 0.000379723
*RES
1 *891:X *331:10 41.7286 
2 *331:10 *331:18 38.41 
3 *331:18 *331:22 15.6214 
4 *331:22 *641:A 23 
5 *331:22 *642:A 26.9771 
*END

*D_NET *332 0.0144218
*CONN
*I *862:A I *D sky130_fd_sc_hd__buf_4
*I *863:A I *D sky130_fd_sc_hd__buf_2
*I *865:A I *D sky130_fd_sc_hd__buf_2
*I *864:A I *D sky130_fd_sc_hd__buf_4
*I *892:X O *D sky130_fd_sc_hd__dlymetal6s2s_1
*CAP
1 *862:A 0.000162455
2 *863:A 0.000178408
3 *865:A 4.10228e-05
4 *864:A 0.00103879
5 *892:X 0.000269501
6 *332:30 0.00200616
7 *332:20 0.00329119
8 *332:12 0.00261839
9 *862:A *368:18 5.0894e-05
10 *862:A *368:132 7.73823e-06
11 *863:A *365:26 9.41704e-05
12 *863:A *366:28 4.36547e-05
13 *863:A *367:22 1.1502e-05
14 *863:A *367:46 5.52967e-05
15 *864:A *370:12 0.000102389
16 *864:A *371:10 9.91798e-05
17 *865:A *371:10 5.41385e-05
18 *332:20 *339:22 9.23363e-05
19 *332:20 *367:22 0.000434944
20 *332:30 *360:10 0
21 *332:30 *367:12 2.26497e-05
22 *332:30 *369:23 0
23 *786:A2 *332:12 0.000313255
24 *840:CLK *864:A 0.000146822
25 *39:19 *332:20 0.000199378
26 *40:11 *332:20 0.000132311
27 *64:19 *332:20 0.000104869
28 *76:10 *863:A 4.36547e-05
29 *147:10 *332:30 0
30 *151:12 *863:A 0.000176699
31 *151:12 *332:20 0.000211773
32 *152:16 *332:30 0.000359901
33 *154:35 *332:30 0.000174176
34 *156:10 *332:30 0.00052694
35 *164:8 *332:30 0.000320642
36 *172:23 *332:12 7.53384e-06
37 *173:27 *332:20 0.000243028
38 *173:56 *332:20 3.66043e-05
39 *174:36 *332:12 6.19632e-05
40 *253:8 *862:A 0
41 *254:10 *862:A 0
42 *254:10 *332:12 3.22879e-05
43 *267:8 *332:30 0
44 *284:10 *862:A 0
45 *301:12 *332:30 0.000218627
46 *301:28 *332:30 7.41334e-05
47 *321:14 *332:30 0.000255292
48 *327:10 *332:30 2.05503e-05
49 *329:10 *332:30 8.65606e-05
*RES
1 *892:X *332:12 44.5043 
2 *332:12 *332:20 13.8949 
3 *332:20 *332:30 49.0896 
4 *332:30 *864:A 43.6314 
5 *332:30 *865:A 24.0979 
6 *332:20 *863:A 48.1705 
7 *332:12 *862:A 40.7861 
*END

*D_NET *333 0.00742846
*CONN
*I *899:A I *D sky130_fd_sc_hd__buf_2
*I *656:B I *D sky130_fd_sc_hd__nand2_1
*I *812:B I *D sky130_fd_sc_hd__or2_1
*I *822:Q O *D sky130_fd_sc_hd__dfrtp_1
*CAP
1 *899:A 0
2 *656:B 1.80182e-05
3 *812:B 0
4 *822:Q 4.44197e-05
5 *333:58 0.00202179
6 *333:31 0.00264014
7 *333:12 0.00012331
8 *333:6 0.000768065
9 *656:B *910:A 5.50106e-05
10 *656:B *359:8 2.93845e-05
11 *333:31 *910:A 6.7177e-06
12 *333:31 *371:66 5.65462e-05
13 *333:58 *746:B 6.97359e-05
14 *333:58 *910:A 3.35885e-06
15 *333:58 *370:116 0.00017616
16 *822:D *333:31 8.75535e-05
17 *822:RESET_B *333:6 5.70419e-05
18 *822:RESET_B *333:31 2.09871e-05
19 *23:10 *333:58 9.21347e-06
20 *59:11 *333:58 4.68149e-05
21 *141:10 *333:31 8.72216e-05
22 *301:28 *333:12 0
23 *306:6 *333:31 4.17736e-05
24 *306:18 *333:12 8.76088e-05
25 *306:18 *333:31 0.000778609
26 *306:29 *333:31 0.000187986
27 *320:39 *333:31 3.41998e-06
28 *320:39 *333:58 7.57281e-06
*RES
1 *822:Q *333:6 24.0979 
2 *333:6 *333:12 32.9621 
3 *333:12 *812:B 23 
4 *333:6 *333:31 32.255 
5 *333:31 *656:B 38.6214 
6 *333:31 *333:58 38.4846 
7 *333:58 *899:A 38 
*END

*D_NET *334 0.00410039
*CONN
*I *639:B I *D sky130_fd_sc_hd__or2_1
*I *638:B I *D sky130_fd_sc_hd__nand2_1
*I *900:A I *D sky130_fd_sc_hd__buf_2
*I *832:Q O *D sky130_fd_sc_hd__dfrtp_1
*CAP
1 *639:B 3.61046e-05
2 *638:B 0
3 *900:A 0.000176328
4 *832:Q 0.000191906
5 *334:25 0.000850506
6 *334:10 0.00102683
7 *334:8 0.000228011
8 *334:25 *339:10 3.55378e-05
9 *334:25 *368:56 0
10 *334:25 *368:114 0
11 *638:A *334:25 2.54046e-05
12 *646:A2 *639:B 1.94812e-05
13 *646:A2 *334:8 5.61255e-06
14 *39:19 *900:A 7.53721e-05
15 *39:19 *334:25 0.000135557
16 *67:11 *900:A 5.67058e-05
17 *81:10 *334:25 0
18 *123:10 *900:A 0
19 *126:12 *900:A 2.8241e-05
20 *126:31 *334:8 2.18286e-05
21 *127:10 *334:25 8.4047e-05
22 *127:42 *334:25 0.000226107
23 *129:12 *334:25 0.000141879
24 *133:10 *334:25 0
25 *258:10 *900:A 0.000193107
26 *258:10 *334:25 0.000174142
27 *317:12 *334:8 9.41704e-05
28 *317:12 *334:25 0.000192238
29 *328:29 *900:A 0
30 *331:18 *334:25 8.12743e-05
*RES
1 *832:Q *334:8 25.5479 
2 *334:8 *334:10 15 
3 *334:10 *900:A 42.2879 
4 *334:10 *334:25 31.6957 
5 *334:25 *638:B 23 
6 *334:8 *639:B 23.6214 
*END

*D_NET *335 0.00598108
*CONN
*I *901:A I *D sky130_fd_sc_hd__buf_2
*I *635:B I *D sky130_fd_sc_hd__nor2_1
*I *634:B I *D sky130_fd_sc_hd__nand2_1
*I *636:B I *D sky130_fd_sc_hd__or2_1
*I *833:Q O *D sky130_fd_sc_hd__dfrtp_1
*CAP
1 *901:A 0
2 *635:B 0
3 *634:B 0
4 *636:B 0.000165415
5 *833:Q 0
6 *335:59 0.000137275
7 *335:53 0.00137783
8 *335:35 0.000110815
9 *335:25 0.000328474
10 *335:6 0.000979981
11 *335:4 0.00183746
12 *335:59 *364:27 2.75733e-06
13 acc[6] *335:59 0
14 acc[8] *335:53 2.54046e-05
15 *634:A *335:35 6.8523e-05
16 *635:A *335:25 6.17437e-06
17 *636:A *636:B 4.37033e-05
18 *646:A1 *335:25 2.73248e-05
19 *833:CLK *636:B 4.39488e-05
20 *833:CLK *335:6 1.94812e-05
21 *833:CLK *335:25 0.000161121
22 *33:8 *335:6 1.41203e-05
23 *38:13 *335:25 0.000241355
24 *38:13 *335:35 9.92569e-05
25 *66:9 *335:25 0
26 *121:8 *335:35 1.32314e-05
27 *124:21 *335:35 1.76557e-05
28 *280:14 *335:35 0.000165593
29 *328:29 *335:25 9.41704e-05
*RES
1 *833:Q *335:4 23 
2 *335:4 *335:6 7.76786 
3 *335:6 *636:B 25.5479 
4 *335:6 *335:25 35.2614 
5 *335:25 *335:35 33.3764 
6 *335:35 *634:B 23 
7 *335:25 *635:B 23 
8 *335:4 *335:53 46.1157 
9 *335:53 *335:59 31.9057 
10 *335:59 *901:A 23 
*END

*D_NET *336 0.00501233
*CONN
*I *699:A2 I *D sky130_fd_sc_hd__a31o_1
*I *695:B I *D sky130_fd_sc_hd__or2_1
*I *902:A I *D sky130_fd_sc_hd__buf_2
*I *694:B I *D sky130_fd_sc_hd__nand2_1
*I *834:Q O *D sky130_fd_sc_hd__dfrtp_1
*CAP
1 *699:A2 4.742e-05
2 *695:B 0
3 *902:A 0.000245751
4 *694:B 0
5 *834:Q 0.000759491
6 *336:30 0.000328991
7 *336:24 0.000493637
8 *336:14 0.00091314
9 *336:10 0.00121481
10 *902:A *598:A 0.000143655
11 *902:A *694:A 2.02517e-05
12 *902:A *368:132 4.75937e-05
13 *336:24 *694:A 4.1692e-05
14 *336:24 *695:A 5.02657e-05
15 *336:30 *694:A 3.14299e-05
16 *336:30 *368:132 6.87281e-05
17 *696:A *336:30 1.37232e-05
18 *697:A2 *336:10 6.61942e-05
19 *699:B1 *336:24 5.47927e-05
20 *774:A1 *336:24 5.27215e-06
21 *781:A *336:14 2.06822e-05
22 *168:6 *336:14 4.05745e-05
23 *181:6 *336:24 2.4754e-05
24 *181:6 *336:30 5.50106e-05
25 *183:40 *699:A2 0
26 *183:40 *336:14 2.91016e-05
27 *185:10 *336:24 3.04021e-05
28 *186:10 *336:14 7.04466e-06
29 *281:10 *336:10 3.54728e-05
30 *281:10 *336:14 5.3304e-05
31 *302:16 *336:24 8.41115e-05
32 *302:94 *336:10 8.50366e-05
*RES
1 *834:Q *336:10 47.9221 
2 *336:10 *336:14 20.3857 
3 *336:14 *336:24 36.8357 
4 *336:24 *336:30 2.56857 
5 *336:30 *694:B 23 
6 *336:30 *902:A 28.9036 
7 *336:24 *695:B 23 
8 *336:14 *699:A2 23.8493 
*END

*D_NET *337 0.00258621
*CONN
*I *682:B I *D sky130_fd_sc_hd__nand2_1
*I *683:B I *D sky130_fd_sc_hd__or2_1
*I *903:A I *D sky130_fd_sc_hd__buf_2
*I *835:Q O *D sky130_fd_sc_hd__dfrtp_1
*CAP
1 *682:B 0
2 *683:B 6.80678e-05
3 *903:A 0.000170961
4 *835:Q 0
5 *337:36 0.000686694
6 *337:8 0.000326745
7 *337:4 0.000774411
8 *337:36 *368:132 2.26385e-05
9 *835:RESET_B *337:36 2.86109e-05
10 *7:10 *903:A 3.22879e-05
11 *8:10 *903:A 3.53115e-05
12 *35:9 *903:A 0.000195974
13 *35:9 *337:8 0.00016046
14 *253:8 *903:A 0
15 *282:10 *337:36 8.4047e-05
*RES
1 *835:Q *337:4 23 
2 *337:4 *337:8 17.2579 
3 *337:8 *903:A 42.1843 
4 *337:8 *683:B 39.0979 
5 *337:4 *337:36 39.5493 
6 *337:36 *682:B 23 
*END

*D_NET *338 0.00420699
*CONN
*I *686:B I *D sky130_fd_sc_hd__nand2_1
*I *904:A I *D sky130_fd_sc_hd__buf_2
*I *685:B I *D sky130_fd_sc_hd__or2_1
*I *836:Q O *D sky130_fd_sc_hd__dfrtp_1
*CAP
1 *686:B 0.000188593
2 *904:A 0.000423959
3 *685:B 5.80194e-05
4 *836:Q 5.34711e-05
5 *338:19 0.000918807
6 *338:6 0.000417746
7 *686:B *685:A 0.000108913
8 *686:B *686:A 0.000276682
9 *338:19 *685:A 0.000594939
10 *687:A *685:B 0
11 *693:A *686:B 0.000149194
12 *693:A *904:A 5.3304e-05
13 *693:A *338:19 3.18198e-05
14 *787:A *904:A 0.000133974
15 *787:A *338:19 0.000210265
16 *836:RESET_B *338:6 2.45549e-06
17 *171:22 *686:B 0.000207219
18 *173:10 *338:19 2.14833e-05
19 *178:12 *338:19 2.45549e-06
20 *178:14 *338:19 0.000319469
21 *284:10 *904:A 1.94693e-05
22 *302:16 *686:B 1.47563e-05
*RES
1 *836:Q *338:6 23.6214 
2 *338:6 *685:B 24.2014 
3 *338:6 *338:19 23.8657 
4 *338:19 *904:A 45.4571 
5 *338:19 *686:B 43.4271 
*END

*D_NET *339 0.00711075
*CONN
*I *699:A1 I *D sky130_fd_sc_hd__a31o_1
*I *694:A I *D sky130_fd_sc_hd__nand2_1
*I *695:A I *D sky130_fd_sc_hd__or2_1
*I *893:X O *D sky130_fd_sc_hd__buf_1
*CAP
1 *699:A1 0.000102754
2 *694:A 0.000140026
3 *695:A 1.8939e-05
4 *893:X 0.000444458
5 *339:26 0.000440825
6 *339:22 0.00217273
7 *339:10 0.00223258
8 *339:10 *368:56 0.000105604
9 *699:A3 *699:A1 0.00018001
10 *795:A *339:10 6.17437e-06
11 *902:A *694:A 2.02517e-05
12 *37:21 *339:22 0.000710747
13 *39:19 *339:10 0.000104055
14 *40:11 *339:22 6.52177e-06
15 *44:11 *339:26 0
16 *127:10 *339:10 8.4047e-05
17 *127:42 *339:10 4.45778e-05
18 *133:10 *339:10 0
19 *169:21 *339:22 0
20 *169:21 *339:26 0
21 *181:6 *694:A 1.32939e-05
22 *185:10 *694:A 8.21456e-06
23 *185:10 *695:A 2.36804e-05
24 *185:10 *699:A1 0
25 *332:20 *339:22 9.23363e-05
26 *334:25 *339:10 3.55378e-05
27 *336:24 *694:A 4.1692e-05
28 *336:24 *695:A 5.02657e-05
29 *336:30 *694:A 3.14299e-05
*RES
1 *893:X *339:10 44.4939 
2 *339:10 *339:22 27.8789 
3 *339:22 *339:26 8.5712 
4 *339:26 *695:A 38.6732 
5 *339:26 *694:A 40.7446 
6 *339:22 *699:A1 48.4339 
*END

*D_NET *340 0.00445527
*CONN
*I *688:B I *D sky130_fd_sc_hd__nand2_1
*I *689:B I *D sky130_fd_sc_hd__nor2_1
*I *690:B I *D sky130_fd_sc_hd__or2_1
*I *905:A I *D sky130_fd_sc_hd__buf_2
*I *837:Q O *D sky130_fd_sc_hd__dfrtp_1
*CAP
1 *688:B 0
2 *689:B 0
3 *690:B 0
4 *905:A 0.000278514
5 *837:Q 8.81957e-05
6 *340:69 0.000257843
7 *340:50 0.000730448
8 *340:33 0.000555696
9 *340:8 0.0004498
10 *340:33 *372:6 1.59094e-05
11 *340:50 *591:A 4.344e-05
12 *340:50 *368:37 0
13 *340:50 *372:6 3.42479e-05
14 *340:50 *372:27 0.000176862
15 *340:50 *372:39 1.05441e-05
16 *340:69 *372:39 7.06451e-05
17 *691:A *905:A 0.000263801
18 *691:A *340:33 0.000100778
19 *698:A1 *340:50 1.65202e-05
20 *837:RESET_B *340:8 9.41704e-05
21 *40:11 *340:69 0.000280242
22 *41:21 *340:50 0
23 *42:13 *905:A 0
24 *79:10 *340:50 1.3523e-05
25 *169:21 *340:69 0.000286221
26 *174:20 *340:33 5.3304e-05
27 *174:20 *340:50 8.53029e-05
28 *175:8 *340:69 0.000117093
29 *177:18 *905:A 0
30 *177:18 *340:50 5.56279e-05
31 *178:12 *905:A 5.79559e-05
32 *279:16 *905:A 6.95992e-05
33 *279:16 *340:33 0.000108681
34 *279:16 *340:50 1.10891e-05
35 *302:30 *340:69 3.70187e-05
36 *302:34 *340:69 9.21981e-05
*RES
1 *837:Q *340:8 39.0979 
2 *340:8 *905:A 44.1729 
3 *340:8 *340:33 17.175 
4 *340:33 *690:B 23 
5 *340:33 *340:50 23.5343 
6 *340:50 *689:B 38 
7 *340:50 *340:69 34.3262 
8 *340:69 *688:B 23 
*END

*D_NET *341 0.00707159
*CONN
*I *708:B I *D sky130_fd_sc_hd__nand2_1
*I *709:B I *D sky130_fd_sc_hd__or2_1
*I *714:A2 I *D sky130_fd_sc_hd__a31o_1
*I *906:A I *D sky130_fd_sc_hd__buf_2
*I *838:Q O *D sky130_fd_sc_hd__dfrtp_1
*CAP
1 *708:B 0.000201117
2 *709:B 0.000131474
3 *714:A2 0
4 *906:A 0
5 *838:Q 0.00125664
6 *341:36 0.000332592
7 *341:24 0.00033278
8 *341:14 0.000633569
9 *341:6 0.00155742
10 *708:B *708:A 5.67058e-05
11 *341:14 *714:A1 1.14154e-05
12 *341:14 *373:8 2.18409e-05
13 *341:14 *373:19 8.11513e-05
14 *341:24 *701:A 2.24608e-05
15 *341:24 *713:A 0.000140891
16 *341:24 *343:14 0.000139352
17 *341:24 *373:8 0.000139352
18 *703:A *341:24 0
19 *704:B *341:24 1.22803e-05
20 *711:B1 *709:B 0.000137651
21 *714:B1 *341:14 5.50106e-05
22 *774:A1 *709:B 8.28736e-05
23 *775:C *709:B 6.743e-05
24 *777:B1 *341:6 7.15126e-05
25 *777:B1 *341:14 3.38644e-05
26 *838:D *341:6 9.80703e-06
27 *838:RESET_B *341:6 4.19048e-05
28 *35:17 *708:B 5.67058e-05
29 *43:19 *341:14 0
30 *187:14 *341:6 1.24825e-05
31 *189:8 *341:24 0.000141879
32 *189:12 *341:24 5.3304e-05
33 *189:18 *341:24 3.47781e-05
34 *190:10 *341:24 0.000105072
35 *195:8 *708:B 0.000125192
36 *195:14 *708:B 7.72835e-05
37 *195:14 *709:B 7.39034e-05
38 *197:6 *341:6 9.91701e-05
39 *201:10 *341:24 0.000115196
40 *248:29 *341:6 8.40718e-05
41 *249:10 *708:B 1.69668e-05
42 *250:10 *708:B 0.000138727
43 *286:10 *708:B 0.000105844
44 *286:10 *709:B 0.00016216
45 *302:94 *341:6 9.77551e-05
*RES
1 *838:Q *341:6 39.82 
2 *341:6 *341:14 5.44786 
3 *341:14 *341:24 38.9279 
4 *341:24 *906:A 23 
5 *341:14 *714:A2 23 
6 *341:6 *341:36 15 
7 *341:36 *709:B 41.8321 
8 *341:36 *708:B 43.6757 
*END

*D_NET *342 0.00333067
*CONN
*I *777:A2 I *D sky130_fd_sc_hd__a21o_1
*I *713:B I *D sky130_fd_sc_hd__and3_1
*I *701:B I *D sky130_fd_sc_hd__xnor2_1
*I *907:A I *D sky130_fd_sc_hd__buf_2
*I *839:Q O *D sky130_fd_sc_hd__dfrtp_1
*CAP
1 *777:A2 8.74458e-05
2 *713:B 0.000212671
3 *701:B 0
4 *907:A 0.000224114
5 *839:Q 0
6 *342:36 0.000604828
7 *342:23 0.000473921
8 *342:6 0.000393323
9 *713:B *701:A 0
10 *713:B *374:10 1.22803e-05
11 *713:B *374:20 2.15048e-05
12 *342:23 *701:A 5.67058e-05
13 *342:36 *701:A 0.000184901
14 acc[17] *907:A 1.94812e-05
15 *35:9 *907:A 0.000307722
16 *35:9 *342:23 0.000158916
17 *35:17 *713:B 1.39317e-05
18 *86:8 *907:A 0
19 *188:8 *342:36 1.22822e-05
20 *188:15 *342:36 5.70419e-05
21 *193:19 *777:A2 4.99867e-05
22 *193:19 *342:36 0
23 *194:14 *713:B 5.11935e-06
24 *194:14 *342:36 0.000117127
25 *200:8 *713:B 0.000240416
26 *200:8 *777:A2 1.01436e-05
27 *201:10 *713:B 6.68107e-05
*RES
1 *839:Q *342:6 38 
2 *342:6 *907:A 43.5929 
3 *342:6 *342:23 18.8321 
4 *342:23 *701:B 23 
5 *342:23 *342:36 21.5354 
6 *342:36 *713:B 42.8161 
7 *342:36 *777:A2 39.7711 
*END

*D_NET *343 0.00822544
*CONN
*I *908:A I *D sky130_fd_sc_hd__buf_2
*I *712:C1 I *D sky130_fd_sc_hd__o211a_1
*I *702:B I *D sky130_fd_sc_hd__or2_1
*I *703:B I *D sky130_fd_sc_hd__nand2_1
*I *840:Q O *D sky130_fd_sc_hd__dfrtp_1
*CAP
1 *908:A 0
2 *712:C1 0.000315766
3 *702:B 3.27104e-05
4 *703:B 6.6261e-05
5 *840:Q 0.000224716
6 *343:55 0.000586171
7 *343:40 0.00118997
8 *343:14 0.000649876
9 *343:6 0.00106365
10 *712:C1 *344:18 4.76941e-05
11 *343:40 *344:10 0.000352556
12 *343:40 *344:14 2.02872e-05
13 *343:40 *344:18 6.17437e-06
14 *343:40 *346:21 6.17437e-06
15 *343:40 *370:47 7.75329e-06
16 *343:55 *912:A 0
17 *343:55 *344:10 6.25829e-05
18 *343:55 *344:47 0.00122972
19 *343:55 *348:12 0
20 *343:55 *370:62 0.000562276
21 acc[16] *343:14 4.9808e-05
22 *703:A *703:B 8.16356e-05
23 *703:A *343:14 4.6318e-06
24 *705:A *712:C1 0.000216471
25 *706:B *343:40 0.000136486
26 *712:A1 *712:C1 5.50049e-05
27 *778:A *343:6 2.64616e-05
28 *779:A1 *343:14 2.64616e-05
29 *779:A2 *343:14 0.00010655
30 *35:9 *703:B 0.000168754
31 *35:9 *343:14 2.55642e-05
32 *35:17 *702:B 5.50106e-05
33 *189:12 *343:14 2.02872e-05
34 *192:8 *343:40 0.000366117
35 *201:10 *343:40 0
36 *209:42 *343:55 0
37 *250:14 *343:6 4.02485e-05
38 *250:14 *343:14 7.53384e-06
39 *251:8 *343:40 8.06039e-05
40 *287:8 *343:6 2.30292e-05
41 *291:8 *343:55 5.26101e-05
42 *307:8 *343:14 0.000118484
43 *341:24 *343:14 0.000139352
*RES
1 *840:Q *343:6 26.0036 
2 *343:6 *343:14 25.8543 
3 *343:14 *703:B 40.2579 
4 *343:14 *702:B 38.6214 
5 *343:6 *343:40 38.2857 
6 *343:40 *712:C1 28.8829 
7 *343:40 *343:55 47.4 
8 *343:55 *908:A 23 
*END

*D_NET *344 0.00661358
*CONN
*I *909:A I *D sky130_fd_sc_hd__buf_2
*I *705:B I *D sky130_fd_sc_hd__xnor2_1
*I *712:A2 I *D sky130_fd_sc_hd__o211a_1
*I *715:A2 I *D sky130_fd_sc_hd__a211oi_1
*I *841:Q O *D sky130_fd_sc_hd__dfrtp_1
*CAP
1 *909:A 0
2 *705:B 0
3 *712:A2 0
4 *715:A2 0
5 *841:Q 0.000175063
6 *344:47 0.000645631
7 *344:26 0.0001117
8 *344:18 0.000298132
9 *344:14 0.000225142
10 *344:10 0.00088793
11 *344:8 0.000378651
12 *344:8 *370:31 0.00010655
13 *344:8 *370:47 0.000128401
14 *344:10 *346:21 1.01436e-05
15 *344:10 *370:47 0
16 *344:47 *721:B 0.00014196
17 *344:47 *729:B 5.15096e-05
18 *344:47 *346:21 0.000167452
19 *705:A *344:18 0.000228909
20 *712:A1 *344:18 5.50049e-05
21 *712:B1 *344:26 0.000140958
22 *712:C1 *344:18 4.76941e-05
23 *722:A *344:47 0
24 *780:A *344:8 4.9662e-05
25 *13:12 *344:47 5.50106e-05
26 *91:8 *344:47 0.000271392
27 *191:10 *344:8 1.21972e-05
28 *199:8 *344:10 0
29 *201:10 *344:10 0
30 *208:10 *344:47 0
31 *209:16 *344:47 0
32 *244:8 *344:47 0
33 *245:8 *344:47 5.15908e-05
34 *288:6 *344:8 0.000571494
35 *290:10 *344:47 0
36 *307:8 *344:26 3.92407e-05
37 *308:10 *344:10 0
38 *308:21 *344:10 0
39 *308:21 *344:26 8.16459e-05
40 *310:20 *344:10 9.20311e-06
41 *343:40 *344:10 0.000352556
42 *343:40 *344:14 2.02872e-05
43 *343:40 *344:18 6.17437e-06
44 *343:55 *344:10 6.25829e-05
45 *343:55 *344:47 0.00122972
*RES
1 *841:Q *344:8 44.815 
2 *344:8 *344:10 5.42714 
3 *344:10 *344:14 15.6214 
4 *344:14 *344:18 4.45357 
5 *344:18 *344:26 32.8793 
6 *344:26 *715:A2 23 
7 *344:18 *712:A2 23 
8 *344:14 *705:B 23 
9 *344:10 *344:47 33.27 
10 *344:47 *909:A 23 
*END

*D_NET *345 0.00402917
*CONN
*I *910:A I *D sky130_fd_sc_hd__buf_2
*I *654:B I *D sky130_fd_sc_hd__nor2_1
*I *652:B I *D sky130_fd_sc_hd__nand2_1
*I *823:Q O *D sky130_fd_sc_hd__dfrtp_1
*CAP
1 *910:A 0.000473609
2 *654:B 0
3 *652:B 0.000177568
4 *823:Q 0.000432707
5 *345:23 0.000637
6 *345:8 0.000773666
7 *910:A *741:B 5.3304e-05
8 *910:A *359:8 5.55572e-05
9 *910:A *371:66 0
10 *652:A *652:B 0.000123418
11 *652:A *345:23 4.08641e-05
12 *654:A *910:A 6.07611e-06
13 *654:A *345:23 0.000130045
14 *656:B *910:A 5.50106e-05
15 *853:RESET_B *910:A 5.3304e-05
16 *100:10 *910:A 0.000161121
17 *137:12 *652:B 0.00010655
18 *139:10 *652:B 0.000322049
19 *139:10 *345:23 0.000155068
20 *143:10 *910:A 6.33511e-05
21 *143:18 *910:A 1.47563e-05
22 *143:18 *345:23 7.81176e-05
23 *144:8 *652:B 0
24 *306:29 *910:A 1.12487e-05
25 *319:16 *910:A 3.74442e-05
26 *319:16 *345:23 3.95159e-06
27 *320:39 *910:A 5.3304e-05
28 *333:31 *910:A 6.7177e-06
29 *333:58 *910:A 3.35885e-06
*RES
1 *823:Q *345:8 43.3857 
2 *345:8 *652:B 43.8621 
3 *345:8 *345:23 4.72286 
4 *345:23 *654:B 38 
5 *345:23 *910:A 46.5964 
*END

*D_NET *346 0.00481796
*CONN
*I *729:B I *D sky130_fd_sc_hd__or2_1
*I *911:A I *D sky130_fd_sc_hd__buf_2
*I *728:B I *D sky130_fd_sc_hd__nand2_1
*I *842:Q O *D sky130_fd_sc_hd__dfrtp_1
*CAP
1 *729:B 2.68116e-05
2 *911:A 0.000293108
3 *728:B 0
4 *842:Q 0.00107915
5 *346:21 0.000573825
6 *346:8 0.00133305
7 *911:A *602:A 2.4754e-05
8 *911:A *370:47 0.000156989
9 *842:CLK *346:8 6.34941e-05
10 *846:CLK *346:8 0.000128466
11 *48:15 *911:A 5.51187e-05
12 *198:26 *346:8 0.000311598
13 *198:26 *346:21 0
14 *215:6 *346:8 3.58084e-06
15 *215:6 *346:21 3.22879e-05
16 *216:16 *346:8 6.51763e-05
17 *304:28 *346:8 0.000103233
18 *310:12 *911:A 0.000123878
19 *310:20 *729:B 2.96154e-05
20 *310:20 *346:21 0.000178544
21 *343:40 *346:21 6.17437e-06
22 *344:10 *346:21 1.01436e-05
23 *344:47 *729:B 5.15096e-05
24 *344:47 *346:21 0.000167452
*RES
1 *842:Q *346:8 38.7636 
2 *346:8 *728:B 23 
3 *346:8 *346:21 20.7586 
4 *346:21 *911:A 45.0429 
5 *346:21 *729:B 38.8493 
*END

*D_NET *347 0.0018722
*CONN
*I *912:A I *D sky130_fd_sc_hd__buf_2
*I *718:B I *D sky130_fd_sc_hd__or2_1
*I *717:B I *D sky130_fd_sc_hd__nand2_1
*I *843:Q O *D sky130_fd_sc_hd__dfrtp_1
*CAP
1 *912:A 0.000355303
2 *718:B 0
3 *717:B 0.0001137
4 *843:Q 0.000273193
5 *347:12 0.0001137
6 *347:10 0.000628496
7 *912:A *348:12 0
8 *912:A *370:62 0
9 *347:10 *370:62 0
10 *717:A *717:B 4.66969e-05
11 *16:8 *912:A 0.000169201
12 *17:10 *912:A 0
13 *49:17 *912:A 0
14 *49:17 *347:10 0
15 *209:42 *912:A 0.000171906
16 *291:8 *912:A 0
17 *311:8 *912:A 0
18 *343:55 *912:A 0
*RES
1 *843:Q *347:10 41.8321 
2 *347:10 *347:12 15 
3 *347:12 *717:B 25.5686 
4 *347:12 *718:B 23 
5 *347:10 *912:A 46.2443 
*END

*D_NET *348 0.00289025
*CONN
*I *720:B I *D sky130_fd_sc_hd__or2_1
*I *913:A I *D sky130_fd_sc_hd__buf_2
*I *721:B I *D sky130_fd_sc_hd__nand2_1
*I *844:Q O *D sky130_fd_sc_hd__dfrtp_1
*CAP
1 *720:B 0.000501548
2 *913:A 0
3 *721:B 0.000270587
4 *844:Q 0.000288495
5 *348:12 0.000401814
6 *348:6 0.00092127
7 *721:A *721:B 5.90675e-06
8 *722:B *721:B 5.90675e-06
9 *844:CLK *720:B 1.94693e-05
10 *844:D *720:B 0.000100457
11 *844:RESET_B *720:B 8.79516e-05
12 *912:A *348:12 0
13 *13:12 *721:B 0.000114846
14 *209:42 *720:B 1.44715e-05
15 *209:42 *348:6 1.55671e-05
16 *343:55 *348:12 0
17 *344:47 *721:B 0.00014196
*RES
1 *844:Q *348:6 26.48 
2 *348:6 *348:12 31.9057 
3 *348:12 *721:B 28.4271 
4 *348:12 *913:A 23 
5 *348:6 *720:B 30.1879 
*END

*D_NET *349 0.00115211
*CONN
*I *723:B I *D sky130_fd_sc_hd__nand2_1
*I *914:A I *D sky130_fd_sc_hd__buf_2
*I *724:B I *D sky130_fd_sc_hd__or2_1
*I *845:Q O *D sky130_fd_sc_hd__dfrtp_1
*CAP
1 *723:B 8.92396e-05
2 *914:A 0
3 *724:B 7.06041e-05
4 *845:Q 5.90341e-05
5 *349:21 0.000281164
6 *349:8 0.000321563
7 *724:B *370:91 5.33546e-05
8 *349:21 *370:91 1.83667e-05
9 *51:21 *723:B 4.79883e-06
10 *51:21 *349:21 0
11 *210:27 *349:8 8.91468e-07
12 *210:27 *349:21 0.000138727
13 *241:10 *349:21 0
14 *304:112 *349:21 0
15 *313:12 *724:B 8.0614e-05
16 *313:12 *349:21 3.37492e-05
17 *315:8 *349:21 0
*RES
1 *845:Q *349:8 38.6214 
2 *349:8 *724:B 40.2579 
3 *349:8 *349:21 4.28786 
4 *349:21 *914:A 38 
5 *349:21 *723:B 39.5743 
*END

*D_NET *350 0.00340013
*CONN
*I *682:A I *D sky130_fd_sc_hd__nand2_1
*I *683:A I *D sky130_fd_sc_hd__or2_1
*I *894:X O *D sky130_fd_sc_hd__clkbuf_1
*CAP
1 *682:A 2.34823e-05
2 *683:A 0.000247746
3 *894:X 0.000493494
4 *350:12 0.000764722
5 *350:12 *361:8 0.000105269
6 *350:12 *372:39 0.000100069
7 *783:A *350:12 9.41704e-05
8 *784:A1 *683:A 0.00010018
9 *784:A2 *683:A 0.000173278
10 *784:A2 *350:12 8.69849e-05
11 *784:B1_N *683:A 0.000141954
12 *859:A *350:12 7.80378e-05
13 *41:21 *350:12 0.000491872
14 *170:6 *683:A 2.65879e-05
15 *170:33 *350:12 0.000472281
*RES
1 *894:X *350:12 37.0236 
2 *350:12 *683:A 29.3386 
3 *350:12 *682:A 23.4971 
*END

*D_NET *351 0.00458169
*CONN
*I *915:A I *D sky130_fd_sc_hd__buf_2
*I *632:B I *D sky130_fd_sc_hd__or2_1
*I *631:B I *D sky130_fd_sc_hd__nand2_1
*I *846:Q O *D sky130_fd_sc_hd__dfrtp_1
*CAP
1 *915:A 1.49804e-05
2 *632:B 0
3 *631:B 6.5895e-05
4 *846:Q 0
5 *351:30 0.00112636
6 *351:12 0.000283884
7 *351:4 0.00132936
8 *915:A *353:34 5.50106e-05
9 *351:30 *371:27 0.00015795
10 *632:A *631:B 0.000143655
11 *747:A *351:30 8.75753e-05
12 *850:D *351:30 1.32939e-05
13 *59:11 *351:30 4.82477e-05
14 *60:17 *351:30 2.39882e-05
15 *102:14 *351:30 6.7177e-06
16 *103:33 *351:30 0.000414378
17 *117:8 *351:30 0.000228103
18 *118:10 *631:B 0.000128391
19 *118:10 *351:12 3.0647e-05
20 *225:10 *351:12 0
21 *227:41 *351:30 4.30894e-05
22 *228:34 *351:30 2.11157e-05
23 *301:49 *351:30 0
24 *316:20 *351:30 6.99494e-05
25 *316:33 *915:A 5.50106e-05
26 *316:33 *351:30 5.51118e-05
27 *322:33 *351:30 0.000106965
28 *323:12 *351:30 7.20144e-05
*RES
1 *846:Q *351:4 23 
2 *351:4 *351:12 33.3557 
3 *351:12 *631:B 25.5271 
4 *351:12 *632:B 23 
5 *351:4 *351:30 36.3771 
6 *351:30 *915:A 38.6214 
*END

*D_NET *352 0.00217229
*CONN
*I *916:A I *D sky130_fd_sc_hd__buf_2
*I *618:B I *D sky130_fd_sc_hd__or2_1
*I *617:B I *D sky130_fd_sc_hd__nand2_1
*I *847:Q O *D sky130_fd_sc_hd__dfrtp_1
*CAP
1 *916:A 0.000149686
2 *618:B 3.29995e-05
3 *617:B 0.000217289
4 *847:Q 0.000270517
5 *352:25 0.000279766
6 *352:10 0.000584887
7 *617:B *370:77 1.14154e-05
8 *916:A *370:97 1.14452e-05
9 acc[25] *916:A 0
10 *618:A *617:B 0.000230269
11 *625:A *618:B 7.46212e-05
12 *625:A *916:A 2.47015e-05
13 *760:A2 *618:B 4.6318e-06
14 *760:A2 *352:10 6.38895e-05
15 *760:A2 *352:25 2.12708e-05
16 *94:10 *352:10 0
17 *110:23 *916:A 0
18 *241:10 *617:B 9.75779e-05
19 *294:8 *352:10 4.06849e-05
20 *314:12 *916:A 4.117e-05
21 *314:16 *916:A 7.52846e-06
22 *315:8 *916:A 0
23 *315:8 *352:10 0
24 *315:12 *617:B 7.93848e-06
*RES
1 *847:Q *352:10 42.4846 
2 *352:10 *617:B 43.1268 
3 *352:10 *352:25 1.57429 
4 *352:25 *618:B 39.0254 
5 *352:25 *916:A 40.7861 
*END

*D_NET *353 0.00430807
*CONN
*I *917:A I *D sky130_fd_sc_hd__buf_2
*I *627:C1 I *D sky130_fd_sc_hd__o211a_1
*I *622:B I *D sky130_fd_sc_hd__or2_1
*I *621:B I *D sky130_fd_sc_hd__nand2_1
*I *848:Q O *D sky130_fd_sc_hd__dfrtp_1
*CAP
1 *917:A 0.000394184
2 *627:C1 0
3 *622:B 0
4 *621:B 0
5 *848:Q 0
6 *353:34 0.000721431
7 *353:21 0.000515866
8 *353:12 0.0001511
9 *353:4 0.000339719
10 *353:34 *354:12 6.58373e-05
11 *620:A *917:A 0.000171179
12 *628:B1 *917:A 0.000390679
13 *748:A_N *917:A 0.000138444
14 *750:A *917:A 0.000242019
15 *915:A *353:34 5.50106e-05
16 *21:8 *917:A 0.000353392
17 *96:10 *917:A 0.00022109
18 *107:10 *917:A 5.78073e-05
19 *109:14 *353:21 5.50106e-05
20 *115:10 *353:12 2.30292e-05
21 *232:35 *917:A 1.6558e-05
22 *232:50 *917:A 4.66047e-05
23 *296:10 *353:34 7.75329e-06
24 *305:89 *353:34 6.17437e-06
25 *316:20 *353:34 6.07611e-06
26 *316:33 *353:21 2.80394e-05
27 *316:33 *353:34 0.000194518
28 *316:43 *353:12 4.3407e-05
29 *316:43 *353:21 3.53115e-05
30 *318:10 *353:12 4.6318e-06
31 *322:33 *353:12 0
32 *322:33 *353:34 2.31992e-05
*RES
1 *848:Q *353:4 23 
2 *353:4 *353:12 33.0036 
3 *353:12 *621:B 23 
4 *353:4 *353:21 3.02429 
5 *353:21 *622:B 23 
6 *353:21 *353:34 36.2143 
7 *353:34 *627:C1 23 
8 *353:34 *917:A 35.7186 
*END

*D_NET *354 0.00392423
*CONN
*I *918:A I *D sky130_fd_sc_hd__buf_2
*I *620:B I *D sky130_fd_sc_hd__xnor2_1
*I *627:A2 I *D sky130_fd_sc_hd__o211a_1
*I *628:A2 I *D sky130_fd_sc_hd__a211o_1
*I *849:Q O *D sky130_fd_sc_hd__dfrtp_1
*CAP
1 *918:A 0.000227042
2 *620:B 0
3 *627:A2 2.54525e-05
4 *628:A2 0.000255571
5 *849:Q 0
6 *354:16 0.000409648
7 *354:12 0.000847409
8 *354:4 0.000945826
9 *918:A *746:B 0
10 *918:A *356:48 2.64616e-05
11 *620:A *627:A2 3.16671e-05
12 *620:A *628:A2 1.76557e-05
13 *620:A *354:16 0.000166215
14 *623:A *628:A2 0
15 *849:RESET_B *354:12 4.41875e-05
16 *115:10 *628:A2 1.24376e-05
17 *228:10 *918:A 9.5877e-05
18 *228:10 *354:12 9.67842e-05
19 *296:10 *354:12 0.000160182
20 *305:89 *354:12 2.81066e-05
21 *316:20 *354:12 0
22 *318:18 *627:A2 3.91386e-05
23 *318:18 *628:A2 0.000349791
24 *322:33 *918:A 1.89178e-05
25 *322:33 *354:12 6.00262e-05
26 *353:34 *354:12 6.58373e-05
*RES
1 *849:Q *354:4 23 
2 *354:4 *354:12 40.5021 
3 *354:12 *354:16 3.02429 
4 *354:16 *628:A2 28.2821 
5 *354:16 *627:A2 23.8493 
6 *354:12 *620:B 23 
7 *354:4 *918:A 26.3764 
*END

*D_NET *355 0.00595504
*CONN
*I *919:A I *D sky130_fd_sc_hd__buf_2
*I *615:B I *D sky130_fd_sc_hd__or2_1
*I *614:B I *D sky130_fd_sc_hd__nand2_1
*I *850:Q O *D sky130_fd_sc_hd__dfrtp_1
*CAP
1 *919:A 3.85622e-05
2 *615:B 0.000352998
3 *614:B 0
4 *850:Q 0.000373212
5 *355:42 0.000673979
6 *355:12 0.000352998
7 *355:10 0.00100863
8 *615:B *747:B 4.6595e-05
9 *355:10 *371:78 1.7992e-05
10 *355:42 *356:48 0.000183424
11 *614:A *615:B 5.50106e-05
12 *615:A *615:B 0.000830493
13 *748:A_N *919:A 9.67842e-05
14 *753:A1 *615:B 5.50049e-05
15 *755:A *355:10 1.76557e-05
16 *755:B *355:10 5.67058e-05
17 *876:A *355:42 6.69637e-06
18 *96:10 *919:A 0.000139982
19 *99:8 *355:42 0
20 *101:6 *615:B 0.000301719
21 *101:16 *615:B 0.000184527
22 *102:28 *615:B 0.000226306
23 *226:50 *355:42 8.62876e-05
24 *231:12 *919:A 4.3198e-05
25 *231:27 *355:42 0.000194013
26 *235:14 *355:10 1.14452e-05
27 *235:14 *355:42 0.000135547
28 *236:8 *355:42 0.000217743
29 *237:8 *355:10 4.08641e-05
30 *300:10 *355:10 5.26733e-06
31 *319:16 *355:10 5.01247e-05
32 *320:39 *355:10 0
33 *320:39 *355:42 0.000151278
*RES
1 *850:Q *355:10 43.7379 
2 *355:10 *355:12 15 
3 *355:12 *614:B 23 
4 *355:12 *615:B 35.7393 
5 *355:10 *355:42 43.1329 
6 *355:42 *919:A 39.5743 
*END

*D_NET *356 0.00491351
*CONN
*I *742:B I *D sky130_fd_sc_hd__nand2_1
*I *920:A I *D sky130_fd_sc_hd__buf_2
*I *741:B I *D sky130_fd_sc_hd__nor2_1
*I *851:Q O *D sky130_fd_sc_hd__dfrtp_1
*CAP
1 *742:B 0
2 *920:A 0
3 *741:B 0.000397006
4 *851:Q 0.000136949
5 *356:48 0.000575169
6 *356:31 0.000641752
7 *356:8 0.000600538
8 *741:B *359:8 2.93747e-05
9 *741:B *371:66 0.000135159
10 *356:48 *370:116 0
11 *751:A2 *356:48 6.9805e-05
12 *752:A1 *356:48 0.000139352
13 *851:RESET_B *356:8 1.99768e-05
14 *876:A *356:48 0.000569397
15 *910:A *741:B 5.3304e-05
16 *918:A *356:48 2.64616e-05
17 *36:11 *741:B 0.000284639
18 *99:8 *741:B 0.000203594
19 *99:8 *356:31 7.69793e-05
20 *227:10 *741:B 0.00022393
21 *227:10 *356:31 0.000168129
22 *231:27 *356:48 5.50049e-05
23 *232:50 *356:48 5.3304e-05
24 *320:39 *741:B 1.99391e-05
25 *322:33 *356:48 2.64616e-05
26 *323:28 *741:B 0.000223864
27 *355:42 *356:48 0.000183424
*RES
1 *851:Q *356:8 39.5743 
2 *356:8 *741:B 49.455 
3 *356:8 *356:31 17.2579 
4 *356:31 *920:A 23 
5 *356:31 *356:48 42.9671 
6 *356:48 *742:B 23 
*END

*D_NET *357 0.0043526
*CONN
*I *921:A I *D sky130_fd_sc_hd__buf_2
*I *651:B I *D sky130_fd_sc_hd__nor2_1
*I *650:B I *D sky130_fd_sc_hd__and2_1
*I *824:Q O *D sky130_fd_sc_hd__dfrtp_1
*CAP
1 *921:A 0.000180979
2 *651:B 0
3 *650:B 1.28992e-05
4 *824:Q 8.57232e-05
5 *357:29 0.000788505
6 *357:10 0.000863892
7 *357:8 0.000329189
8 *357:29 *360:14 2.33476e-05
9 acc[3] *357:29 0.000212505
10 *652:A *921:A 0
11 *61:13 *921:A 5.50106e-05
12 *63:17 *357:29 3.77693e-05
13 *137:8 *921:A 0.000134585
14 *137:8 *357:10 4.334e-05
15 *150:64 *357:29 1.03597e-05
16 *152:16 *357:29 1.09886e-05
17 *155:30 *357:29 0.00106379
18 *321:31 *650:B 1.05658e-05
19 *321:31 *921:A 4.54033e-05
20 *321:31 *357:8 3.3577e-05
21 *321:31 *357:10 5.91772e-05
22 *324:8 *650:B 6.10551e-06
23 *324:8 *357:10 8.33951e-06
24 *324:35 *357:29 0.000336544
*RES
1 *824:Q *357:8 39.0979 
2 *357:8 *357:10 1.72964 
3 *357:10 *650:B 38.3211 
4 *357:10 *357:29 33.9531 
5 *357:29 *651:B 23 
6 *357:8 *921:A 42.64 
*END

*D_NET *358 0.00685553
*CONN
*I *922:A I *D sky130_fd_sc_hd__buf_2
*I *747:B I *D sky130_fd_sc_hd__nand2_1
*I *746:B I *D sky130_fd_sc_hd__nor2_1
*I *852:Q O *D sky130_fd_sc_hd__dfrtp_1
*CAP
1 *922:A 0
2 *747:B 0.000765932
3 *746:B 0.000377059
4 *852:Q 0
5 *358:31 0.00121184
6 *358:6 0.000822971
7 *746:B *370:116 2.12347e-06
8 *747:B *609:A 0.000177604
9 *747:B *371:78 0.000261136
10 acc[29] *358:31 1.05658e-05
11 acc[30] *358:31 0.000409058
12 *614:A *747:B 4.2573e-05
13 *615:A *747:B 0.000958903
14 *615:B *747:B 4.6595e-05
15 *738:A1 *747:B 3.20007e-05
16 *753:A1 *747:B 1.03955e-05
17 *753:A2 *747:B 7.23724e-05
18 *918:A *746:B 0
19 *23:10 *746:B 0.000111852
20 *26:8 *358:31 4.67488e-05
21 *56:11 *358:31 0.000122217
22 *60:17 *746:B 0.000125862
23 *60:17 *358:31 0.000103854
24 *97:10 *747:B 0.00048023
25 *98:8 *358:31 1.96584e-05
26 *102:14 *747:B 1.56762e-05
27 *117:24 *747:B 4.37033e-05
28 *227:10 *358:31 0.000108561
29 *227:27 *746:B 6.10781e-05
30 *227:27 *358:31 7.19989e-05
31 *232:8 *747:B 0.000212309
32 *232:50 *746:B 0
33 *305:8 *747:B 5.50049e-05
34 *322:33 *746:B 5.90675e-06
35 *333:58 *746:B 6.97359e-05
*RES
1 *852:Q *358:6 38 
2 *358:6 *746:B 45.7679 
3 *358:6 *358:31 26.4136 
4 *358:31 *747:B 45.1436 
5 *358:31 *922:A 23 
*END

*D_NET *359 0.0021314
*CONN
*I *754:B I *D sky130_fd_sc_hd__xnor2_1
*I *923:A I *D sky130_fd_sc_hd__buf_2
*I *853:Q O *D sky130_fd_sc_hd__dfrtp_1
*CAP
1 *754:B 0.000166849
2 *923:A 7.60353e-05
3 *853:Q 0.000223442
4 *359:8 0.000466326
5 *754:B *610:A 2.64616e-05
6 *656:B *359:8 2.93845e-05
7 *741:B *359:8 2.93747e-05
8 *853:RESET_B *359:8 2.64616e-05
9 *910:A *359:8 5.55572e-05
10 *36:11 *754:B 0.000259026
11 *36:11 *923:A 0.000194299
12 *56:11 *923:A 5.33546e-05
13 *143:10 *359:8 0.000135037
14 *227:8 *359:8 5.3304e-05
15 *227:10 *754:B 0.000272331
16 *227:10 *923:A 3.47781e-05
17 *320:39 *359:8 2.93747e-05
*RES
1 *853:Q *359:8 42.4329 
2 *359:8 *923:A 40.61 
3 *359:8 *754:B 42.2879 
*END

*D_NET *360 0.0048339
*CONN
*I *660:B I *D sky130_fd_sc_hd__xor2_1
*I *659:A2 I *D sky130_fd_sc_hd__a21o_1
*I *661:A2 I *D sky130_fd_sc_hd__o22ai_1
*I *924:A I *D sky130_fd_sc_hd__buf_2
*I *674:A2 I *D sky130_fd_sc_hd__o221ai_4
*I *825:Q O *D sky130_fd_sc_hd__dfrtp_4
*CAP
1 *660:B 0
2 *659:A2 0
3 *661:A2 0.00013939
4 *924:A 0
5 *674:A2 2.43873e-05
6 *825:Q 0.000147787
7 *360:45 0.000349726
8 *360:30 0.000585363
9 *360:20 0.000489354
10 *360:14 0.000226751
11 *360:10 0.000235823
12 *360:20 *817:A 0
13 *360:45 *367:46 4.15283e-06
14 *360:45 *368:103 0.000191602
15 acc[3] *360:45 1.05658e-05
16 *674:B1 *674:A2 0
17 *674:B1 *360:30 0.00021677
18 *674:C1 *360:30 6.17437e-06
19 *796:A *360:45 4.15389e-05
20 *796:B *360:45 5.41385e-05
21 *798:B *360:45 0.000222953
22 *73:10 *360:20 0.000136738
23 *73:10 *360:30 0.000111615
24 *137:39 *360:10 0
25 *137:39 *360:20 7.45324e-05
26 *138:16 *360:30 0.000300209
27 *145:26 *360:10 0
28 *146:6 *661:A2 4.67488e-05
29 *147:10 *360:10 0.000141879
30 *148:14 *360:30 9.24795e-06
31 *148:14 *360:45 3.16665e-05
32 *152:16 *360:14 1.11421e-05
33 *264:18 *360:30 0.000107218
34 *275:16 *360:10 6.38845e-05
35 *275:16 *360:14 0.000217448
36 *321:14 *360:10 0
37 *321:14 *360:14 0
38 *324:8 *360:45 4.11325e-05
39 *324:14 *360:45 0.000391641
40 *324:48 *661:A2 2.03764e-06
41 *324:48 *360:20 1.87545e-05
42 *324:56 *360:14 0.000138718
43 *324:56 *360:20 1.94693e-05
44 *332:30 *360:10 0
45 *357:29 *360:14 2.33476e-05
*RES
1 *825:Q *360:10 41.2314 
2 *360:10 *360:14 17.9621 
3 *360:14 *360:20 3.39714 
4 *360:20 *360:30 35.5307 
5 *360:30 *674:A2 23.4971 
6 *360:30 *360:45 38.8243 
7 *360:45 *924:A 23 
8 *360:20 *661:A2 24.5743 
9 *360:14 *659:A2 23 
10 *360:10 *660:B 38 
*END

*D_NET *361 0.00355929
*CONN
*I *686:A I *D sky130_fd_sc_hd__nand2_1
*I *685:A I *D sky130_fd_sc_hd__or2_1
*I *895:X O *D sky130_fd_sc_hd__clkbuf_1
*CAP
1 *686:A 0.000177858
2 *685:A 0.000396675
3 *895:X 0.000265268
4 *361:8 0.000839801
5 *686:B *685:A 0.000108913
6 *686:B *686:A 0.000276682
7 *859:A *361:8 0.000178235
8 *42:13 *685:A 0
9 *171:20 *686:A 5.50106e-05
10 *172:23 *685:A 0.000168281
11 *178:14 *685:A 4.32372e-05
12 *179:8 *685:A 7.69293e-05
13 *181:14 *686:A 7.53384e-06
14 *185:10 *685:A 3.58436e-05
15 *185:10 *686:A 6.54335e-05
16 *252:10 *686:A 0.000136486
17 *302:34 *685:A 2.68935e-05
18 *338:19 *685:A 0.000594939
19 *350:12 *361:8 0.000105269
*RES
1 *895:X *361:8 41.48 
2 *361:8 *685:A 48.7093 
3 *361:8 *686:A 42.64 
*END

*D_NET *362 0.00351539
*CONN
*I *670:B I *D sky130_fd_sc_hd__nand2_1
*I *671:B I *D sky130_fd_sc_hd__or2_1
*I *925:A I *D sky130_fd_sc_hd__buf_2
*I *826:Q O *D sky130_fd_sc_hd__dfrtp_1
*CAP
1 *670:B 0
2 *671:B 0
3 *925:A 0.00020456
4 *826:Q 0.000386878
5 *362:42 0.000239939
6 *362:27 0.000380721
7 *362:8 0.00073222
8 *925:A *928:A 5.21127e-05
9 *362:27 *667:B 9.5877e-05
10 *362:27 *928:A 0.000148309
11 *362:42 *667:B 0.000111933
12 *670:A *362:42 0
13 *800:C *925:A 1.94298e-05
14 *827:RESET_B *925:A 0.000108681
15 *827:RESET_B *362:27 0.000296937
16 *29:8 *925:A 1.59071e-05
17 *32:8 *362:42 1.5769e-05
18 *62:15 *925:A 0.000158455
19 *63:17 *362:42 7.90171e-05
20 *74:10 *362:27 5.3304e-05
21 *154:18 *925:A 0
22 *157:8 *362:42 3.56604e-05
23 *157:12 *362:42 0.000126914
24 *157:14 *362:27 1.56762e-05
25 *157:14 *362:42 5.50049e-05
26 *325:10 *925:A 0.000182087
*RES
1 *826:Q *362:8 41.9564 
2 *362:8 *925:A 43.5307 
3 *362:8 *362:27 20.1164 
4 *362:27 *671:B 23 
5 *362:27 *362:42 35.7586 
6 *362:42 *670:B 23 
*END

*D_NET *363 0.00358135
*CONN
*I *667:B I *D sky130_fd_sc_hd__nand2_1
*I *668:B I *D sky130_fd_sc_hd__or2_1
*I *926:A I *D sky130_fd_sc_hd__buf_2
*I *827:Q O *D sky130_fd_sc_hd__dfrtp_1
*CAP
1 *667:B 0.000356787
2 *668:B 0
3 *926:A 0.000251856
4 *827:Q 8.72395e-05
5 *363:21 0.000436349
6 *363:8 0.000418657
7 *926:A *364:43 0
8 acc[5] *926:A 5.81466e-05
9 acc[7] *667:B 4.28882e-05
10 acc[7] *926:A 0.000128361
11 acc[7] *363:21 5.97612e-05
12 *32:8 *667:B 0.000306338
13 *62:15 *667:B 0.000265378
14 *62:15 *363:21 6.48142e-05
15 *63:17 *667:B 6.7177e-06
16 *74:10 *667:B 0.000105913
17 *157:59 *363:8 4.9662e-05
18 *158:8 *667:B 0.00031776
19 *158:8 *926:A 8.79103e-05
20 *158:8 *363:21 0.000181013
21 *325:10 *667:B 1.34354e-05
22 *326:28 *667:B 0.000134553
23 *362:27 *667:B 9.5877e-05
24 *362:42 *667:B 0.000111933
*RES
1 *827:Q *363:8 39.0979 
2 *363:8 *926:A 43.7171 
3 *363:8 *363:21 2.61 
4 *363:21 *668:B 38 
5 *363:21 *667:B 49.4343 
*END

*D_NET *364 0.00673325
*CONN
*I *675:A2 I *D sky130_fd_sc_hd__a21oi_1
*I *805:A2 I *D sky130_fd_sc_hd__a21oi_1
*I *927:A I *D sky130_fd_sc_hd__buf_2
*I *662:B I *D sky130_fd_sc_hd__xnor2_1
*I *828:Q O *D sky130_fd_sc_hd__dfrtp_1
*CAP
1 *675:A2 0
2 *805:A2 0.000108299
3 *927:A 0
4 *662:B 0
5 *828:Q 0.000381819
6 *364:43 0.000443835
7 *364:35 0.000680307
8 *364:27 0.00115687
9 *364:14 0.000169402
10 *364:6 0.00157991
11 *364:43 *365:10 0
12 acc[5] *364:43 3.97374e-05
13 acc[6] *364:27 6.34709e-05
14 acc[6] *364:43 0
15 acc[7] *364:43 0
16 acc[8] *364:14 0
17 *662:A *364:14 0.000139357
18 *675:A1 *364:27 1.05441e-05
19 *827:RESET_B *364:43 0.000239402
20 *829:CLK *364:27 2.32101e-05
21 *829:D *364:27 0.000123934
22 *829:RESET_B *364:27 2.53954e-05
23 *926:A *364:43 0
24 *5:10 *364:35 9.03659e-05
25 *33:8 *364:14 9.47227e-05
26 *62:15 *364:43 5.3304e-05
27 *80:10 *364:14 0
28 *150:22 *364:27 7.48688e-05
29 *157:59 *364:43 0.000215773
30 *158:8 *364:43 0
31 *263:29 *805:A2 2.4754e-05
32 *263:29 *364:35 0.000280441
33 *265:12 *364:43 2.33476e-05
34 *303:37 *364:6 0.000235703
35 *303:37 *364:27 0.000166072
36 *325:10 *364:43 2.64616e-05
37 *327:10 *364:14 0.000132921
38 *329:18 *364:27 2.77798e-05
39 *330:10 *364:6 9.84851e-05
40 *335:59 *364:27 2.75733e-06
*RES
1 *828:Q *364:6 28.8621 
2 *364:6 *364:14 33.9564 
3 *364:14 *662:B 23 
4 *364:6 *364:27 44.79 
5 *364:27 *364:35 4.61929 
6 *364:35 *364:43 39.57 
7 *364:43 *927:A 23 
8 *364:35 *805:A2 25.0507 
9 *364:27 *675:A2 23 
*END

*D_NET *365 0.00479246
*CONN
*I *663:B I *D sky130_fd_sc_hd__and2_1
*I *928:A I *D sky130_fd_sc_hd__buf_2
*I *664:B I *D sky130_fd_sc_hd__nor2_1
*I *829:Q O *D sky130_fd_sc_hd__dfrtp_1
*CAP
1 *663:B 6.45423e-05
2 *928:A 0.000306628
3 *664:B 0
4 *829:Q 4.52272e-05
5 *365:26 0.00101355
6 *365:10 0.00151143
7 *365:6 0.000301017
8 *928:A *367:46 0.000113876
9 *365:26 *369:6 2.79662e-05
10 acc[6] *928:A 0
11 acc[6] *365:10 0
12 *664:A *365:26 3.52815e-05
13 *666:B *365:26 2.93845e-05
14 *666:C *365:26 7.46078e-05
15 *827:CLK *365:26 0.000141835
16 *827:RESET_B *928:A 3.82432e-05
17 *827:RESET_B *365:10 3.4932e-05
18 *863:A *365:26 9.41704e-05
19 *925:A *928:A 5.21127e-05
20 *31:10 *365:26 5.55713e-06
21 *149:12 *365:26 2.34089e-05
22 *150:6 *663:B 6.17437e-06
23 *150:6 *365:6 4.6595e-05
24 *150:22 *663:B 0
25 *150:22 *365:6 1.32314e-05
26 *150:35 *928:A 4.15283e-06
27 *150:35 *365:10 0.000117833
28 *153:10 *365:26 2.64616e-05
29 *154:48 *365:26 5.50106e-05
30 *155:14 *928:A 1.79662e-05
31 *159:8 *365:26 2.82835e-05
32 *159:10 *928:A 0
33 *264:8 *365:26 5.50049e-05
34 *273:8 *928:A 0.000218962
35 *327:8 *365:26 9.58714e-05
36 *329:18 *663:B 4.48401e-05
37 *362:27 *928:A 0.000148309
38 *364:43 *365:10 0
*RES
1 *829:Q *365:6 24.0979 
2 *365:6 *365:10 19.0186 
3 *365:10 *365:26 31.3643 
4 *365:26 *664:B 23 
5 *365:10 *928:A 45.8921 
6 *365:6 *663:B 24.595 
*END

*D_NET *366 0.00553747
*CONN
*I *647:B I *D sky130_fd_sc_hd__nand2_1
*I *648:B I *D sky130_fd_sc_hd__or2_1
*I *929:A I *D sky130_fd_sc_hd__buf_2
*I *830:Q O *D sky130_fd_sc_hd__dfrtp_1
*CAP
1 *647:B 0
2 *648:B 0.000104583
3 *929:A 3.32138e-05
4 *830:Q 0.000361433
5 *366:41 0.00014291
6 *366:28 0.00115293
7 *366:10 0.00151947
8 *366:10 *368:103 0.000186835
9 *366:10 *369:23 1.01436e-05
10 *366:10 *369:32 0.000181934
11 *366:10 *369:47 0.000377836
12 *366:28 *367:12 1.59094e-05
13 *366:28 *368:77 5.83471e-05
14 *366:28 *368:103 9.86551e-06
15 *366:28 *369:23 0.000139647
16 acc[11] *929:A 9.84794e-05
17 *647:A *648:B 5.50049e-05
18 *666:A *366:28 7.74839e-06
19 *666:B *366:28 2.24608e-05
20 *666:C *366:28 2.33476e-05
21 *863:A *366:28 4.36547e-05
22 *33:8 *929:A 3.3577e-05
23 *64:19 *366:28 2.49781e-05
24 *76:10 *366:28 8.40017e-05
25 *134:6 *648:B 8.06804e-06
26 *149:8 *366:28 0.000186845
27 *151:35 *366:28 0.000178227
28 *151:54 *366:28 5.33597e-05
29 *152:16 *366:28 0
30 *153:10 *366:28 0.000102317
31 *154:35 *366:28 6.29162e-05
32 *155:30 *366:10 3.7122e-06
33 *161:31 *366:10 4.51431e-05
34 *163:10 *366:28 0.000104815
35 *303:20 *648:B 5.50049e-05
36 *303:73 *366:10 3.55215e-05
37 *329:10 *366:28 1.32289e-05
*RES
1 *830:Q *366:10 46.5136 
2 *366:10 *366:28 48.9536 
3 *366:28 *929:A 39.0979 
4 *366:10 *366:41 15.6214 
5 *366:41 *648:B 25.0714 
6 *366:41 *647:B 23 
*END

*D_NET *367 0.00788754
*CONN
*I *930:A I *D sky130_fd_sc_hd__buf_2
*I *642:B I *D sky130_fd_sc_hd__or2_1
*I *641:B I *D sky130_fd_sc_hd__nand2_1
*I *831:Q O *D sky130_fd_sc_hd__dfrtp_1
*CAP
1 *930:A 0
2 *642:B 0
3 *641:B 4.89696e-05
4 *831:Q 3.96184e-05
5 *367:46 0.00163134
6 *367:22 0.000796654
7 *367:12 0.00241864
8 *367:22 *368:73 0.000235553
9 *367:46 *368:103 4.45839e-05
10 *642:A *641:B 0.000137651
11 *642:A *367:22 9.67842e-05
12 *643:A *641:B 5.3304e-05
13 *643:A *367:22 0.000125213
14 *666:B *367:46 6.19083e-05
15 *798:A *367:46 5.90675e-06
16 *800:C *367:46 9.80863e-05
17 *863:A *367:22 1.1502e-05
18 *863:A *367:46 5.52967e-05
19 *928:A *367:46 0.000113876
20 *34:12 *367:46 1.76059e-05
21 *128:15 *641:B 9.67842e-05
22 *129:12 *367:22 2.02872e-05
23 *133:10 *367:22 4.70953e-05
24 *150:35 *367:46 0.000383056
25 *151:12 *367:46 1.39288e-05
26 *152:16 *367:12 2.05503e-05
27 *154:35 *367:12 5.50049e-05
28 *159:10 *367:46 0
29 *259:12 *367:46 0.000169873
30 *273:8 *367:46 0.000339498
31 *303:22 *367:22 0
32 *324:14 *367:46 0.000221992
33 *326:10 *367:46 4.93247e-05
34 *332:20 *367:22 0.000434944
35 *332:30 *367:12 2.26497e-05
36 *360:45 *367:46 4.15283e-06
37 *366:28 *367:12 1.59094e-05
*RES
1 *831:Q *367:12 46.9425 
2 *367:12 *367:22 27.536 
3 *367:22 *641:B 24.5743 
4 *367:22 *642:B 23 
5 *367:12 *367:46 39.2366 
6 *367:46 *930:A 23 
*END

*D_NET *368 0.0169037
*CONN
*I *594:A I *D sky130_fd_sc_hd__inv_2
*I *598:A I *D sky130_fd_sc_hd__inv_2
*I *596:A I *D sky130_fd_sc_hd__inv_2
*I *597:A I *D sky130_fd_sc_hd__inv_2
*I *815:A I *D sky130_fd_sc_hd__inv_2
*I *590:A I *D sky130_fd_sc_hd__inv_2
*I *592:A I *D sky130_fd_sc_hd__inv_2
*I *593:A I *D sky130_fd_sc_hd__inv_2
*I *595:A I *D sky130_fd_sc_hd__inv_2
*I *591:A I *D sky130_fd_sc_hd__inv_2
*I *862:X O *D sky130_fd_sc_hd__buf_4
*CAP
1 *594:A 0
2 *598:A 5.58524e-05
3 *596:A 0
4 *597:A 0
5 *815:A 0
6 *590:A 0
7 *592:A 2.3577e-05
8 *593:A 0
9 *595:A 0
10 *591:A 6.22866e-05
11 *862:X 0
12 *368:132 0.000547766
13 *368:114 0.000746586
14 *368:103 0.00144846
15 *368:77 0.000248701
16 *368:73 0.00226951
17 *368:65 0.00135892
18 *368:56 0.000506057
19 *368:37 0.000702873
20 *368:31 0.000267737
21 *368:18 0.000892983
22 *368:6 0.0012681
23 *591:A *690:A 1.05819e-05
24 *591:A *372:27 9.88259e-05
25 *592:A *819:A 5.50106e-05
26 *368:18 *372:6 0.000142636
27 *368:18 *372:27 0.000229793
28 *368:77 *369:23 2.47276e-05
29 acc[9] *368:103 0.000178976
30 *640:A *368:18 7.11824e-06
31 *640:A *368:31 3.81016e-05
32 *640:A *368:37 4.17625e-05
33 *786:B1_N *368:18 9.87217e-05
34 *790:A *368:114 1.52259e-05
35 *790:B *368:114 0
36 *792:A2 *368:56 9.67842e-05
37 *792:A2 *368:65 5.3304e-05
38 *795:A *368:56 5.41385e-05
39 *795:B *368:56 9.5877e-05
40 *862:A *368:18 5.0894e-05
41 *862:A *368:132 7.73823e-06
42 *902:A *598:A 0.000143655
43 *902:A *368:132 4.75937e-05
44 *39:19 *368:37 0
45 *39:19 *368:56 2.02872e-05
46 *58:15 *368:103 0.000143203
47 *63:17 *368:103 0.00012636
48 *65:15 *368:77 0.000208634
49 *78:8 *368:77 0.000192169
50 *79:10 *591:A 1.34914e-05
51 *81:10 *368:114 6.32794e-05
52 *82:8 *368:132 0
53 *84:10 *591:A 3.7122e-06
54 *84:10 *368:31 1.3867e-05
55 *126:31 *368:37 6.85768e-05
56 *126:31 *368:56 5.3304e-05
57 *127:10 *368:56 0.000188709
58 *127:42 *368:56 0.000104912
59 *127:42 *368:65 4.2573e-05
60 *127:42 *368:114 0
61 *128:21 *368:56 0.000158727
62 *130:8 *368:73 3.87221e-06
63 *130:8 *368:114 1.74874e-06
64 *131:20 *368:73 7.04021e-05
65 *133:10 *368:56 0.000170598
66 *133:10 *368:73 2.24608e-05
67 *133:10 *368:114 0.000205648
68 *134:18 *368:114 3.46181e-05
69 *155:30 *368:103 0.000385462
70 *161:31 *368:73 0
71 *161:31 *368:103 0.000116386
72 *165:10 *368:114 0
73 *169:21 *368:132 2.05503e-05
74 *171:10 *368:114 6.16531e-05
75 *171:22 *368:132 2.34364e-05
76 *172:23 *368:18 0.000139754
77 *173:10 *368:18 6.6337e-05
78 *173:10 *368:132 0.000363473
79 *174:20 *368:18 1.59639e-05
80 *256:8 *368:114 0
81 *277:10 *368:114 0
82 *282:10 *368:132 7.03766e-05
83 *302:16 *368:132 0.000169665
84 *303:10 *368:103 6.16439e-05
85 *303:20 *368:77 4.45778e-05
86 *303:20 *368:103 0.000244103
87 *303:73 *368:103 0.000172915
88 *303:90 *368:114 0.000131019
89 *326:10 *368:103 2.06964e-05
90 *327:8 *592:A 2.64616e-05
91 *330:10 *368:77 0
92 *334:25 *368:56 0
93 *334:25 *368:114 0
94 *336:30 *368:132 6.87281e-05
95 *337:36 *368:132 2.26385e-05
96 *339:10 *368:56 0.000105604
97 *340:50 *591:A 4.344e-05
98 *340:50 *368:37 0
99 *360:45 *368:103 0.000191602
100 *366:10 *368:103 0.000186835
101 *366:28 *368:77 5.83471e-05
102 *366:28 *368:103 9.86551e-06
103 *367:22 *368:73 0.000235553
104 *367:46 *368:103 4.45839e-05
*RES
1 *862:X *368:6 38 
2 *368:6 *368:18 27.9464 
3 *368:18 *591:A 25.0714 
4 *368:18 *368:31 1.595 
5 *368:31 *368:37 3.99786 
6 *368:37 *595:A 23 
7 *368:37 *368:56 41.6 
8 *368:56 *593:A 23 
9 *368:56 *368:65 15.6214 
10 *368:65 *368:73 17.9227 
11 *368:73 *368:77 20.6032 
12 *368:77 *592:A 23.6214 
13 *368:77 *590:A 23 
14 *368:73 *368:103 44.8194 
15 *368:103 *815:A 23 
16 *368:65 *368:114 30.2043 
17 *368:114 *597:A 23 
18 *368:31 *596:A 23 
19 *368:6 *368:132 25.7921 
20 *368:132 *598:A 24.5743 
21 *368:132 *594:A 23 
*END

*D_NET *369 0.00664596
*CONN
*I *816:A I *D sky130_fd_sc_hd__inv_2
*I *821:A I *D sky130_fd_sc_hd__inv_2
*I *817:A I *D sky130_fd_sc_hd__inv_2
*I *818:A I *D sky130_fd_sc_hd__inv_2
*I *820:A I *D sky130_fd_sc_hd__inv_2
*I *819:A I *D sky130_fd_sc_hd__inv_2
*I *863:X O *D sky130_fd_sc_hd__buf_2
*CAP
1 *816:A 0
2 *821:A 0.000245284
3 *817:A 0.000149084
4 *818:A 0.000227372
5 *820:A 0
6 *819:A 0.000269369
7 *863:X 0.000170554
8 *369:66 0.000464316
9 *369:47 0.000566389
10 *369:32 0.000500576
11 *369:23 0.000363719
12 *369:6 0.000728712
13 *592:A *819:A 5.50106e-05
14 *649:B *818:A 2.93845e-05
15 *664:A *819:A 1.83444e-05
16 *664:A *369:6 0.000140259
17 *855:A *818:A 0.00018127
18 *74:10 *818:A 0.000433252
19 *77:8 *369:66 0
20 *78:8 *369:23 9.25308e-05
21 *80:10 *819:A 9.58714e-05
22 *80:10 *369:23 2.76611e-06
23 *151:12 *369:23 2.47015e-05
24 *154:35 *369:23 0.000122975
25 *154:35 *369:32 9.63712e-05
26 *154:35 *369:47 4.07715e-05
27 *155:30 *817:A 1.24376e-05
28 *155:30 *369:66 4.82745e-05
29 *156:10 *817:A 4.67488e-05
30 *169:44 *818:A 0
31 *301:12 *369:47 0.000342558
32 *301:12 *369:66 0.000243048
33 *303:73 *369:47 0
34 *303:73 *369:66 0
35 *327:8 *819:A 0.000119313
36 *329:10 *369:23 4.29613e-05
37 *329:18 *369:23 9.48381e-06
38 *332:30 *369:23 0
39 *360:20 *817:A 0
40 *365:26 *369:6 2.79662e-05
41 *366:10 *369:23 1.01436e-05
42 *366:10 *369:32 0.000181934
43 *366:10 *369:47 0.000377836
44 *366:28 *369:23 0.000139647
45 *368:77 *369:23 2.47276e-05
*RES
1 *863:X *369:6 25.5271 
2 *369:6 *819:A 28.5721 
3 *369:6 *369:23 21.4836 
4 *369:23 *820:A 38 
5 *369:23 *369:32 2.61 
6 *369:32 *818:A 44.38 
7 *369:32 *369:47 5.77929 
8 *369:47 *817:A 40.5686 
9 *369:47 *369:66 19.4121 
10 *369:66 *821:A 27.4329 
11 *369:66 *816:A 23 
*END

*D_NET *370 0.0219454
*CONN
*I *605:A I *D sky130_fd_sc_hd__inv_2
*I *601:A I *D sky130_fd_sc_hd__inv_2
*I *600:A I *D sky130_fd_sc_hd__inv_2
*I *606:A I *D sky130_fd_sc_hd__inv_2
*I *607:A I *D sky130_fd_sc_hd__inv_2
*I *608:A I *D sky130_fd_sc_hd__inv_2
*I *604:A I *D sky130_fd_sc_hd__inv_2
*I *603:A I *D sky130_fd_sc_hd__inv_2
*I *602:A I *D sky130_fd_sc_hd__inv_2
*I *599:A I *D sky130_fd_sc_hd__inv_2
*I *864:X O *D sky130_fd_sc_hd__buf_4
*CAP
1 *605:A 0.000413098
2 *601:A 2.34823e-05
3 *600:A 0
4 *606:A 0
5 *607:A 0
6 *608:A 2.03249e-05
7 *604:A 0
8 *603:A 3.83602e-05
9 *602:A 1.13421e-05
10 *599:A 0.000219383
11 *864:X 0.000470231
12 *370:148 0.00106026
13 *370:116 0.00216672
14 *370:105 0.00104527
15 *370:97 0.00341157
16 *370:91 0.000679116
17 *370:77 0.00139017
18 *370:62 0.00140604
19 *370:47 0.00111816
20 *370:31 0.000722162
21 *370:27 0.000881613
22 *370:12 0.000895483
23 acc[23] *370:105 0
24 acc[25] *370:97 0
25 *617:B *370:77 1.14154e-05
26 *623:A *370:91 0
27 *706:B *370:47 2.76611e-06
28 *724:B *370:91 5.33546e-05
29 *731:A2 *370:148 6.29694e-05
30 *733:A_N *370:77 0.000660436
31 *733:B *370:77 7.08823e-05
32 *746:B *370:116 2.12347e-06
33 *757:A *605:A 5.67058e-05
34 *760:A2 *370:77 0
35 *762:A *370:91 0.000271211
36 *769:B *370:62 4.56219e-05
37 *769:B *370:77 1.94693e-05
38 *770:A2 *603:A 4.00259e-06
39 *770:A2 *370:77 2.80512e-05
40 *770:B1_N *370:77 5.67058e-05
41 *840:CLK *370:12 2.46906e-05
42 *841:RESET_B *370:31 0.000185428
43 *864:A *370:12 0.000102389
44 *876:A *370:116 0
45 *911:A *602:A 2.4754e-05
46 *911:A *370:47 0.000156989
47 *912:A *370:62 0
48 *916:A *370:97 1.14452e-05
49 *3:8 *370:116 2.54046e-05
50 *20:8 *370:91 9.84851e-05
51 *23:10 *608:A 5.41385e-05
52 *23:10 *370:116 0
53 *35:17 *599:A 7.72341e-05
54 *49:17 *370:62 2.64616e-05
55 *51:21 *370:105 0
56 *52:13 *370:91 0
57 *53:15 *370:97 0.00016342
58 *54:11 *370:116 0.000610101
59 *87:10 *599:A 0
60 *87:10 *370:27 0
61 *89:12 *605:A 7.53384e-06
62 *89:12 *370:148 1.76557e-05
63 *90:8 *370:62 5.80963e-05
64 *93:10 *605:A 3.22879e-05
65 *94:10 *370:77 5.50049e-05
66 *95:10 *370:97 3.62219e-05
67 *96:10 *608:A 0.00010018
68 *110:23 *370:97 0
69 *192:8 *370:47 0.000137901
70 *198:16 *599:A 0
71 *198:16 *370:27 0
72 *198:16 *370:148 0.000232401
73 *202:12 *370:47 0
74 *210:14 *370:105 6.48049e-05
75 *211:6 *370:77 0.000173837
76 *212:18 *370:77 2.89478e-05
77 *216:16 *370:47 0
78 *218:10 *370:148 9.87985e-06
79 *220:14 *370:77 9.67842e-05
80 *231:8 *370:116 0.000112619
81 *231:27 *370:116 6.7177e-06
82 *241:10 *370:91 5.56203e-05
83 *250:10 *599:A 0
84 *250:10 *370:27 0
85 *287:8 *370:12 0.000195152
86 *288:6 *370:31 1.40958e-05
87 *293:10 *605:A 5.83407e-05
88 *295:10 *370:97 3.21327e-05
89 *310:12 *602:A 5.50049e-05
90 *310:12 *370:47 0.000123736
91 *310:20 *370:47 0.000219882
92 *311:8 *370:62 0.000110922
93 *315:8 *370:91 3.07161e-05
94 *333:58 *370:116 0.00017616
95 *343:40 *370:47 7.75329e-06
96 *343:55 *370:62 0.000562276
97 *344:8 *370:31 0.00010655
98 *344:8 *370:47 0.000128401
99 *344:10 *370:47 0
100 *347:10 *370:62 0
101 *349:21 *370:91 1.83667e-05
102 *356:48 *370:116 0
*RES
1 *864:X *370:12 45.8093 
2 *370:12 *599:A 41.9771 
3 *370:12 *370:27 3.66643 
4 *370:27 *370:31 17.5271 
5 *370:31 *370:47 45.3907 
6 *370:47 *602:A 23.6214 
7 *370:47 *370:62 39.5907 
8 *370:62 *603:A 23.8493 
9 *370:62 *370:77 17.0064 
10 *370:77 *370:91 40.0879 
11 *370:91 *370:97 34.7229 
12 *370:97 *370:105 43.8371 
13 *370:105 *604:A 23 
14 *370:97 *370:116 46.5479 
15 *370:116 *608:A 39.0979 
16 *370:91 *607:A 23 
17 *370:77 *606:A 23 
18 *370:31 *600:A 23 
19 *370:27 *370:148 26.8279 
20 *370:148 *601:A 23.4971 
21 *370:148 *605:A 31.7414 
*END

*D_NET *371 0.00855215
*CONN
*I *610:A I *D sky130_fd_sc_hd__inv_2
*I *611:A I *D sky130_fd_sc_hd__inv_2
*I *612:A I *D sky130_fd_sc_hd__inv_2
*I *814:A I *D sky130_fd_sc_hd__inv_2
*I *609:A I *D sky130_fd_sc_hd__inv_2
*I *613:A I *D sky130_fd_sc_hd__inv_2
*I *865:X O *D sky130_fd_sc_hd__buf_2
*CAP
1 *610:A 0.000165828
2 *611:A 0
3 *612:A 0
4 *814:A 4.01155e-05
5 *609:A 0.000106567
6 *613:A 0
7 *865:X 0
8 *371:78 0.000347192
9 *371:66 0.000769452
10 *371:51 0.000413579
11 *371:38 0.00106567
12 *371:27 0.000677684
13 *371:10 0.000927516
14 *371:4 0.0012248
15 acc[31] *371:51 0
16 *654:A *371:51 4.58924e-05
17 *657:B1 *371:38 2.18409e-05
18 *741:B *371:66 0.000135159
19 *747:B *609:A 0.000177604
20 *747:B *371:78 0.000261136
21 *753:A2 *371:78 9.65021e-05
22 *754:B *610:A 2.64616e-05
23 *755:B *371:78 3.7122e-06
24 *807:B *371:38 8.09215e-05
25 *864:A *371:10 9.91798e-05
26 *865:A *371:10 5.41385e-05
27 *910:A *371:66 0
28 *36:11 *371:66 0.00011691
29 *47:15 *814:A 0
30 *56:11 *371:51 0
31 *97:10 *371:27 0
32 *102:14 *609:A 5.3304e-05
33 *102:14 *371:27 1.58805e-05
34 *103:33 *371:27 4.07715e-05
35 *143:18 *371:38 0.000268074
36 *237:8 *371:78 0.000166532
37 *301:28 *371:10 0.000141879
38 *301:28 *371:27 0.000345772
39 *305:51 *371:27 0
40 *319:12 *371:38 5.7831e-05
41 *319:12 *371:51 3.53115e-05
42 *319:16 *371:78 0
43 *320:39 *371:66 0.000135159
44 *320:39 *371:78 0.000132136
45 *323:28 *610:A 5.56279e-05
46 *323:28 *371:78 1.3523e-05
47 *333:31 *371:66 5.65462e-05
48 *351:30 *371:27 0.00015795
49 *355:10 *371:78 1.7992e-05
*RES
1 *865:X *371:4 23 
2 *371:4 *371:10 20.8621 
3 *371:10 *613:A 38 
4 *371:10 *371:27 41.1443 
5 *371:27 *609:A 40.0507 
6 *371:4 *371:38 12.0557 
7 *371:38 *814:A 23.8493 
8 *371:38 *371:51 18.0036 
9 *371:51 *612:A 38 
10 *371:51 *371:66 21.1936 
11 *371:66 *371:78 37.9129 
12 *371:78 *611:A 23 
13 *371:66 *610:A 25.5479 
*END

*D_NET *372 0.00273018
*CONN
*I *689:A I *D sky130_fd_sc_hd__nor2_1
*I *688:A I *D sky130_fd_sc_hd__nand2_1
*I *690:A I *D sky130_fd_sc_hd__or2_1
*I *896:X O *D sky130_fd_sc_hd__buf_1
*CAP
1 *689:A 0
2 *688:A 0
3 *690:A 3.75766e-05
4 *896:X 5.25268e-05
5 *372:39 0.000365539
6 *372:27 0.000654458
7 *372:6 0.000379023
8 *591:A *690:A 1.05819e-05
9 *591:A *372:27 9.88259e-05
10 *698:B2 *372:27 5.56279e-05
11 *698:B2 *372:39 7.78707e-05
12 *859:A *372:39 0.000100069
13 *41:21 *372:27 0
14 *169:44 *372:39 1.7318e-05
15 *180:10 *372:39 0
16 *279:16 *372:27 4.21048e-05
17 *279:16 *372:39 5.79559e-05
18 *340:33 *372:6 1.59094e-05
19 *340:50 *372:6 3.42479e-05
20 *340:50 *372:27 0.000176862
21 *340:50 *372:39 1.05441e-05
22 *340:69 *372:39 7.06451e-05
23 *350:12 *372:39 0.000100069
24 *368:18 *372:6 0.000142636
25 *368:18 *372:27 0.000229793
*RES
1 *896:X *372:6 24.5743 
2 *372:6 *690:A 23.8493 
3 *372:6 *372:27 36.525 
4 *372:27 *372:39 35.9036 
5 *372:39 *688:A 23 
6 *372:27 *689:A 23 
*END

*D_NET *373 0.00328895
*CONN
*I *708:A I *D sky130_fd_sc_hd__nand2_1
*I *709:A I *D sky130_fd_sc_hd__or2_1
*I *714:A1 I *D sky130_fd_sc_hd__a31o_1
*I *897:X O *D sky130_fd_sc_hd__buf_1
*CAP
1 *708:A 0.000170789
2 *709:A 0.000144228
3 *714:A1 1.75705e-05
4 *897:X 0.000117019
5 *373:19 0.000612739
6 *373:8 0.000432312
7 *708:A *374:10 2.18409e-05
8 *373:8 *374:20 5.50106e-05
9 *373:19 *777:A1 4.17736e-05
10 *373:19 *374:20 0.000138444
11 *708:B *708:A 5.67058e-05
12 *710:A *373:19 9.67842e-05
13 *714:B1 *373:19 5.3304e-05
14 *777:B1 *714:A1 0
15 *777:B1 *373:19 6.08617e-05
16 *35:17 *708:A 6.39787e-05
17 *43:19 *714:A1 0
18 *43:19 *373:8 5.90675e-06
19 *44:11 *709:A 0
20 *196:10 *709:A 0.000165593
21 *197:12 *709:A 0
22 *201:10 *373:8 9.5877e-05
23 *248:8 *709:A 3.11378e-05
24 *248:29 *708:A 8.16459e-05
25 *248:29 *709:A 1.22803e-05
26 *248:29 *373:19 2.02872e-05
27 *249:10 *708:A 0.000156388
28 *249:10 *709:A 0.000185755
29 *250:10 *708:A 0
30 *250:10 *373:19 5.3304e-05
31 *286:10 *708:A 0.000143655
32 *341:14 *714:A1 1.14154e-05
33 *341:14 *373:8 2.18409e-05
34 *341:14 *373:19 8.11513e-05
35 *341:24 *373:8 0.000139352
*RES
1 *897:X *373:8 26.0243 
2 *373:8 *714:A1 23.4971 
3 *373:8 *373:19 20.8621 
4 *373:19 *709:A 41.6664 
5 *373:19 *708:A 43.1579 
*END

*D_NET *374 0.00410513
*CONN
*I *777:A1 I *D sky130_fd_sc_hd__a21o_1
*I *713:A I *D sky130_fd_sc_hd__and3_1
*I *701:A I *D sky130_fd_sc_hd__xnor2_1
*I *898:X O *D sky130_fd_sc_hd__buf_1
*CAP
1 *777:A1 4.5004e-05
2 *713:A 0.000100987
3 *701:A 0.00023732
4 *898:X 0.000535663
5 *374:20 0.00060271
6 *374:12 0.000309406
7 *374:10 0.000535663
8 *706:B *374:10 0.000106288
9 *708:A *374:10 2.18409e-05
10 *713:B *701:A 0
11 *713:B *374:10 1.22803e-05
12 *713:B *374:20 2.15048e-05
13 *35:9 *701:A 0
14 *35:17 *713:A 5.3304e-05
15 *35:17 *374:10 5.29473e-05
16 *188:8 *701:A 3.22879e-05
17 *193:19 *374:10 8.4047e-05
18 *194:14 *701:A 0.00014411
19 *200:8 *374:10 0.000191148
20 *201:10 *713:A 0.000111852
21 *201:10 *374:20 1.01436e-05
22 *248:29 *374:10 1.94693e-05
23 *286:10 *701:A 0
24 *286:10 *374:10 0.00023697
25 *341:24 *701:A 2.24608e-05
26 *341:24 *713:A 0.000140891
27 *342:23 *701:A 5.67058e-05
28 *342:36 *701:A 0.000184901
29 *373:8 *374:20 5.50106e-05
30 *373:19 *777:A1 4.17736e-05
31 *373:19 *374:20 0.000138444
*RES
1 *898:X *374:10 47.3007 
2 *374:10 *374:12 15 
3 *374:12 *374:20 18.8218 
4 *374:20 *701:A 44.0175 
5 *374:20 *713:A 40.7032 
6 *374:12 *777:A1 23.6214 
*END
