*SPEF "ieee 1481-1999"
*DESIGN "acc32"
*DATE "16:15:30 Saturday September 19, 2026"
*VENDOR "The OpenROAD Project"
*PROGRAM "OpenROAD"
*VERSION "edf00dff99f6c40d67a30c0e22a8191c5d2ed9d6"
*DESIGN_FLOW "NAME_SCOPE LOCAL" "PIN_CAP NONE"
*DIVIDER /
*DELIMITER :
*BUS_DELIMITER []
*T_UNIT 1 NS
*C_UNIT 1 PF
*R_UNIT 1 OHM
*L_UNIT 1 HENRY

*NAME_MAP
*3 acc[0]
*4 acc[10]
*5 acc[11]
*6 acc[12]
*7 acc[13]
*8 acc[14]
*9 acc[15]
*10 acc[16]
*11 acc[17]
*12 acc[18]
*13 acc[19]
*14 acc[1]
*15 acc[20]
*16 acc[21]
*17 acc[22]
*18 acc[23]
*19 acc[24]
*20 acc[25]
*21 acc[26]
*22 acc[27]
*23 acc[28]
*24 acc[29]
*25 acc[2]
*26 acc[30]
*27 acc[31]
*28 acc[3]
*29 acc[4]
*30 acc[5]
*31 acc[6]
*32 acc[7]
*33 acc[8]
*34 acc[9]
*35 clk
*36 data_in[0]
*37 data_in[10]
*38 data_in[11]
*39 data_in[12]
*40 data_in[13]
*41 data_in[14]
*42 data_in[15]
*43 data_in[16]
*44 data_in[17]
*45 data_in[18]
*46 data_in[19]
*47 data_in[1]
*48 data_in[20]
*49 data_in[21]
*50 data_in[22]
*51 data_in[23]
*52 data_in[24]
*53 data_in[25]
*54 data_in[26]
*55 data_in[27]
*56 data_in[28]
*57 data_in[29]
*58 data_in[2]
*59 data_in[30]
*60 data_in[31]
*61 data_in[3]
*62 data_in[4]
*63 data_in[5]
*64 data_in[6]
*65 data_in[7]
*66 data_in[8]
*67 data_in[9]
*68 rst
*69 _000_
*70 _001_
*71 _002_
*72 _003_
*73 _004_
*74 _005_
*75 _006_
*76 _007_
*77 _008_
*78 _009_
*79 _010_
*80 _011_
*81 _012_
*82 _013_
*83 _014_
*84 _015_
*85 _016_
*86 _017_
*87 _018_
*88 _019_
*89 _020_
*90 _021_
*91 _022_
*92 _023_
*93 _024_
*94 _025_
*95 _026_
*96 _027_
*97 _028_
*98 _029_
*99 _030_
*100 _031_
*101 _032_
*102 _033_
*103 _034_
*104 _035_
*105 _036_
*106 _037_
*107 _038_
*108 _039_
*109 _040_
*110 _041_
*111 _042_
*112 _043_
*113 _044_
*114 _045_
*115 _046_
*116 _047_
*117 _048_
*118 _049_
*119 _050_
*120 _051_
*121 _052_
*122 _053_
*123 _054_
*124 _055_
*125 _056_
*126 _057_
*127 _058_
*128 _059_
*129 _060_
*130 _061_
*131 _062_
*132 _063_
*133 _064_
*134 _065_
*135 _066_
*136 _067_
*137 _068_
*138 _069_
*139 _070_
*140 _071_
*141 _072_
*142 _073_
*143 _074_
*144 _075_
*145 _076_
*146 _077_
*147 _078_
*148 _079_
*149 _080_
*150 _081_
*151 _082_
*152 _083_
*153 _084_
*154 _085_
*155 _086_
*156 _087_
*157 _088_
*158 _089_
*159 _090_
*160 _091_
*161 _092_
*162 _093_
*163 _094_
*164 _095_
*165 _096_
*166 _097_
*167 _098_
*168 _099_
*169 _100_
*170 _101_
*171 _102_
*172 _103_
*173 _104_
*174 _105_
*175 _106_
*176 _107_
*177 _108_
*178 _109_
*179 _110_
*180 _111_
*181 _112_
*182 _113_
*183 _114_
*184 _115_
*185 _116_
*186 _117_
*187 _118_
*188 _119_
*189 _120_
*190 _121_
*191 _122_
*192 _123_
*193 _124_
*194 _125_
*195 _126_
*196 _127_
*197 _128_
*198 _129_
*199 _130_
*200 _131_
*201 _132_
*202 _133_
*203 _134_
*204 _135_
*205 _136_
*206 _137_
*207 _138_
*208 _139_
*209 _140_
*210 _141_
*211 _142_
*212 _143_
*213 _144_
*214 _145_
*215 _146_
*216 _147_
*217 _148_
*218 _149_
*219 _150_
*220 _151_
*221 _152_
*222 _153_
*223 _154_
*224 _155_
*225 _156_
*226 _157_
*227 _158_
*228 _159_
*229 _160_
*230 _161_
*231 _162_
*232 _163_
*233 _164_
*234 _165_
*235 _166_
*236 _167_
*237 _168_
*238 _169_
*239 _170_
*240 _171_
*241 _172_
*242 _173_
*243 _174_
*244 _175_
*245 _176_
*246 _177_
*247 _178_
*248 _179_
*249 _180_
*250 _181_
*251 _182_
*252 _183_
*253 _184_
*254 _185_
*255 _186_
*256 _187_
*257 _188_
*258 _189_
*259 _190_
*260 _191_
*261 _192_
*262 _193_
*263 _194_
*264 _195_
*265 _196_
*266 _197_
*267 _198_
*268 _199_
*269 adder\.cla_blocks\[0\]\.block\.p\[0\]
*270 adder\.cla_blocks\[0\]\.block\.sum\[1\]
*271 adder\.cla_blocks\[0\]\.block\.sum\[2\]
*272 adder\.cla_blocks\[0\]\.block\.sum\[3\]
*273 adder\.cla_blocks\[1\]\.block\.sum\[0\]
*274 adder\.cla_blocks\[1\]\.block\.sum\[1\]
*275 adder\.cla_blocks\[1\]\.block\.sum\[2\]
*276 adder\.cla_blocks\[1\]\.block\.sum\[3\]
*277 adder\.cla_blocks\[2\]\.block\.sum\[0\]
*278 adder\.cla_blocks\[2\]\.block\.sum\[1\]
*279 adder\.cla_blocks\[2\]\.block\.sum\[2\]
*280 adder\.cla_blocks\[2\]\.block\.sum\[3\]
*281 adder\.cla_blocks\[3\]\.block\.sum\[0\]
*282 adder\.cla_blocks\[3\]\.block\.sum\[1\]
*283 adder\.cla_blocks\[3\]\.block\.sum\[2\]
*284 adder\.cla_blocks\[3\]\.block\.sum\[3\]
*285 adder\.cla_blocks\[4\]\.block\.sum\[0\]
*286 adder\.cla_blocks\[4\]\.block\.sum\[1\]
*287 adder\.cla_blocks\[4\]\.block\.sum\[2\]
*288 adder\.cla_blocks\[4\]\.block\.sum\[3\]
*289 adder\.cla_blocks\[5\]\.block\.sum\[0\]
*290 adder\.cla_blocks\[5\]\.block\.sum\[1\]
*291 adder\.cla_blocks\[5\]\.block\.sum\[2\]
*292 adder\.cla_blocks\[5\]\.block\.sum\[3\]
*293 adder\.cla_blocks\[6\]\.block\.sum\[0\]
*294 adder\.cla_blocks\[6\]\.block\.sum\[1\]
*295 adder\.cla_blocks\[6\]\.block\.sum\[2\]
*296 adder\.cla_blocks\[6\]\.block\.sum\[3\]
*297 adder\.cla_blocks\[7\]\.block\.sum\[0\]
*298 adder\.cla_blocks\[7\]\.block\.sum\[1\]
*299 adder\.cla_blocks\[7\]\.block\.sum\[2\]
*300 adder\.cla_blocks\[7\]\.block\.sum\[3\]
*301 clknet_0_clk
*302 clknet_2_0__leaf_clk
*303 clknet_2_1__leaf_clk
*304 clknet_2_2__leaf_clk
*305 clknet_2_3__leaf_clk
*306 net1
*307 net10
*308 net11
*309 net12
*310 net13
*311 net14
*312 net15
*313 net16
*314 net17
*315 net18
*316 net19
*317 net2
*318 net20
*319 net21
*320 net22
*321 net23
*322 net24
*323 net25
*324 net26
*325 net27
*326 net28
*327 net29
*328 net3
*329 net30
*330 net31
*331 net32
*332 net33
*333 net34
*334 net35
*335 net36
*336 net37
*337 net38
*338 net39
*339 net4
*340 net40
*341 net41
*342 net42
*343 net43
*344 net44
*345 net45
*346 net46
*347 net47
*348 net48
*349 net49
*350 net5
*351 net50
*352 net51
*353 net52
*354 net53
*355 net54
*356 net55
*357 net56
*358 net57
*359 net58
*360 net59
*361 net6
*362 net60
*363 net61
*364 net62
*365 net63
*366 net64
*367 net65
*368 net66
*369 net67
*370 net68
*371 net69
*372 net7
*373 net8
*374 net9
*375 FILLER_0_108
*376 FILLER_0_119
*377 FILLER_0_126
*378 FILLER_0_134
*379 FILLER_0_141
*380 FILLER_0_23
*381 FILLER_0_27
*382 FILLER_0_29
*383 FILLER_0_43
*384 FILLER_0_49
*385 FILLER_0_57
*386 FILLER_0_62
*387 FILLER_0_66
*388 FILLER_0_79
*389 FILLER_0_83
*390 FILLER_0_93
*391 FILLER_0_99
*392 FILLER_10_109
*393 FILLER_10_121
*394 FILLER_10_13
*395 FILLER_10_141
*396 FILLER_10_26
*397 FILLER_10_34
*398 FILLER_10_62
*399 FILLER_10_74
*400 FILLER_10_82
*401 FILLER_10_85
*402 FILLER_10_97
*403 FILLER_11_121
*404 FILLER_11_141
*405 FILLER_11_16
*406 FILLER_11_22
*407 FILLER_11_26
*408 FILLER_11_40
*409 FILLER_11_52
*410 FILLER_11_57
*411 FILLER_11_6
*412 FILLER_11_69
*413 FILLER_11_91
*414 FILLER_12_125
*415 FILLER_12_133
*416 FILLER_12_141
*417 FILLER_12_15
*418 FILLER_12_27
*419 FILLER_12_29
*420 FILLER_12_38
*421 FILLER_12_50
*422 FILLER_12_62
*423 FILLER_12_7
*424 FILLER_12_74
*425 FILLER_12_82
*426 FILLER_12_85
*427 FILLER_13_105
*428 FILLER_13_116
*429 FILLER_13_138
*430 FILLER_13_49
*431 FILLER_13_55
*432 FILLER_13_57
*433 FILLER_13_69
*434 FILLER_13_7
*435 FILLER_13_81
*436 FILLER_13_93
*437 FILLER_14_109
*438 FILLER_14_13
*439 FILLER_14_141
*440 FILLER_14_25
*441 FILLER_14_29
*442 FILLER_14_3
*443 FILLER_14_34
*444 FILLER_14_46
*445 FILLER_14_58
*446 FILLER_14_70
*447 FILLER_14_82
*448 FILLER_14_85
*449 FILLER_14_97
*450 FILLER_15_101
*451 FILLER_15_109
*452 FILLER_15_139
*453 FILLER_15_17
*454 FILLER_15_39
*455 FILLER_15_51
*456 FILLER_15_55
*457 FILLER_15_57
*458 FILLER_15_69
*459 FILLER_15_81
*460 FILLER_15_9
*461 FILLER_15_93
*462 FILLER_15_97
*463 FILLER_16_108
*464 FILLER_16_114
*465 FILLER_16_120
*466 FILLER_16_124
*467 FILLER_16_131
*468 FILLER_16_138
*469 FILLER_16_141
*470 FILLER_16_18
*471 FILLER_16_22
*472 FILLER_16_26
*473 FILLER_16_29
*474 FILLER_16_64
*475 FILLER_16_76
*476 FILLER_16_85
*477 FILLER_17_121
*478 FILLER_17_14
*479 FILLER_17_33
*480 FILLER_17_44
*481 FILLER_17_52
*482 FILLER_17_7
*483 FILLER_17_80
*484 FILLER_17_84
*485 FILLER_18_113
*486 FILLER_18_130
*487 FILLER_18_141
*488 FILLER_18_17
*489 FILLER_18_25
*490 FILLER_18_33
*491 FILLER_18_42
*492 FILLER_18_6
*493 FILLER_18_70
*494 FILLER_19_100
*495 FILLER_19_113
*496 FILLER_19_130
*497 FILLER_19_31
*498 FILLER_19_38
*499 FILLER_19_47
*500 FILLER_19_55
*501 FILLER_19_57
*502 FILLER_19_66
*503 FILLER_19_72
*504 FILLER_19_76
*505 FILLER_1_104
*506 FILLER_1_113
*507 FILLER_1_138
*508 FILLER_1_16
*509 FILLER_1_38
*510 FILLER_1_71
*511 FILLER_20_111
*512 FILLER_20_129
*513 FILLER_20_141
*514 FILLER_20_16
*515 FILLER_20_23
*516 FILLER_20_27
*517 FILLER_20_29
*518 FILLER_20_35
*519 FILLER_20_39
*520 FILLER_20_45
*521 FILLER_20_6
*522 FILLER_20_76
*523 FILLER_20_90
*524 FILLER_20_99
*525 FILLER_21_100
*526 FILLER_21_111
*527 FILLER_21_113
*528 FILLER_21_122
*529 FILLER_21_15
*530 FILLER_21_23
*531 FILLER_21_35
*532 FILLER_21_42
*533 FILLER_21_53
*534 FILLER_21_57
*535 FILLER_21_7
*536 FILLER_21_82
*537 FILLER_21_89
*538 FILLER_21_96
*539 FILLER_22_105
*540 FILLER_22_131
*541 FILLER_22_141
*542 FILLER_22_37
*543 FILLER_22_58
*544 FILLER_22_63
*545 FILLER_23_107
*546 FILLER_23_111
*547 FILLER_23_113
*548 FILLER_23_121
*549 FILLER_23_14
*550 FILLER_23_141
*551 FILLER_23_22
*552 FILLER_23_26
*553 FILLER_23_29
*554 FILLER_23_34
*555 FILLER_23_43
*556 FILLER_23_55
*557 FILLER_23_85
*558 FILLER_2_109
*559 FILLER_2_115
*560 FILLER_2_141
*561 FILLER_2_23
*562 FILLER_2_27
*563 FILLER_2_43
*564 FILLER_2_64
*565 FILLER_2_74
*566 FILLER_2_82
*567 FILLER_2_88
*568 FILLER_3_103
*569 FILLER_3_111
*570 FILLER_3_142
*571 FILLER_3_25
*572 FILLER_3_3
*573 FILLER_3_35
*574 FILLER_3_43
*575 FILLER_3_48
*576 FILLER_3_73
*577 FILLER_3_83
*578 FILLER_3_90
*579 FILLER_4_105
*580 FILLER_4_11
*581 FILLER_4_114
*582 FILLER_4_133
*583 FILLER_4_141
*584 FILLER_4_15
*585 FILLER_4_27
*586 FILLER_4_29
*587 FILLER_4_62
*588 FILLER_4_7
*589 FILLER_4_82
*590 FILLER_5_118
*591 FILLER_5_13
*592 FILLER_5_33
*593 FILLER_5_45
*594 FILLER_5_49
*595 FILLER_5_77
*596 FILLER_5_9
*597 FILLER_6_124
*598 FILLER_6_141
*599 FILLER_6_23
*600 FILLER_6_44
*601 FILLER_6_52
*602 FILLER_6_60
*603 FILLER_6_79
*604 FILLER_6_83
*605 FILLER_6_89
*606 FILLER_6_95
*607 FILLER_7_118
*608 FILLER_7_130
*609 FILLER_7_134
*610 FILLER_7_18
*611 FILLER_7_26
*612 FILLER_7_6
*613 FILLER_7_97
*614 FILLER_8_102
*615 FILLER_8_113
*616 FILLER_8_141
*617 FILLER_8_26
*618 FILLER_8_29
*619 FILLER_8_42
*620 FILLER_8_54
*621 FILLER_8_66
*622 FILLER_8_78
*623 FILLER_8_85
*624 FILLER_8_93
*625 FILLER_9_105
*626 FILLER_9_120
*627 FILLER_9_16
*628 FILLER_9_29
*629 FILLER_9_46
*630 FILLER_9_54
*631 FILLER_9_57
*632 FILLER_9_69
*633 FILLER_9_7
*634 FILLER_9_81
*635 PHY_EDGE_ROW_0_Left_24
*636 PHY_EDGE_ROW_0_Right_0
*637 PHY_EDGE_ROW_10_Left_34
*638 PHY_EDGE_ROW_10_Right_10
*639 PHY_EDGE_ROW_11_Left_35
*640 PHY_EDGE_ROW_11_Right_11
*641 PHY_EDGE_ROW_12_Left_36
*642 PHY_EDGE_ROW_12_Right_12
*643 PHY_EDGE_ROW_13_Left_37
*644 PHY_EDGE_ROW_13_Right_13
*645 PHY_EDGE_ROW_14_Left_38
*646 PHY_EDGE_ROW_14_Right_14
*647 PHY_EDGE_ROW_15_Left_39
*648 PHY_EDGE_ROW_15_Right_15
*649 PHY_EDGE_ROW_16_Left_40
*650 PHY_EDGE_ROW_16_Right_16
*651 PHY_EDGE_ROW_17_Left_41
*652 PHY_EDGE_ROW_17_Right_17
*653 PHY_EDGE_ROW_18_Left_42
*654 PHY_EDGE_ROW_18_Right_18
*655 PHY_EDGE_ROW_19_Left_43
*656 PHY_EDGE_ROW_19_Right_19
*657 PHY_EDGE_ROW_1_Left_25
*658 PHY_EDGE_ROW_1_Right_1
*659 PHY_EDGE_ROW_20_Left_44
*660 PHY_EDGE_ROW_20_Right_20
*661 PHY_EDGE_ROW_21_Left_45
*662 PHY_EDGE_ROW_21_Right_21
*663 PHY_EDGE_ROW_22_Left_46
*664 PHY_EDGE_ROW_22_Right_22
*665 PHY_EDGE_ROW_23_Left_47
*666 PHY_EDGE_ROW_23_Right_23
*667 PHY_EDGE_ROW_2_Left_26
*668 PHY_EDGE_ROW_2_Right_2
*669 PHY_EDGE_ROW_3_Left_27
*670 PHY_EDGE_ROW_3_Right_3
*671 PHY_EDGE_ROW_4_Left_28
*672 PHY_EDGE_ROW_4_Right_4
*673 PHY_EDGE_ROW_5_Left_29
*674 PHY_EDGE_ROW_5_Right_5
*675 PHY_EDGE_ROW_6_Left_30
*676 PHY_EDGE_ROW_6_Right_6
*677 PHY_EDGE_ROW_7_Left_31
*678 PHY_EDGE_ROW_7_Right_7
*679 PHY_EDGE_ROW_8_Left_32
*680 PHY_EDGE_ROW_8_Right_8
*681 PHY_EDGE_ROW_9_Left_33
*682 PHY_EDGE_ROW_9_Right_9
*683 TAP_TAPCELL_ROW_0_48
*684 TAP_TAPCELL_ROW_0_49
*685 TAP_TAPCELL_ROW_0_50
*686 TAP_TAPCELL_ROW_0_51
*687 TAP_TAPCELL_ROW_0_52
*688 TAP_TAPCELL_ROW_10_75
*689 TAP_TAPCELL_ROW_10_76
*690 TAP_TAPCELL_ROW_10_77
*691 TAP_TAPCELL_ROW_11_78
*692 TAP_TAPCELL_ROW_11_79
*693 TAP_TAPCELL_ROW_12_80
*694 TAP_TAPCELL_ROW_12_81
*695 TAP_TAPCELL_ROW_12_82
*696 TAP_TAPCELL_ROW_13_83
*697 TAP_TAPCELL_ROW_13_84
*698 TAP_TAPCELL_ROW_14_85
*699 TAP_TAPCELL_ROW_14_86
*700 TAP_TAPCELL_ROW_14_87
*701 TAP_TAPCELL_ROW_15_88
*702 TAP_TAPCELL_ROW_15_89
*703 TAP_TAPCELL_ROW_16_90
*704 TAP_TAPCELL_ROW_16_91
*705 TAP_TAPCELL_ROW_16_92
*706 TAP_TAPCELL_ROW_17_93
*707 TAP_TAPCELL_ROW_17_94
*708 TAP_TAPCELL_ROW_18_95
*709 TAP_TAPCELL_ROW_18_96
*710 TAP_TAPCELL_ROW_18_97
*711 TAP_TAPCELL_ROW_19_98
*712 TAP_TAPCELL_ROW_19_99
*713 TAP_TAPCELL_ROW_1_53
*714 TAP_TAPCELL_ROW_1_54
*715 TAP_TAPCELL_ROW_20_100
*716 TAP_TAPCELL_ROW_20_101
*717 TAP_TAPCELL_ROW_20_102
*718 TAP_TAPCELL_ROW_21_103
*719 TAP_TAPCELL_ROW_21_104
*720 TAP_TAPCELL_ROW_22_105
*721 TAP_TAPCELL_ROW_22_106
*722 TAP_TAPCELL_ROW_22_107
*723 TAP_TAPCELL_ROW_23_108
*724 TAP_TAPCELL_ROW_23_109
*725 TAP_TAPCELL_ROW_23_110
*726 TAP_TAPCELL_ROW_23_111
*727 TAP_TAPCELL_ROW_23_112
*728 TAP_TAPCELL_ROW_2_55
*729 TAP_TAPCELL_ROW_2_56
*730 TAP_TAPCELL_ROW_2_57
*731 TAP_TAPCELL_ROW_3_58
*732 TAP_TAPCELL_ROW_3_59
*733 TAP_TAPCELL_ROW_4_60
*734 TAP_TAPCELL_ROW_4_61
*735 TAP_TAPCELL_ROW_4_62
*736 TAP_TAPCELL_ROW_5_63
*737 TAP_TAPCELL_ROW_5_64
*738 TAP_TAPCELL_ROW_6_65
*739 TAP_TAPCELL_ROW_6_66
*740 TAP_TAPCELL_ROW_6_67
*741 TAP_TAPCELL_ROW_7_68
*742 TAP_TAPCELL_ROW_7_69
*743 TAP_TAPCELL_ROW_8_70
*744 TAP_TAPCELL_ROW_8_71
*745 TAP_TAPCELL_ROW_8_72
*746 TAP_TAPCELL_ROW_9_73
*747 TAP_TAPCELL_ROW_9_74
*748 _200_
*749 _201_
*750 _202_
*751 _203_
*752 _204_
*753 _205_
*754 _206_
*755 _207_
*756 _208_
*757 _209_
*758 _210_
*759 _211_
*760 _212_
*761 _213_
*762 _214_
*763 _215_
*764 _216_
*765 _217_
*766 _218_
*767 _219_
*768 _220_
*769 _221_
*770 _222_
*771 _223_
*772 _224_
*773 _225_
*774 _226_
*775 _227_
*776 _228_
*777 _229_
*778 _230_
*779 _231_
*780 _232_
*781 _233_
*782 _234_
*783 _235_
*784 _236_
*785 _237_
*786 _238_
*787 _239_
*788 _240_
*789 _241_
*790 _242_
*791 _243_
*792 _244_
*793 _245_
*794 _246_
*795 _247_
*796 _248_
*797 _249_
*798 _250_
*799 _251_
*800 _252_
*801 _253_
*802 _254_
*803 _255_
*804 _256_
*805 _257_
*806 _258_
*807 _259_
*808 _260_
*809 _261_
*810 _262_
*811 _263_
*812 _264_
*813 _265_
*814 _266_
*815 _267_
*816 _268_
*817 _269_
*818 _270_
*819 _271_
*820 _272_
*821 _273_
*822 _274_
*823 _275_
*824 _276_
*825 _277_
*826 _278_
*827 _279_
*828 _280_
*829 _281_
*830 _282_
*831 _283_
*832 _284_
*833 _285_
*834 _286_
*835 _287_
*836 _288_
*837 _289_
*838 _290_
*839 _291_
*840 _292_
*841 _293_
*842 _294_
*843 _295_
*844 _296_
*845 _297_
*846 _298_
*847 _299_
*848 _300_
*849 _301_
*850 _302_
*851 _303_
*852 _304_
*853 _305_
*854 _306_
*855 _307_
*856 _308_
*857 _309_
*858 _310_
*859 _311_
*860 _312_
*861 _313_
*862 _314_
*863 _315_
*864 _316_
*865 _317_
*866 _318_
*867 _319_
*868 _320_
*869 _321_
*870 _322_
*871 _323_
*872 _324_
*873 _325_
*874 _326_
*875 _327_
*876 _328_
*877 _329_
*878 _330_
*879 _331_
*880 _332_
*881 _333_
*882 _334_
*883 _335_
*884 _336_
*885 _337_
*886 _338_
*887 _339_
*888 _340_
*889 _341_
*890 _342_
*891 _343_
*892 _344_
*893 _345_
*894 _346_
*895 _347_
*896 _348_
*897 _349_
*898 _350_
*899 _351_
*900 _352_
*901 _353_
*902 _354_
*903 _355_
*904 _356_
*905 _357_
*906 _358_
*907 _359_
*908 _360_
*909 _361_
*910 _362_
*911 _363_
*912 _364_
*913 _365_
*914 _366_
*915 _367_
*916 _368_
*917 _369_
*918 _370_
*919 _371_
*920 _372_
*921 _373_
*922 _374_
*923 _375_
*924 _376_
*925 _377_
*926 _378_
*927 _379_
*928 _380_
*929 _381_
*930 _382_
*931 _383_
*932 _384_
*933 _385_
*934 _386_
*935 _387_
*936 _388_
*937 _389_
*938 _390_
*939 _391_
*940 _392_
*941 _393_
*942 _394_
*943 _395_
*944 _396_
*945 _397_
*946 _398_
*947 _399_
*948 _400_
*949 _401_
*950 _402_
*951 _403_
*952 _404_
*953 _405_
*954 _406_
*955 _407_
*956 _408_
*957 _409_
*958 _410_
*959 _411_
*960 _412_
*961 _413_
*962 _414_
*963 _415_
*964 _416_
*965 _417_
*966 _418_
*967 _419_
*968 _420_
*969 _421_
*970 _422_
*971 _423_
*972 _424_
*973 _425_
*974 _426_
*975 _427_
*976 _428_
*977 _429_
*978 _430_
*979 _431_
*980 _432_
*981 _433_
*982 _434_
*983 _435_
*984 _436_
*985 _437_
*986 _438_
*987 _439_
*988 _440_
*989 _441_
*990 _442_
*991 _443_
*992 _444_
*993 _445_
*994 _446_
*995 _447_
*996 _448_
*997 _449_
*998 _450_
*999 _451_
*1000 _452_
*1001 _453_
*1002 _454_
*1003 _455_
*1004 _456_
*1005 _457_
*1006 _458_
*1007 _459_
*1008 _460_
*1009 _461_
*1010 _462_
*1011 _463_
*1012 clkbuf_0_clk
*1013 clkbuf_2_0__f_clk
*1014 clkbuf_2_1__f_clk
*1015 clkbuf_2_2__f_clk
*1016 clkbuf_2_3__f_clk
*1017 clkload0
*1018 clkload1
*1019 clkload2
*1020 fanout66
*1021 fanout67
*1022 fanout68
*1023 fanout69
*1024 input1
*1025 input10
*1026 input11
*1027 input12
*1028 input13
*1029 input14
*1030 input15
*1031 input16
*1032 input17
*1033 input18
*1034 input19
*1035 input2
*1036 input20
*1037 input21
*1038 input22
*1039 input23
*1040 input24
*1041 input25
*1042 input26
*1043 input27
*1044 input28
*1045 input29
*1046 input3
*1047 input30
*1048 input31
*1049 input32
*1050 input33
*1051 input4
*1052 input5
*1053 input6
*1054 input7
*1055 input8
*1056 input9
*1057 output34
*1058 output35
*1059 output36
*1060 output37
*1061 output38
*1062 output39
*1063 output40
*1064 output41
*1065 output42
*1066 output43
*1067 output44
*1068 output45
*1069 output46
*1070 output47
*1071 output48
*1072 output49
*1073 output50
*1074 output51
*1075 output52
*1076 output53
*1077 output54
*1078 output55
*1079 output56
*1080 output57
*1081 output58
*1082 output59
*1083 output60
*1084 output61
*1085 output62
*1086 output63
*1087 output64
*1088 output65

*PORTS
acc[0] O
acc[10] O
acc[11] O
acc[12] O
acc[13] O
acc[14] O
acc[15] O
acc[16] O
acc[17] O
acc[18] O
acc[19] O
acc[1] O
acc[20] O
acc[21] O
acc[22] O
acc[23] O
acc[24] O
acc[25] O
acc[26] O
acc[27] O
acc[28] O
acc[29] O
acc[2] O
acc[30] O
acc[31] O
acc[3] O
acc[4] O
acc[5] O
acc[6] O
acc[7] O
acc[8] O
acc[9] O
clk I
data_in[0] I
data_in[10] I
data_in[11] I
data_in[12] I
data_in[13] I
data_in[14] I
data_in[15] I
data_in[16] I
data_in[17] I
data_in[18] I
data_in[19] I
data_in[1] I
data_in[20] I
data_in[21] I
data_in[22] I
data_in[23] I
data_in[24] I
data_in[25] I
data_in[26] I
data_in[27] I
data_in[28] I
data_in[29] I
data_in[2] I
data_in[30] I
data_in[31] I
data_in[3] I
data_in[4] I
data_in[5] I
data_in[6] I
data_in[7] I
data_in[8] I
data_in[9] I
rst I

*D_NET *3 0.00119093
*CONN
*P acc[0] O
*I *1057:X O *D sky130_fd_sc_hd__buf_2
*CAP
1 acc[0] 0.000494805
2 *1057:X 0.000494805
3 acc[0] acc[27] 0
4 acc[0] acc[30] 0.000201325
*RES
1 *1057:X acc[0] 23.8754 
*END

*D_NET *4 0.000885024
*CONN
*P acc[10] O
*I *1058:X O *D sky130_fd_sc_hd__buf_2
*CAP
1 acc[10] 0.000438794
2 *1058:X 0.000438794
3 acc[10] acc[12] 0
4 acc[10] *1035:A 0
5 acc[10] *1058:A 7.43578e-06
*RES
1 *1058:X acc[10] 21.6393 
*END

*D_NET *5 0.0015221
*CONN
*P acc[11] O
*I *1059:X O *D sky130_fd_sc_hd__buf_2
*CAP
1 acc[11] 0.000641026
2 *1059:X 0.000641026
3 acc[11] *794:A 0.000229456
4 acc[11] *795:B 1.05947e-05
5 acc[11] *1035:A 0
6 acc[11] *1046:A 0
*RES
1 *1059:X acc[11] 24.5143 
*END

*D_NET *6 0.000867105
*CONN
*P acc[12] O
*I *1060:X O *D sky130_fd_sc_hd__buf_2
*CAP
1 acc[12] 0.000433553
2 *1060:X 0.000433553
3 acc[12] *1054:A 0
4 acc[10] acc[12] 0
*RES
1 *1060:X acc[12] 21.8893 
*END

*D_NET *7 0.000624313
*CONN
*P acc[13] O
*I *1061:X O *D sky130_fd_sc_hd__buf_2
*CAP
1 acc[13] 0.00022547
2 *1061:X 0.00022547
3 acc[13] acc[14] 0.000123363
4 acc[13] *1012:A 2.25951e-05
5 acc[13] *1061:A 2.11419e-05
6 acc[13] *338:19 6.27272e-06
*RES
1 *1061:X acc[13] 18.3955 
*END

*D_NET *8 0.000715842
*CONN
*P acc[14] O
*I *1062:X O *D sky130_fd_sc_hd__buf_2
*CAP
1 acc[14] 0.000200388
2 *1062:X 0.000200388
3 acc[14] *1053:A 3.71658e-05
4 acc[14] *1061:A 0.000115369
5 acc[14] *1062:A 3.91668e-05
6 acc[13] acc[14] 0.000123363
*RES
1 *1062:X acc[14] 19.4092 
*END

*D_NET *9 0.00146565
*CONN
*P acc[15] O
*I *1063:X O *D sky130_fd_sc_hd__buf_2
*CAP
1 acc[15] 0.00065047
2 *1063:X 0.00065047
3 acc[15] *848:B 6.47262e-05
4 acc[15] *849:B 9.99853e-05
5 acc[15] *1054:A 0
6 acc[15] *340:12 0
*RES
1 *1063:X acc[15] 25.2107 
*END

*D_NET *10 0.000538947
*CONN
*P acc[16] O
*I *1064:X O *D sky130_fd_sc_hd__buf_2
*CAP
1 acc[16] 0.000172967
2 *1064:X 0.000172967
3 acc[16] acc[18] 9.28688e-05
4 acc[16] *1055:A 7.67105e-05
5 acc[16] *1064:A 2.34337e-05
*RES
1 *1064:X acc[16] 18.4985 
*END

*D_NET *11 0.00067537
*CONN
*P acc[17] O
*I *1065:X O *D sky130_fd_sc_hd__buf_2
*CAP
1 acc[17] 0.000231338
2 *1065:X 0.000231338
3 acc[17] *935:A2 0
4 acc[17] *1051:A 8.57347e-05
5 acc[17] *1055:A 0
6 acc[17] *1056:A 4.68796e-05
7 acc[17] *342:8 8.00806e-05
*RES
1 *1065:X acc[17] 19.4092 
*END

*D_NET *12 0.000621955
*CONN
*P acc[18] O
*I *1066:X O *D sky130_fd_sc_hd__buf_2
*CAP
1 acc[18] 0.000236213
2 *1066:X 0.000236213
3 acc[18] *873:C1 0
4 acc[18] *1025:A 3.71658e-05
5 acc[18] *343:22 1.94945e-05
6 acc[16] acc[18] 9.28688e-05
*RES
1 *1066:X acc[18] 18.8021 
*END

*D_NET *13 0.00098361
*CONN
*P acc[19] O
*I *1067:X O *D sky130_fd_sc_hd__buf_2
*CAP
1 acc[19] 0.000417626
2 *1067:X 0.000417626
3 acc[19] acc[21] 0
4 acc[19] acc[22] 5.40197e-05
5 acc[19] *348:12 5.41609e-05
6 acc[19] *348:23 4.01768e-05
*RES
1 *1067:X acc[19] 22.2982 
*END

*D_NET *14 0.000723165
*CONN
*P acc[1] O
*I *1068:X O *D sky130_fd_sc_hd__buf_2
*CAP
1 acc[1] 0.000313858
2 *1068:X 0.000313858
3 acc[1] acc[3] 9.54485e-05
4 acc[1] acc[5] 0
*RES
1 *1068:X acc[1] 19.0183 
*END

*D_NET *15 0.000487226
*CONN
*P acc[20] O
*I *1069:X O *D sky130_fd_sc_hd__buf_2
*CAP
1 acc[20] 0.000189448
2 *1069:X 0.000189448
3 acc[20] *1025:A 0
4 acc[20] *1026:A 8.57347e-05
5 acc[20] *1028:A 2.25951e-05
*RES
1 *1069:X acc[20] 18.1949 
*END

*D_NET *16 0.000518629
*CONN
*P acc[21] O
*I *1070:X O *D sky130_fd_sc_hd__buf_2
*CAP
1 acc[21] 0.000227246
2 *1070:X 0.000227246
3 acc[21] acc[22] 2.25951e-05
4 acc[21] *1026:A 0
5 acc[21] *1029:A 3.19385e-05
6 acc[21] *1070:A 9.60337e-06
7 acc[19] acc[21] 0
*RES
1 *1070:X acc[21] 18.1949 
*END

*D_NET *17 0.000874216
*CONN
*P acc[22] O
*I *1071:X O *D sky130_fd_sc_hd__buf_2
*CAP
1 acc[22] 0.000384345
2 *1071:X 0.000384345
3 acc[22] *348:12 2.89114e-05
4 acc[19] acc[22] 5.40197e-05
5 acc[21] acc[22] 2.25951e-05
*RES
1 *1071:X acc[22] 22.1053 
*END

*D_NET *18 0.0013663
*CONN
*P acc[23] O
*I *1072:X O *D sky130_fd_sc_hd__buf_2
*CAP
1 acc[23] 0.000683148
2 *1072:X 0.000683148
3 acc[23] acc[25] 0
4 acc[23] *881:B 0
5 acc[23] *920:B 0
6 acc[23] *1031:A 0
7 acc[23] *1033:A 0
8 acc[23] *1074:A 0
*RES
1 *1072:X acc[23] 26.9071 
*END

*D_NET *19 0.00106608
*CONN
*P acc[24] O
*I *1073:X O *D sky130_fd_sc_hd__buf_2
*CAP
1 acc[24] 0.000381069
2 *1073:X 0.000381069
3 acc[24] *1032:A 0.000303941
4 acc[24] *1033:A 0
*RES
1 *1073:X acc[24] 24.0679 
*END

*D_NET *20 0.00110627
*CONN
*P acc[25] O
*I *1074:X O *D sky130_fd_sc_hd__buf_2
*CAP
1 acc[25] 0.000401164
2 *1074:X 0.000401164
3 acc[25] *1033:A 0.000303941
4 acc[23] acc[25] 0
*RES
1 *1074:X acc[25] 24.4786 
*END

*D_NET *21 0.000990337
*CONN
*P acc[26] O
*I *1075:X O *D sky130_fd_sc_hd__buf_2
*CAP
1 acc[26] 0.000495168
2 *1075:X 0.000495168
3 acc[26] *1032:A 0
4 acc[26] *1034:A 0
*RES
1 *1075:X acc[26] 23.6571 
*END

*D_NET *22 0.00107072
*CONN
*P acc[27] O
*I *1076:X O *D sky130_fd_sc_hd__buf_2
*CAP
1 acc[27] 0.00053536
2 *1076:X 0.00053536
3 acc[27] acc[30] 0
4 acc[0] acc[27] 0
*RES
1 *1076:X acc[27] 24.4786 
*END

*D_NET *23 0.000897583
*CONN
*P acc[28] O
*I *1077:X O *D sky130_fd_sc_hd__buf_2
*CAP
1 acc[28] 0.000246455
2 *1077:X 0.000246455
3 acc[28] acc[30] 0.000127036
4 acc[28] *1041:A 0.00012459
5 acc[28] *1057:A 0.000153047
*RES
1 *1077:X acc[28] 20.2325 
*END

*D_NET *24 0.000814586
*CONN
*P acc[29] O
*I *1078:X O *D sky130_fd_sc_hd__buf_2
*CAP
1 acc[29] 0.000279164
2 *1078:X 0.000279164
3 acc[29] acc[31] 0
4 acc[29] *1040:A 8.31618e-05
5 acc[29] *1041:A 0.000105461
6 acc[29] *1057:A 6.76337e-05
*RES
1 *1078:X acc[29] 19.0183 
*END

*D_NET *25 0.00055458
*CONN
*P acc[2] O
*I *1079:X O *D sky130_fd_sc_hd__buf_2
*CAP
1 acc[2] 0.000183128
2 *1079:X 0.000183128
3 acc[2] *1038:A 9.28756e-05
4 acc[2] *1039:A 9.54485e-05
5 acc[2] *143:8 0
*RES
1 *1079:X acc[2] 18.8021 
*END

*D_NET *26 0.00150669
*CONN
*P acc[30] O
*I *1080:X O *D sky130_fd_sc_hd__buf_2
*CAP
1 acc[30] 0.000501278
2 *1080:X 0.000501278
3 acc[30] *769:A 0
4 acc[30] *1010:RESET_B 7.83659e-05
5 acc[30] *1041:A 0
6 acc[30] *1057:A 8.15939e-05
7 acc[30] *1080:A 1.58163e-05
8 acc[0] acc[30] 0.000201325
9 acc[27] acc[30] 0
10 acc[28] acc[30] 0.000127036
*RES
1 *1080:X acc[30] 24.0202 
*END

*D_NET *27 0.000639739
*CONN
*P acc[31] O
*I *1081:X O *D sky130_fd_sc_hd__buf_2
*CAP
1 acc[31] 0.000204645
2 *1081:X 0.000204645
3 acc[31] *1024:A 0.000122017
4 acc[31] *1040:A 8.57347e-05
5 acc[31] *1057:A 2.26973e-05
6 acc[29] acc[31] 0
*RES
1 *1081:X acc[31] 18.4111 
*END

*D_NET *28 0.000497682
*CONN
*P acc[3] O
*I *1082:X O *D sky130_fd_sc_hd__buf_2
*CAP
1 acc[3] 0.000148089
2 *1082:X 0.000148089
3 acc[3] acc[5] 8.38509e-05
4 acc[3] *1068:A 2.22043e-05
5 acc[1] acc[3] 9.54485e-05
*RES
1 *1082:X acc[3] 18.1949 
*END

*D_NET *29 0.00123673
*CONN
*P acc[4] O
*I *1083:X O *D sky130_fd_sc_hd__buf_2
*CAP
1 acc[4] 0.000306955
2 *1083:X 0.000306955
3 acc[4] *1043:A 0.000130848
4 acc[4] *1044:A 0.000121474
5 acc[4] *1068:A 0.00011584
6 acc[4] *1082:A 0.000254653
*RES
1 *1083:X acc[4] 21.4468 
*END

*D_NET *30 0.000756788
*CONN
*P acc[5] O
*I *1084:X O *D sky130_fd_sc_hd__buf_2
*CAP
1 acc[5] 0.000241506
2 *1084:X 0.000241506
3 acc[5] *1044:A 0.000118901
4 acc[5] *1068:A 2.34337e-05
5 acc[5] *1082:A 4.75911e-05
6 acc[1] acc[5] 0
7 acc[3] acc[5] 8.38509e-05
*RES
1 *1084:X acc[5] 18.7147 
*END

*D_NET *31 0.000929988
*CONN
*P acc[6] O
*I *1085:X O *D sky130_fd_sc_hd__buf_2
*CAP
1 acc[6] 0.000425163
2 *1085:X 0.000425163
3 acc[6] *1045:A 0
4 acc[6] *1085:A 2.44318e-05
5 acc[6] *327:22 5.52302e-05
*RES
1 *1085:X acc[6] 21.6393 
*END

*D_NET *32 0.000935777
*CONN
*P acc[7] O
*I *1086:X O *D sky130_fd_sc_hd__buf_2
*CAP
1 acc[7] 0.000418367
2 *1086:X 0.000418367
3 acc[7] *1047:A 0
4 acc[7] *1086:A 4.38128e-05
5 acc[7] *365:16 5.52302e-05
*RES
1 *1086:X acc[7] 21.6393 
*END

*D_NET *33 0.00073762
*CONN
*P acc[8] O
*I *1087:X O *D sky130_fd_sc_hd__buf_2
*CAP
1 acc[8] 0.000232859
2 *1087:X 0.000232859
3 acc[8] *981:RESET_B 0
4 acc[8] *1027:A 0.000121474
5 acc[8] *1048:A 0.000118901
6 acc[8] *345:21 3.15282e-05
*RES
1 *1087:X acc[8] 19.0183 
*END

*D_NET *34 0.00101345
*CONN
*P acc[9] O
*I *1088:X O *D sky130_fd_sc_hd__buf_2
*CAP
1 acc[9] 0.000479645
2 *1088:X 0.000479645
3 acc[9] *1045:A 0
4 acc[9] *1049:A 0
5 acc[9] *1088:A 5.41609e-05
*RES
1 *1088:X acc[9] 22.7107 
*END

*D_NET *35 0.00927166
*CONN
*P clk I
*I *1012:A I *D sky130_fd_sc_hd__clkbuf_16
*CAP
1 clk 0.00380761
2 *1012:A 0.00380761
3 *1012:A *802:C 0.000172375
4 *1012:A *803:B 0.000173406
5 *1012:A *804:A1 0.000125724
6 *1012:A *837:B1 0.000150625
7 *1012:A *947:B 0
8 *1012:A *948:B 0
9 *1012:A *988:CLK 0
10 *1012:A *988:D 0
11 *1012:A *996:CLK 0
12 *1012:A *1050:A 8.3155e-05
13 *1012:A *121:12 0
14 *1012:A *124:23 5.92787e-05
15 *1012:A *125:12 0
16 *1012:A *127:21 5.84171e-05
17 *1012:A *131:12 0.000624946
18 *1012:A *335:22 0.000185914
19 acc[13] *1012:A 2.25951e-05
*RES
1 clk *1012:A 47.8132 
*END

*D_NET *36 0.00137469
*CONN
*P data_in[0] I
*I *1024:A I *D sky130_fd_sc_hd__clkbuf_1
*CAP
1 data_in[0] 0.000392121
2 *1024:A 0.000392121
3 *1024:A *1037:A 7.57293e-05
4 *1024:A *1038:A 0
5 *1024:A *1057:A 4.5841e-05
6 *1024:A *1078:A 0.000216997
7 *1024:A *359:10 0.000129868
8 acc[31] *1024:A 0.000122017
*RES
1 data_in[0] *1024:A 21.0559 
*END

*D_NET *37 0.000945639
*CONN
*P data_in[10] I
*I *1035:A I *D sky130_fd_sc_hd__clkbuf_1
*CAP
1 data_in[10] 0.000472819
2 *1035:A 0.000472819
3 acc[10] *1035:A 0
4 acc[11] *1035:A 0
*RES
1 data_in[10] *1035:A 22.6571 
*END

*D_NET *38 0.00124181
*CONN
*P data_in[11] I
*I *1046:A I *D sky130_fd_sc_hd__clkbuf_1
*CAP
1 data_in[11] 0.0005343
2 *1046:A 0.0005343
3 *1046:A *794:A 9.90367e-05
4 *1046:A *1049:A 0
5 *1046:A *328:8 5.52302e-05
6 *1046:A *328:23 9.69119e-06
7 *1046:A *335:22 9.25014e-06
8 acc[11] *1046:A 0
*RES
1 data_in[11] *1046:A 24.0143 
*END

*D_NET *39 0.000467313
*CONN
*P data_in[12] I
*I *1051:A I *D sky130_fd_sc_hd__buf_1
*CAP
1 data_in[12] 0.000179492
2 *1051:A 0.000179492
3 *1051:A *1052:A 2.25951e-05
4 *1051:A *1053:A 0
5 acc[17] *1051:A 8.57347e-05
*RES
1 data_in[12] *1051:A 18.4264 
*END

*D_NET *40 0.000789884
*CONN
*P data_in[13] I
*I *1052:A I *D sky130_fd_sc_hd__clkbuf_1
*CAP
1 data_in[13] 0.000253396
2 *1052:A 0.000253396
3 *1052:A *1053:A 0.000260497
4 *1052:A *1061:A 0
5 *1052:A *337:8 0
6 *1051:A *1052:A 2.25951e-05
*RES
1 data_in[13] *1052:A 21.0874 
*END

*D_NET *41 0.000997867
*CONN
*P data_in[14] I
*I *1053:A I *D sky130_fd_sc_hd__clkbuf_1
*CAP
1 data_in[14] 0.000293379
2 *1053:A 0.000293379
3 *1053:A *840:B 5.62995e-05
4 *1053:A *1061:A 0
5 *1053:A *350:6 5.71472e-05
6 acc[14] *1053:A 3.71658e-05
7 *1051:A *1053:A 0
8 *1052:A *1053:A 0.000260497
*RES
1 data_in[14] *1053:A 22.8161 
*END

*D_NET *42 0.00113471
*CONN
*P data_in[15] I
*I *1054:A I *D sky130_fd_sc_hd__buf_1
*CAP
1 data_in[15] 0.000472132
2 *1054:A 0.000472132
3 *1054:A *848:A 2.39313e-05
4 *1054:A *848:B 9.71197e-05
5 *1054:A *849:B 5.52302e-05
6 *1054:A *340:12 1.41642e-05
7 acc[12] *1054:A 0
8 acc[15] *1054:A 0
*RES
1 data_in[15] *1054:A 23.3893 
*END

*D_NET *43 0.000531701
*CONN
*P data_in[16] I
*I *1055:A I *D sky130_fd_sc_hd__buf_1
*CAP
1 data_in[16] 0.00019697
2 *1055:A 0.00019697
3 *1055:A *1056:A 4.68796e-05
4 *1055:A *1064:A 1.41706e-05
5 *1055:A *193:8 0
6 acc[16] *1055:A 7.67105e-05
7 acc[17] *1055:A 0
*RES
1 data_in[16] *1055:A 19.0336 
*END

*D_NET *44 0.00108827
*CONN
*P data_in[17] I
*I *1056:A I *D sky130_fd_sc_hd__buf_1
*CAP
1 data_in[17] 0.000385717
2 *1056:A 0.000385717
3 *1056:A *859:A 0.000133022
4 *1056:A *859:B 2.89114e-05
5 *1056:A *188:8 6.11433e-05
6 acc[17] *1056:A 4.68796e-05
7 *1055:A *1056:A 4.68796e-05
*RES
1 data_in[17] *1056:A 23.9417 
*END

*D_NET *45 0.00098748
*CONN
*P data_in[18] I
*I *1025:A I *D sky130_fd_sc_hd__buf_1
*CAP
1 data_in[18] 0.000307648
2 *1025:A 0.000307648
3 *1025:A *870:C1 0
4 *1025:A *1028:A 0.000260497
5 *1025:A *307:8 1.92905e-05
6 *1025:A *310:14 5.52302e-05
7 acc[18] *1025:A 3.71658e-05
8 acc[20] *1025:A 0
*RES
1 data_in[18] *1025:A 22.8161 
*END

*D_NET *46 0.000461851
*CONN
*P data_in[19] I
*I *1026:A I *D sky130_fd_sc_hd__buf_1
*CAP
1 data_in[19] 0.000176761
2 *1026:A 0.000176761
3 *1026:A *1029:A 2.25951e-05
4 *1026:A *1067:A 0
5 acc[20] *1026:A 8.57347e-05
6 acc[21] *1026:A 0
*RES
1 data_in[19] *1026:A 18.4264 
*END

*D_NET *47 0.00117171
*CONN
*P data_in[1] I
*I *1027:A I *D sky130_fd_sc_hd__clkbuf_1
*CAP
1 data_in[1] 0.000405451
2 *1027:A 0.000405451
3 *1027:A *813:A 0.000112777
4 *1027:A *813:B 0
5 *1027:A *1039:A 9.78867e-05
6 *1027:A *309:10 2.86754e-05
7 *1027:A *345:21 0
8 *1027:A *368:173 0
9 acc[8] *1027:A 0.000121474
*RES
1 data_in[1] *1027:A 20.1452 
*END

*D_NET *48 0.000789884
*CONN
*P data_in[20] I
*I *1028:A I *D sky130_fd_sc_hd__clkbuf_1
*CAP
1 data_in[20] 0.000253396
2 *1028:A 0.000253396
3 *1028:A *870:C1 0
4 acc[20] *1028:A 2.25951e-05
5 *1025:A *1028:A 0.000260497
*RES
1 data_in[20] *1028:A 21.0874 
*END

*D_NET *49 0.000630997
*CONN
*P data_in[21] I
*I *1029:A I *D sky130_fd_sc_hd__clkbuf_1
*CAP
1 data_in[21] 0.000288232
2 *1029:A 0.000288232
3 *1029:A *1070:A 0
4 acc[21] *1029:A 3.19385e-05
5 *1026:A *1029:A 2.25951e-05
*RES
1 data_in[21] *1029:A 21.0874 
*END

*D_NET *50 0.00119167
*CONN
*P data_in[22] I
*I *1030:A I *D sky130_fd_sc_hd__clkbuf_1
*CAP
1 data_in[22] 0.000581632
2 *1030:A 0.000581632
3 *1030:A *370:134 2.84109e-05
*RES
1 data_in[22] *1030:A 25.2107 
*END

*D_NET *51 0.00153622
*CONN
*P data_in[23] I
*I *1031:A I *D sky130_fd_sc_hd__clkbuf_1
*CAP
1 data_in[23] 0.000664152
2 *1031:A 0.000664152
3 *1031:A *881:B 0.000112418
4 *1031:A *313:8 5.33334e-05
5 *1031:A *370:55 4.21613e-05
6 *1031:A *370:134 0
7 acc[23] *1031:A 0
*RES
1 data_in[23] *1031:A 27.2643 
*END

*D_NET *52 0.00152867
*CONN
*P data_in[24] I
*I *1032:A I *D sky130_fd_sc_hd__clkbuf_1
*CAP
1 data_in[24] 0.000517061
2 *1032:A 0.000517061
3 *1032:A *920:A 0.000133464
4 *1032:A *1073:A 5.71472e-05
5 acc[24] *1032:A 0.000303941
6 acc[26] *1032:A 0
*RES
1 data_in[24] *1032:A 26.9786 
*END

*D_NET *53 0.001103
*CONN
*P data_in[25] I
*I *1033:A I *D sky130_fd_sc_hd__clkbuf_1
*CAP
1 data_in[25] 0.000389278
2 *1033:A 0.000389278
3 *1033:A *1074:A 1.02504e-05
4 *1033:A *370:106 1.02504e-05
5 acc[23] *1033:A 0
6 acc[24] *1033:A 0
7 acc[25] *1033:A 0.000303941
*RES
1 data_in[25] *1033:A 24.2643 
*END

*D_NET *54 0.0015666
*CONN
*P data_in[26] I
*I *1034:A I *D sky130_fd_sc_hd__buf_1
*CAP
1 data_in[26] 0.000609241
2 *1034:A 0.000609241
3 *1034:A *766:A 5.54547e-05
4 *1034:A *786:C1 5.52238e-05
5 *1034:A *1036:A 0
6 *1034:A *316:29 2.8266e-06
7 *1034:A *318:8 0.000228558
8 *1034:A *318:18 6.05161e-06
9 acc[26] *1034:A 0
*RES
1 data_in[26] *1034:A 26.5679 
*END

*D_NET *55 0.00135898
*CONN
*P data_in[27] I
*I *1036:A I *D sky130_fd_sc_hd__buf_1
*CAP
1 data_in[27] 0.000620962
2 *1036:A 0.000620962
3 *1036:A *766:A 8.07313e-05
4 *1036:A *786:C1 4.46186e-06
5 *1036:A *316:29 0
6 *1036:A *318:8 3.18676e-05
7 *1034:A *1036:A 0
*RES
1 data_in[27] *1036:A 26.1571 
*END

*D_NET *56 0.000595854
*CONN
*P data_in[28] I
*I *1037:A I *D sky130_fd_sc_hd__clkbuf_1
*CAP
1 data_in[28] 0.000199925
2 *1037:A 0.000199925
3 *1037:A *1038:A 8.57347e-05
4 *1037:A *319:16 3.454e-05
5 *1024:A *1037:A 7.57293e-05
*RES
1 data_in[28] *1037:A 19.3371 
*END

*D_NET *57 0.00157139
*CONN
*P data_in[29] I
*I *1038:A I *D sky130_fd_sc_hd__clkbuf_1
*CAP
1 data_in[29] 0.000474659
2 *1038:A 0.000474659
3 *1038:A *769:A 2.04305e-05
4 *1038:A *899:A 5.7661e-06
5 *1038:A *980:RESET_B 6.71336e-05
6 *1038:A *1011:RESET_B 1.65169e-05
7 *1038:A *1039:A 0
8 *1038:A *1057:A 0.000126446
9 *1038:A *319:16 5.33882e-05
10 *1038:A *333:25 8.61174e-05
11 *1038:A *356:18 1.24368e-05
12 *1038:A *371:32 5.52238e-05
13 acc[2] *1038:A 9.28756e-05
14 *1024:A *1038:A 0
15 *1037:A *1038:A 8.57347e-05
*RES
1 data_in[29] *1038:A 23.9468 
*END

*D_NET *58 0.000632277
*CONN
*P data_in[2] I
*I *1039:A I *D sky130_fd_sc_hd__clkbuf_1
*CAP
1 data_in[2] 0.000216899
2 *1039:A 0.000216899
3 *1039:A *810:A 5.14407e-06
4 acc[2] *1039:A 9.54485e-05
5 *1027:A *1039:A 9.78867e-05
6 *1038:A *1039:A 0
*RES
1 data_in[2] *1039:A 18.3391 
*END

*D_NET *59 0.000504093
*CONN
*P data_in[30] I
*I *1040:A I *D sky130_fd_sc_hd__clkbuf_1
*CAP
1 data_in[30] 0.000167598
2 *1040:A 0.000167598
3 *1040:A *1057:A 0
4 acc[29] *1040:A 8.31618e-05
5 acc[31] *1040:A 8.57347e-05
*RES
1 data_in[30] *1040:A 18.73 
*END

*D_NET *60 0.00185128
*CONN
*P data_in[31] I
*I *1041:A I *D sky130_fd_sc_hd__clkbuf_1
*CAP
1 data_in[31] 0.000691147
2 *1041:A 0.000691147
3 *1041:A *769:A 0
4 *1041:A *1007:RESET_B 0.000163065
5 *1041:A *1076:A 7.58664e-05
6 acc[28] *1041:A 0.00012459
7 acc[29] *1041:A 0.000105461
8 acc[30] *1041:A 0
*RES
1 data_in[31] *1041:A 22.0081 
*END

*D_NET *61 0.000540337
*CONN
*P data_in[3] I
*I *1042:A I *D sky130_fd_sc_hd__clkbuf_2
*CAP
1 data_in[3] 0.000156723
2 *1042:A 0.000156723
3 *1042:A *1043:A 8.38509e-05
4 *1042:A *1048:A 9.54485e-05
5 *1042:A *1068:A 4.75911e-05
*RES
1 data_in[3] *1042:A 18.4985 
*END

*D_NET *62 0.00139898
*CONN
*P data_in[4] I
*I *1043:A I *D sky130_fd_sc_hd__clkbuf_1
*CAP
1 data_in[4] 0.00047373
2 *1043:A 0.00047373
3 *1043:A *828:A 5.52302e-05
4 *1043:A *831:C 0
5 *1043:A *1048:A 0
6 *1043:A *1068:A 4.33002e-05
7 *1043:A *1082:A 1.17968e-05
8 *1043:A *1083:A 5.52302e-05
9 *1043:A *360:25 7.12625e-05
10 acc[4] *1043:A 0.000130848
11 *1042:A *1043:A 8.38509e-05
*RES
1 data_in[4] *1043:A 22.8926 
*END

*D_NET *63 0.00169631
*CONN
*P data_in[5] I
*I *1044:A I *D sky130_fd_sc_hd__clkbuf_1
*CAP
1 data_in[5] 0.000647258
2 *1044:A 0.000647258
3 *1044:A *959:B 6.30405e-05
4 *1044:A *985:RESET_B 2.11419e-05
5 *1044:A *369:52 7.72412e-05
6 acc[4] *1044:A 0.000121474
7 acc[5] *1044:A 0.000118901
*RES
1 data_in[5] *1044:A 21.0253 
*END

*D_NET *64 0.00218587
*CONN
*P data_in[6] I
*I *1045:A I *D sky130_fd_sc_hd__buf_1
*CAP
1 data_in[6] 0.000603833
2 *1045:A 0.000603833
3 *1045:A *820:A 2.82057e-05
4 *1045:A *823:A 1.97695e-05
5 *1045:A *833:B1 0.000446603
6 *1045:A *1085:A 0.000396898
7 *1045:A *332:58 0
8 *1045:A *364:14 8.673e-05
9 acc[6] *1045:A 0
10 acc[9] *1045:A 0
*RES
1 data_in[6] *1045:A 27.9071 
*END

*D_NET *65 0.00110597
*CONN
*P data_in[7] I
*I *1047:A I *D sky130_fd_sc_hd__clkbuf_1
*CAP
1 data_in[7] 0.000497622
2 *1047:A 0.000497622
3 *1047:A *821:B 4.46186e-06
4 *1047:A *151:16 0
5 *1047:A *329:6 5.30637e-06
6 *1047:A *365:12 0
7 *1047:A *365:16 0.00010096
8 acc[7] *1047:A 0
*RES
1 data_in[7] *1047:A 23.1929 
*END

*D_NET *66 0.00105208
*CONN
*P data_in[8] I
*I *1048:A I *D sky130_fd_sc_hd__clkbuf_1
*CAP
1 data_in[8] 0.000286155
2 *1048:A 0.000286155
3 *1048:A *983:RESET_B 0
4 *1048:A *1068:A 0.000112372
5 *1048:A *360:10 0.000153047
6 *1048:A *368:173 0
7 acc[8] *1048:A 0.000118901
8 *1042:A *1048:A 9.54485e-05
9 *1043:A *1048:A 0
*RES
1 data_in[8] *1048:A 20.8397 
*END

*D_NET *67 0.000965164
*CONN
*P data_in[9] I
*I *1049:A I *D sky130_fd_sc_hd__clkbuf_1
*CAP
1 data_in[9] 0.000482582
2 *1049:A 0.000482582
3 acc[9] *1049:A 0
4 *1046:A *1049:A 0
*RES
1 data_in[9] *1049:A 22.6571 
*END

*D_NET *68 0.000874669
*CONN
*P rst I
*I *1050:A I *D sky130_fd_sc_hd__dlymetal6s2s_1
*CAP
1 rst 0.000395757
2 *1050:A 0.000395757
3 *1050:A *338:10 0
4 *1012:A *1050:A 8.3155e-05
*RES
1 rst *1050:A 21.7657 
*END

*D_NET *69 0.00048244
*CONN
*I *980:RESET_B I *D sky130_fd_sc_hd__dfrtp_1
*I *771:Y O *D sky130_fd_sc_hd__inv_2
*CAP
1 *980:RESET_B 0.000110511
2 *771:Y 0.000110511
3 *980:RESET_B *970:B 0.000106403
4 *980:RESET_B *333:8 9.51514e-06
5 *980:RESET_B *333:25 7.83659e-05
6 *1038:A *980:RESET_B 6.71336e-05
*RES
1 *771:Y *980:RESET_B 21.0232 
*END

*D_NET *70 0.00021169
*CONN
*I *981:RESET_B I *D sky130_fd_sc_hd__dfrtp_1
*I *972:Y O *D sky130_fd_sc_hd__inv_2
*CAP
1 *981:RESET_B 5.33579e-05
2 *972:Y 5.33579e-05
3 *981:RESET_B *1068:A 0
4 *981:RESET_B *345:21 0
5 *981:RESET_B *368:173 0.000104974
6 acc[8] *981:RESET_B 0
*RES
1 *972:Y *981:RESET_B 19.6393 
*END

*D_NET *71 0.000322493
*CONN
*I *982:RESET_B I *D sky130_fd_sc_hd__dfrtp_1
*I *973:Y O *D sky130_fd_sc_hd__inv_2
*CAP
1 *982:RESET_B 0.000161247
2 *973:Y 0.000161247
3 *982:RESET_B *1079:A 0
4 *982:RESET_B *137:10 0
*RES
1 *973:Y *982:RESET_B 21.0232 
*END

*D_NET *72 0.000206275
*CONN
*I *983:RESET_B I *D sky130_fd_sc_hd__dfrtp_4
*I *974:Y O *D sky130_fd_sc_hd__inv_2
*CAP
1 *983:RESET_B 6.82389e-05
2 *974:Y 6.82389e-05
3 *983:RESET_B *360:10 0
4 *983:RESET_B *368:173 6.97972e-05
5 *1048:A *983:RESET_B 0
*RES
1 *974:Y *983:RESET_B 19.9429 
*END

*D_NET *73 0.000445214
*CONN
*I *984:RESET_B I *D sky130_fd_sc_hd__dfrtp_1
*I *975:Y O *D sky130_fd_sc_hd__inv_2
*CAP
1 *984:RESET_B 4.53801e-05
2 *975:Y 4.53801e-05
3 *984:RESET_B *829:A 0.000177227
4 *984:RESET_B *368:173 0.000177227
*RES
1 *975:Y *984:RESET_B 20.55 
*END

*D_NET *74 0.000374977
*CONN
*I *985:RESET_B I *D sky130_fd_sc_hd__dfrtp_1
*I *976:Y O *D sky130_fd_sc_hd__inv_2
*CAP
1 *985:RESET_B 8.97559e-05
2 *976:Y 8.97559e-05
3 *985:RESET_B *959:B 0
4 *985:RESET_B *369:52 0.000174324
5 *1044:A *985:RESET_B 2.11419e-05
*RES
1 *976:Y *985:RESET_B 20.55 
*END

*D_NET *75 0.000399325
*CONN
*I *986:RESET_B I *D sky130_fd_sc_hd__dfrtp_1
*I *977:Y O *D sky130_fd_sc_hd__inv_2
*CAP
1 *986:RESET_B 8.58713e-05
2 *977:Y 8.58713e-05
3 *986:RESET_B *332:58 0.000100823
4 *986:RESET_B *369:12 0.000126759
*RES
1 *977:Y *986:RESET_B 20.175 
*END

*D_NET *76 0.000367097
*CONN
*I *987:RESET_B I *D sky130_fd_sc_hd__dfrtp_1
*I *978:Y O *D sky130_fd_sc_hd__inv_2
*CAP
1 *987:RESET_B 0.000105543
2 *978:Y 0.000105543
3 *987:RESET_B *978:A 0.000144773
4 *987:RESET_B *365:12 1.12381e-05
*RES
1 *978:Y *987:RESET_B 11.4161 
*END

*D_NET *77 0.000336925
*CONN
*I *988:RESET_B I *D sky130_fd_sc_hd__dfrtp_1
*I *979:Y O *D sky130_fd_sc_hd__inv_2
*CAP
1 *988:RESET_B 0.000107793
2 *979:Y 0.000107793
3 *988:RESET_B *979:A 0.000121339
*RES
1 *979:Y *988:RESET_B 11.4161 
*END

*D_NET *78 0.000469846
*CONN
*I *989:RESET_B I *D sky130_fd_sc_hd__dfrtp_1
*I *748:Y O *D sky130_fd_sc_hd__inv_2
*CAP
1 *989:RESET_B 0.000119549
2 *748:Y 0.000119549
3 *989:RESET_B *979:A 0
4 *989:RESET_B *332:58 0.000175519
5 *989:RESET_B *368:173 5.52302e-05
*RES
1 *748:Y *989:RESET_B 21.0857 
*END

*D_NET *79 0.00061444
*CONN
*I *990:RESET_B I *D sky130_fd_sc_hd__dfrtp_1
*I *749:Y O *D sky130_fd_sc_hd__inv_2
*CAP
1 *990:RESET_B 0.000155284
2 *749:Y 0.000155284
3 *990:RESET_B *1060:A 0.000150625
4 *990:RESET_B *334:10 0
5 *990:RESET_B *368:74 0.000139913
6 *990:RESET_B *368:100 1.33343e-05
*RES
1 *749:Y *990:RESET_B 21.6036 
*END

*D_NET *80 0.00031364
*CONN
*I *991:RESET_B I *D sky130_fd_sc_hd__dfrtp_1
*I *750:Y O *D sky130_fd_sc_hd__inv_2
*CAP
1 *991:RESET_B 8.28263e-05
2 *750:Y 8.28263e-05
3 *991:RESET_B *953:A 6.78055e-06
4 *991:RESET_B *334:10 0.00010326
5 *991:RESET_B *368:82 3.79467e-05
*RES
1 *750:Y *991:RESET_B 20.175 
*END

*D_NET *81 0.000628706
*CONN
*I *992:RESET_B I *D sky130_fd_sc_hd__dfrtp_1
*I *751:Y O *D sky130_fd_sc_hd__inv_2
*CAP
1 *992:RESET_B 0.000113862
2 *751:Y 0.000113862
3 *992:RESET_B *755:A 0.00015234
4 *992:RESET_B *996:CLK 0.000150625
5 *992:RESET_B *167:6 9.80173e-05
*RES
1 *751:Y *992:RESET_B 21.1929 
*END

*D_NET *82 0.000169687
*CONN
*I *993:RESET_B I *D sky130_fd_sc_hd__dfrtp_1
*I *752:Y O *D sky130_fd_sc_hd__inv_2
*CAP
1 *993:RESET_B 8.48433e-05
2 *752:Y 8.48433e-05
3 *993:RESET_B *756:A 0
4 *993:RESET_B *337:8 0
*RES
1 *752:Y *993:RESET_B 19.6393 
*END

*D_NET *83 0.000263452
*CONN
*I *994:RESET_B I *D sky130_fd_sc_hd__dfrtp_1
*I *753:Y O *D sky130_fd_sc_hd__inv_2
*CAP
1 *994:RESET_B 0.000131726
2 *753:Y 0.000131726
3 *994:RESET_B *994:CLK 0
4 *994:RESET_B *994:D 0
5 *994:RESET_B *338:10 0
*RES
1 *753:Y *994:RESET_B 20.55 
*END

*D_NET *84 0.00109301
*CONN
*I *995:RESET_B I *D sky130_fd_sc_hd__dfrtp_1
*I *754:Y O *D sky130_fd_sc_hd__inv_2
*CAP
1 *995:RESET_B 0.000221456
2 *754:Y 0.000221456
3 *995:RESET_B *953:A 2.13847e-05
4 *995:RESET_B *953:B 0.000100163
5 *995:RESET_B *302:78 0.00047632
6 *995:RESET_B *340:8 1.83301e-05
7 *995:RESET_B *372:37 3.39021e-05
*RES
1 *754:Y *995:RESET_B 15.1125 
*END

*D_NET *85 0.000368978
*CONN
*I *996:RESET_B I *D sky130_fd_sc_hd__dfrtp_1
*I *755:Y O *D sky130_fd_sc_hd__inv_2
*CAP
1 *996:RESET_B 0.000174844
2 *755:Y 0.000174844
3 *996:RESET_B *755:A 1.92905e-05
4 *996:RESET_B *332:43 0
*RES
1 *755:Y *996:RESET_B 21.0857 
*END

*D_NET *86 0.000868095
*CONN
*I *997:RESET_B I *D sky130_fd_sc_hd__dfrtp_1
*I *756:Y O *D sky130_fd_sc_hd__inv_2
*CAP
1 *997:RESET_B 0.000320278
2 *756:Y 0.000320278
3 *997:RESET_B *756:A 0.000227539
*RES
1 *756:Y *997:RESET_B 14.0232 
*END

*D_NET *87 0.000410172
*CONN
*I *998:RESET_B I *D sky130_fd_sc_hd__dfrtp_1
*I *757:Y O *D sky130_fd_sc_hd__inv_2
*CAP
1 *998:RESET_B 0.000194202
2 *757:Y 0.000194202
3 *998:RESET_B *757:A 2.1768e-05
4 *998:RESET_B *198:18 0
*RES
1 *757:Y *998:RESET_B 21.1929 
*END

*D_NET *88 0.000416146
*CONN
*I *999:RESET_B I *D sky130_fd_sc_hd__dfrtp_1
*I *758:Y O *D sky130_fd_sc_hd__inv_2
*CAP
1 *999:RESET_B 0.000183265
2 *758:Y 0.000183265
3 *999:RESET_B *999:D 4.96155e-05
4 *999:RESET_B *310:14 0
*RES
1 *758:Y *999:RESET_B 21.4339 
*END

*D_NET *89 0.000277792
*CONN
*I *1000:RESET_B I *D sky130_fd_sc_hd__dfrtp_1
*I *759:Y O *D sky130_fd_sc_hd__inv_2
*CAP
1 *1000:RESET_B 0.000118005
2 *759:Y 0.000118005
3 *1000:RESET_B *346:14 4.17828e-05
*RES
1 *759:Y *1000:RESET_B 11.4161 
*END

*D_NET *90 0.00022721
*CONN
*I *1001:RESET_B I *D sky130_fd_sc_hd__dfrtp_1
*I *760:Y O *D sky130_fd_sc_hd__inv_2
*CAP
1 *1001:RESET_B 3.32706e-05
2 *760:Y 3.32706e-05
3 *1001:RESET_B *875:B 5.56943e-05
4 *1001:RESET_B *1067:A 0.000104974
*RES
1 *760:Y *1001:RESET_B 19.6393 
*END

*D_NET *91 0.000341873
*CONN
*I *1002:RESET_B I *D sky130_fd_sc_hd__dfrtp_1
*I *761:Y O *D sky130_fd_sc_hd__inv_2
*CAP
1 *1002:RESET_B 8.11086e-05
2 *761:Y 8.11086e-05
3 *1002:RESET_B *760:A 0.000179656
4 *1002:RESET_B *1002:D 0
*RES
1 *761:Y *1002:RESET_B 20.55 
*END

*D_NET *92 0.000501376
*CONN
*I *1003:RESET_B I *D sky130_fd_sc_hd__dfrtp_1
*I *762:Y O *D sky130_fd_sc_hd__inv_2
*CAP
1 *1003:RESET_B 0.000102592
2 *762:Y 0.000102592
3 *1003:RESET_B *882:A 0.000175512
4 *1003:RESET_B *370:32 9.47456e-05
5 *1003:RESET_B *370:36 6.05161e-06
6 *1003:RESET_B *370:55 1.98839e-05
*RES
1 *762:Y *1003:RESET_B 21.0857 
*END

*D_NET *93 0.000334015
*CONN
*I *1004:RESET_B I *D sky130_fd_sc_hd__dfrtp_1
*I *763:Y O *D sky130_fd_sc_hd__inv_2
*CAP
1 *1004:RESET_B 0.000132563
2 *763:Y 0.000132563
3 *1004:RESET_B *763:A 5.33005e-05
4 *1004:RESET_B *351:6 1.55885e-05
*RES
1 *763:Y *1004:RESET_B 11.4161 
*END

*D_NET *94 0.000323227
*CONN
*I *1005:RESET_B I *D sky130_fd_sc_hd__dfrtp_1
*I *764:Y O *D sky130_fd_sc_hd__inv_2
*CAP
1 *1005:RESET_B 9.86751e-05
2 *764:Y 9.86751e-05
3 *1005:RESET_B *1005:D 0.000125877
*RES
1 *764:Y *1005:RESET_B 11.4161 
*END

*D_NET *95 0.000349435
*CONN
*I *1006:RESET_B I *D sky130_fd_sc_hd__dfrtp_1
*I *765:Y O *D sky130_fd_sc_hd__inv_2
*CAP
1 *1006:RESET_B 5.08598e-05
2 *765:Y 5.08598e-05
3 *1006:RESET_B *315:10 0.000179656
4 *1006:RESET_B *370:63 6.80593e-05
*RES
1 *765:Y *1006:RESET_B 20.55 
*END

*D_NET *96 0.000453515
*CONN
*I *1007:RESET_B I *D sky130_fd_sc_hd__dfrtp_1
*I *766:Y O *D sky130_fd_sc_hd__inv_2
*CAP
1 *1007:RESET_B 0.000145225
2 *766:Y 0.000145225
3 *1007:RESET_B *769:A 0
4 *1007:RESET_B *1077:A 0
5 *1041:A *1007:RESET_B 0.000163065
*RES
1 *766:Y *1007:RESET_B 21.0857 
*END

*D_NET *97 0.000181146
*CONN
*I *1008:RESET_B I *D sky130_fd_sc_hd__dfrtp_1
*I *767:Y O *D sky130_fd_sc_hd__inv_2
*CAP
1 *1008:RESET_B 6.2726e-05
2 *767:Y 6.2726e-05
3 *1008:RESET_B *767:A 0
4 *1008:RESET_B *982:CLK 5.56943e-05
*RES
1 *767:Y *1008:RESET_B 19.6393 
*END

*D_NET *98 0.000531844
*CONN
*I *1009:RESET_B I *D sky130_fd_sc_hd__dfrtp_1
*I *768:Y O *D sky130_fd_sc_hd__inv_2
*CAP
1 *1009:RESET_B 0.000237772
2 *768:Y 0.000237772
3 *1009:RESET_B *980:CLK 5.62995e-05
4 *1009:RESET_B *305:45 0
5 *1009:RESET_B *371:24 0
*RES
1 *768:Y *1009:RESET_B 21.9071 
*END

*D_NET *99 0.000628891
*CONN
*I *1010:RESET_B I *D sky130_fd_sc_hd__dfrtp_1
*I *769:Y O *D sky130_fd_sc_hd__inv_2
*CAP
1 *1010:RESET_B 0.000115334
2 *769:Y 0.000115334
3 *1010:RESET_B *912:A 0.000148374
4 *1010:RESET_B *1057:A 2.34637e-05
5 *1010:RESET_B *1080:A 0.000112875
6 *1010:RESET_B *358:10 3.51442e-05
7 acc[30] *1010:RESET_B 7.83659e-05
*RES
1 *769:Y *1010:RESET_B 22.0679 
*END

*D_NET *100 0.000532063
*CONN
*I *1011:RESET_B I *D sky130_fd_sc_hd__dfrtp_1
*I *770:Y O *D sky130_fd_sc_hd__inv_2
*CAP
1 *1011:RESET_B 0.000163838
2 *770:Y 0.000163838
3 *1011:RESET_B *1057:A 0.000147211
4 *1011:RESET_B *319:16 3.69697e-05
5 *1011:RESET_B *371:32 3.69047e-06
6 *1038:A *1011:RESET_B 1.65169e-05
*RES
1 *770:Y *1011:RESET_B 21.1929 
*END

*D_NET *101 0.00333061
*CONN
*I *909:C1 I *D sky130_fd_sc_hd__o211a_1
*I *907:A1 I *D sky130_fd_sc_hd__a31o_1
*I *774:A I *D sky130_fd_sc_hd__nand2_1
*I *902:A I *D sky130_fd_sc_hd__nand2_1
*I *772:Y O *D sky130_fd_sc_hd__nand2_1
*CAP
1 *909:C1 0.000270899
2 *907:A1 0.000108933
3 *774:A 8.77013e-05
4 *902:A 0
5 *772:Y 0
6 *101:40 0.000594167
7 *101:18 0.000434936
8 *101:4 0.000561569
9 *774:A *226:12 5.49561e-05
10 *774:A *226:21 1.40034e-05
11 *907:A1 *907:A3 0.000181803
12 *907:A1 *908:B 5.52302e-05
13 *907:A1 *913:B 4.27437e-05
14 *909:C1 *907:A3 3.30237e-05
15 *909:C1 *909:A1 0
16 *909:C1 *909:A2 1.78353e-05
17 *909:C1 *228:25 2.27416e-05
18 *909:C1 *305:77 2.94103e-05
19 *101:18 *773:A 2.47724e-05
20 *101:18 *774:B 0.000123031
21 *101:18 *903:B 0.000102545
22 *101:18 *226:12 5.52238e-05
23 *101:18 *228:25 0
24 *101:18 *305:41 2.72859e-05
25 *101:18 *305:73 1.76578e-05
26 *101:18 *355:19 9.60939e-05
27 *101:40 *909:A2 4.1331e-06
28 *101:40 *228:25 0.000106498
29 *101:40 *305:77 0.000175795
30 *101:40 *355:19 8.76257e-05
*RES
1 *772:Y *101:4 9.3 
2 *101:4 *101:18 15.4464 
3 *101:18 *902:A 9.3 
4 *101:18 *774:A 11.5143 
5 *101:4 *101:40 9.82143 
6 *101:40 *907:A1 16.3893 
7 *101:40 *909:C1 17.8536 
*END

*D_NET *102 0.000737207
*CONN
*I *774:B I *D sky130_fd_sc_hd__nand2_1
*I *773:X O *D sky130_fd_sc_hd__or2_1
*CAP
1 *774:B 0.000213358
2 *773:X 0.000213358
3 *774:B *903:B 7.6644e-05
4 *774:B *103:12 0.000102545
5 *774:B *305:41 8.27184e-06
6 *101:18 *774:B 0.000123031
*RES
1 *773:X *774:B 31.0107 
*END

*D_NET *103 0.00178892
*CONN
*I *897:C1 I *D sky130_fd_sc_hd__a311o_1
*I *898:A I *D sky130_fd_sc_hd__xnor2_1
*I *774:Y O *D sky130_fd_sc_hd__nand2_1
*CAP
1 *897:C1 0.000101127
2 *898:A 2.32384e-05
3 *774:Y 0.000467872
4 *103:12 0.000592238
5 *897:C1 *897:A3 2.82057e-05
6 *897:C1 *897:B1 1.02504e-05
7 *897:C1 *898:B 8.82021e-05
8 *897:C1 *1019:A 0
9 *898:A *1016:A 2.89016e-05
10 *103:12 *903:B 2.59093e-05
11 *103:12 *1008:D 1.92789e-05
12 *103:12 *1016:A 0.000102207
13 *103:12 *305:8 0.000158772
14 *103:12 *305:41 4.01768e-05
15 *774:B *103:12 0.000102545
*RES
1 *774:Y *103:12 28.5857 
2 *103:12 *898:A 9.83571 
3 *103:12 *897:C1 20.55 
*END

*D_NET *104 0.00164076
*CONN
*I *783:A I *D sky130_fd_sc_hd__or2_1
*I *777:A I *D sky130_fd_sc_hd__nand2_1
*I *918:B1_N I *D sky130_fd_sc_hd__a21bo_1
*I *775:Y O *D sky130_fd_sc_hd__nand2_1
*CAP
1 *783:A 0.000153464
2 *777:A 2.06112e-05
3 *918:B1_N 0
4 *775:Y 0.000228123
5 *104:19 0.000333161
6 *104:12 0.000387208
7 *777:A *777:B 3.99614e-06
8 *783:A *112:8 0
9 *104:12 *775:A 0.000117956
10 *104:12 *776:B 1.5424e-05
11 *104:12 *918:A2 0.000180764
12 *104:19 *776:B 5.71472e-05
13 *104:19 *777:B 5.71472e-05
14 *104:19 *918:A1 8.57535e-05
*RES
1 *775:Y *104:12 14.1036 
2 *104:12 *918:B1_N 9.3 
3 *104:12 *104:19 3.41071 
4 *104:19 *777:A 9.72857 
5 *104:19 *783:A 11.9071 
*END

*D_NET *105 0.00102089
*CONN
*I *777:B I *D sky130_fd_sc_hd__nand2_1
*I *918:A1 I *D sky130_fd_sc_hd__a21bo_1
*I *776:X O *D sky130_fd_sc_hd__or2_1
*CAP
1 *777:B 3.7438e-05
2 *918:A1 0.000123773
3 *776:X 0
4 *105:4 0.000161211
5 *918:A1 *775:A 0.000344996
6 *918:A1 *776:B 0.00018372
7 *918:A1 *918:A2 2.28499e-05
8 *777:A *777:B 3.99614e-06
9 *104:19 *777:B 5.71472e-05
10 *104:19 *918:A1 8.57535e-05
*RES
1 *776:X *105:4 9.3 
2 *105:4 *918:A1 13.55 
3 *105:4 *777:B 10.2643 
*END

*D_NET *106 0.0010808
*CONN
*I *782:A I *D sky130_fd_sc_hd__or2_1
*I *917:A I *D sky130_fd_sc_hd__xnor2_1
*I *777:Y O *D sky130_fd_sc_hd__nand2_1
*CAP
1 *782:A 0.000179219
2 *917:A 0.000169414
3 *777:Y 8.77027e-05
4 *106:10 0.000436336
5 *782:A *782:B 5.33005e-05
6 *917:A *370:80 9.90367e-05
7 *106:10 *782:B 0
8 *106:10 *314:10 5.57914e-05
*RES
1 *777:Y *106:10 20.2464 
2 *106:10 *917:A 12.3 
3 *106:10 *782:A 12.3 
*END

*D_NET *107 0.00220025
*CONN
*I *784:A I *D sky130_fd_sc_hd__nor2_1
*I *922:A I *D sky130_fd_sc_hd__xor2_1
*I *788:A1 I *D sky130_fd_sc_hd__o21a_1
*I *778:Y O *D sky130_fd_sc_hd__xnor2_1
*CAP
1 *784:A 8.60485e-05
2 *922:A 0
3 *788:A1 0.000211285
4 *778:Y 0.000136709
5 *107:25 0.000144482
6 *107:12 0.000406428
7 *784:A *784:B 0.00020823
8 *784:A *786:B1 0.000276211
9 *784:A *1007:D 4.88637e-05
10 *788:A1 *787:A 0.00022287
11 *788:A1 *921:C 0
12 *788:A1 *116:12 6.75007e-05
13 *107:12 *787:A 6.75007e-05
14 *107:12 *921:A 0
15 *107:12 *921:C 1.19309e-05
16 *107:12 *922:B 0.0001399
17 *107:25 *784:B 1.74352e-05
18 *107:25 *786:B1 2.44318e-05
19 *107:25 *922:B 0.000130419
*RES
1 *778:Y *107:12 21.3 
2 *107:12 *788:A1 23.2821 
3 *107:12 *107:25 1.76786 
4 *107:25 *922:A 9.3 
5 *107:25 *784:A 13.1571 
*END

*D_NET *108 0.00107481
*CONN
*I *781:A I *D sky130_fd_sc_hd__nand2_1
*I *921:A I *D sky130_fd_sc_hd__and3_1
*I *779:Y O *D sky130_fd_sc_hd__nand2_1
*CAP
1 *781:A 7.57845e-05
2 *921:A 0.000164989
3 *779:Y 0
4 *108:6 0.000240774
5 *781:A *766:A 9.60875e-05
6 *781:A *780:A 4.56437e-05
7 *781:A *316:29 3.63587e-05
8 *781:A *353:20 5.58941e-05
9 *921:A *780:A 0.000153054
10 *921:A *921:C 5.80706e-06
11 *921:A *1073:A 0
12 *921:A *353:16 4.58835e-05
13 *921:A *353:20 0.000154529
14 *107:12 *921:A 0
*RES
1 *779:Y *108:6 13.8 
2 *108:6 *921:A 17.5679 
3 *108:6 *781:A 15.9071 
*END

*D_NET *109 0.000450502
*CONN
*I *781:B I *D sky130_fd_sc_hd__nand2_1
*I *780:X O *D sky130_fd_sc_hd__or2_1
*CAP
1 *781:B 0.00014291
2 *780:X 0.00014291
3 *781:B *780:A 8.96223e-05
4 *781:B *1073:A 7.50601e-05
*RES
1 *780:X *781:B 30.4929 
*END

*D_NET *110 0.00348633
*CONN
*I *783:B I *D sky130_fd_sc_hd__or2_1
*I *782:B I *D sky130_fd_sc_hd__or2_1
*I *920:A I *D sky130_fd_sc_hd__xnor2_1
*I *781:Y O *D sky130_fd_sc_hd__nand2_1
*CAP
1 *783:B 0
2 *782:B 0.000166246
3 *920:A 0.000423586
4 *781:Y 6.81295e-05
5 *110:23 0.000336305
6 *110:6 0.000661774
7 *782:B *1073:A 0.000272672
8 *782:B *314:10 0
9 *920:A *766:A 0.000466926
10 *920:A *920:B 7.77652e-05
11 *920:A *1073:A 5.52238e-05
12 *920:A *370:55 0.00010776
13 *920:A *370:106 9.90431e-05
14 *110:6 *766:A 0.00016834
15 *110:6 *1073:A 5.33005e-05
16 *110:23 *1073:A 0.000342495
17 *110:23 *314:10 0
18 *110:23 *315:10 0
19 *782:A *782:B 5.33005e-05
20 *1032:A *920:A 0.000133464
21 *106:10 *782:B 0
*RES
1 *781:Y *110:6 11.0679 
2 *110:6 *920:A 19.7464 
3 *110:6 *110:23 8.875 
4 *110:23 *782:B 17.8 
5 *110:23 *783:B 13.8 
*END

*D_NET *111 0.00096567
*CONN
*I *919:B1 I *D sky130_fd_sc_hd__a21o_1
*I *788:A2 I *D sky130_fd_sc_hd__o21a_1
*I *782:X O *D sky130_fd_sc_hd__or2_1
*CAP
1 *919:B1 0
2 *788:A2 0.000172679
3 *782:X 0.000170332
4 *111:12 0.000343011
5 *788:A2 *897:A2 2.89016e-05
6 *788:A2 *116:12 4.38128e-05
7 *788:A2 *116:18 9.90431e-05
8 *788:A2 *117:18 2.59355e-05
9 *111:12 *897:A2 3.34295e-05
10 *111:12 *897:A3 9.25014e-06
11 *111:12 *921:C 3.92757e-05
12 *111:12 *1073:A 0
13 *111:12 *116:12 0
*RES
1 *782:X *111:12 20.8893 
2 *111:12 *788:A2 12.7286 
3 *111:12 *919:B1 9.3 
*END

*D_NET *112 0.00168905
*CONN
*I *784:B I *D sky130_fd_sc_hd__nor2_1
*I *921:B I *D sky130_fd_sc_hd__and3_1
*I *783:X O *D sky130_fd_sc_hd__or2_1
*CAP
1 *784:B 0.000444287
2 *921:B 0
3 *783:X 0.000160517
4 *112:8 0.000604803
5 *784:B *921:C 1.43625e-06
6 *784:B *922:B 0.000169373
7 *784:B *1007:D 5.71472e-05
8 *112:8 *921:C 6.05161e-06
9 *112:8 *922:B 1.97695e-05
10 *783:A *112:8 0
11 *784:A *784:B 0.00020823
12 *107:25 *784:B 1.74352e-05
*RES
1 *783:X *112:8 12.2107 
2 *112:8 *921:B 9.3 
3 *112:8 *784:B 16.7464 
*END

*D_NET *113 0.00137778
*CONN
*I *786:B1 I *D sky130_fd_sc_hd__a211o_1
*I *784:Y O *D sky130_fd_sc_hd__nor2_1
*CAP
1 *786:B1 0.000395533
2 *784:Y 0.000395533
3 *786:B1 *786:A2 1.31516e-05
4 *786:B1 *786:C1 7.73662e-05
5 *786:B1 *787:A 0
6 *786:B1 *318:18 0.000195547
7 *784:A *786:B1 0.000276211
8 *107:25 *786:B1 2.44318e-05
*RES
1 *784:Y *786:B1 34.975 
*END

*D_NET *114 0.000380644
*CONN
*I *786:C1 I *D sky130_fd_sc_hd__a211o_1
*I *785:X O *D sky130_fd_sc_hd__o211a_1
*CAP
1 *786:C1 0.000107345
2 *785:X 0.000107345
3 *786:C1 *766:A 2.89016e-05
4 *786:B1 *786:C1 7.73662e-05
5 *1034:A *786:C1 5.52238e-05
6 *1036:A *786:C1 4.46186e-06
*RES
1 *785:X *786:C1 30.0821 
*END

*D_NET *115 0.00116226
*CONN
*I *787:A I *D sky130_fd_sc_hd__inv_2
*I *786:X O *D sky130_fd_sc_hd__a211o_1
*CAP
1 *787:A 0.000333027
2 *786:X 0.000333027
3 *787:A *766:A 5.52238e-05
4 *787:A *785:B1 0.000150611
5 *787:A *921:C 0
6 *787:A *353:20 0
7 *786:B1 *787:A 0
8 *788:A1 *787:A 0.00022287
9 *107:12 *787:A 6.75007e-05
*RES
1 *786:X *787:A 34.9393 
*END

*D_NET *116 0.00240313
*CONN
*I *788:B1 I *D sky130_fd_sc_hd__o21a_1
*I *896:A1 I *D sky130_fd_sc_hd__a31oi_1
*I *897:A1 I *D sky130_fd_sc_hd__a311o_1
*I *787:Y O *D sky130_fd_sc_hd__inv_2
*CAP
1 *788:B1 0
2 *896:A1 0.00043019
3 *897:A1 0.000109044
4 *787:Y 9.4605e-05
5 *116:18 0.000671959
6 *116:12 0.00022733
7 *896:A1 *789:A 4.23858e-05
8 *896:A1 *896:B1 0.000120227
9 *896:A1 *898:B 0.0001399
10 *896:A1 *117:18 0.000135028
11 *897:A1 *789:A 0
12 *897:A1 *896:B1 0
13 *897:A1 *897:A2 6.8646e-06
14 *897:A1 *897:A3 6.49391e-05
15 *897:A1 *117:18 7.0528e-05
16 *116:12 *897:A2 0
17 *116:12 *921:C 0
18 *116:18 *897:A2 3.66599e-05
19 *116:18 *117:18 4.31104e-05
20 *788:A1 *116:12 6.75007e-05
21 *788:A2 *116:12 4.38128e-05
22 *788:A2 *116:18 9.90431e-05
23 *111:12 *116:12 0
*RES
1 *787:Y *116:12 20.4786 
2 *116:12 *116:18 7.39286 
3 *116:18 *897:A1 16.6214 
4 *116:18 *896:A1 19.9964 
5 *116:12 *788:B1 9.3 
*END

*D_NET *117 0.00149413
*CONN
*I *897:B1 I *D sky130_fd_sc_hd__a311o_1
*I *896:B1 I *D sky130_fd_sc_hd__a31oi_1
*I *788:X O *D sky130_fd_sc_hd__o21a_1
*CAP
1 *897:B1 3.72324e-05
2 *896:B1 0.000113576
3 *788:X 0.00017514
4 *117:18 0.000325948
5 *896:B1 *789:A 0.000112219
6 *896:B1 *898:B 0.0001399
7 *897:B1 *897:A3 5.66157e-05
8 *897:B1 *898:B 1.46624e-05
9 *117:18 *897:A2 0.000103748
10 *117:18 *897:A3 1.00073e-05
11 *788:A2 *117:18 2.59355e-05
12 *896:A1 *896:B1 0.000120227
13 *896:A1 *117:18 0.000135028
14 *897:A1 *896:B1 0
15 *897:A1 *117:18 7.0528e-05
16 *897:C1 *897:B1 1.02504e-05
17 *116:18 *117:18 4.31104e-05
*RES
1 *788:X *117:18 22.1929 
2 *117:18 *896:B1 12.8714 
3 *117:18 *897:B1 19.3625 
*END

*D_NET *118 0.00424447
*CONN
*I *791:A I *D sky130_fd_sc_hd__nand2_1
*I *897:A2 I *D sky130_fd_sc_hd__a311o_1
*I *919:A1 I *D sky130_fd_sc_hd__a21o_1
*I *916:A I *D sky130_fd_sc_hd__nand2_1
*I *896:A2 I *D sky130_fd_sc_hd__a31oi_1
*I *789:Y O *D sky130_fd_sc_hd__nand2_1
*CAP
1 *791:A 0
2 *897:A2 0.000250069
3 *919:A1 0
4 *916:A 0
5 *896:A2 0
6 *789:Y 0.00018137
7 *118:34 0.000606711
8 *118:25 0.000578927
9 *118:17 0.000350144
10 *118:6 0.000309229
11 *897:A2 *897:A3 0.000238125
12 *118:6 *789:A 0.000225148
13 *118:17 *789:A 8.04221e-05
14 *118:17 *790:A 5.71472e-05
15 *118:17 *791:B 5.71472e-05
16 *118:17 *1015:A 0.000361788
17 *118:17 *224:8 5.91367e-05
18 *118:25 *915:A 0
19 *118:25 *240:10 2.44318e-05
20 *118:25 *370:80 0
21 *118:34 *897:A3 5.71472e-05
22 *118:34 *916:B 0.000137983
23 *118:34 *224:21 0.000446603
24 *118:34 *240:10 1.33343e-05
25 *788:A2 *897:A2 2.89016e-05
26 *897:A1 *897:A2 6.8646e-06
27 *111:12 *897:A2 3.34295e-05
28 *116:12 *897:A2 0
29 *116:18 *897:A2 3.66599e-05
30 *117:18 *897:A2 0.000103748
*RES
1 *789:Y *118:6 11.8893 
2 *118:6 *896:A2 9.3 
3 *118:6 *118:17 4.67857 
4 *118:17 *118:25 12.8036 
5 *118:25 *916:A 9.3 
6 *118:25 *118:34 7.125 
7 *118:34 *919:A1 9.3 
8 *118:34 *897:A2 24.0143 
9 *118:17 *791:A 9.3 
*END

*D_NET *119 0.000104357
*CONN
*I *791:B I *D sky130_fd_sc_hd__nand2_1
*I *790:X O *D sky130_fd_sc_hd__or2_1
*CAP
1 *791:B 7.67105e-06
2 *790:X 7.67105e-06
3 *791:B *224:8 3.18676e-05
4 *118:17 *791:B 5.71472e-05
*RES
1 *790:X *791:B 19.1357 
*END

*D_NET *120 0.00326517
*CONN
*I *914:A I *D sky130_fd_sc_hd__and3_1
*I *895:B1 I *D sky130_fd_sc_hd__a21o_1
*I *894:B1 I *D sky130_fd_sc_hd__a21oi_1
*I *791:Y O *D sky130_fd_sc_hd__nand2_1
*CAP
1 *914:A 0.00012862
2 *895:B1 0.000187077
3 *894:B1 0.000280021
4 *791:Y 0.00040679
5 *120:10 0.000523416
6 *120:8 0.000591728
7 *894:B1 *915:A 1.32552e-05
8 *894:B1 *1004:CLK 0.000154027
9 *894:B1 *1004:D 0
10 *895:B1 *224:8 0.000224356
11 *895:B1 *304:6 0.000139907
12 *914:A *914:B 0
13 *914:A *915:A 0
14 *120:8 *224:8 0.000615969
15 *120:10 *914:B 0
16 *120:10 *1004:D 0
*RES
1 *791:Y *120:8 19.675 
2 *120:8 *120:10 1.03571 
3 *120:10 *894:B1 18.8714 
4 *120:10 *895:B1 18.4429 
5 *120:8 *914:A 16.05 
*END

*D_NET *121 0.00142343
*CONN
*I *804:B1 I *D sky130_fd_sc_hd__o21a_1
*I *795:A I *D sky130_fd_sc_hd__nand2_1
*I *792:Y O *D sky130_fd_sc_hd__nand2_1
*CAP
1 *804:B1 0
2 *795:A 8.99921e-05
3 *792:Y 0.00022199
4 *121:12 0.000311982
5 *795:A *796:A 1.21436e-05
6 *795:A *804:A2 5.52302e-05
7 *795:A *986:CLK 9.6087e-05
8 *795:A *125:6 0.00018372
9 *121:12 *793:A 0.00014183
10 *121:12 *804:A1 4.48206e-05
11 *121:12 *125:12 0.000224599
12 *121:12 *335:8 2.89114e-05
13 *121:12 *335:12 1.21289e-05
14 *1012:A *121:12 0
*RES
1 *792:Y *121:12 23.3357 
2 *121:12 *795:A 12.3357 
3 *121:12 *804:B1 9.3 
*END

*D_NET *122 0.000406053
*CONN
*I *804:A1 I *D sky130_fd_sc_hd__o21a_1
*I *793:Y O *D sky130_fd_sc_hd__nor2_1
*CAP
1 *804:A1 9.01421e-05
2 *793:Y 9.01421e-05
3 *804:A1 *335:12 5.52238e-05
4 *1012:A *804:A1 0.000125724
5 *121:12 *804:A1 4.48206e-05
*RES
1 *793:Y *804:A1 29.7786 
*END

*D_NET *123 0.000536588
*CONN
*I *795:B I *D sky130_fd_sc_hd__nand2_1
*I *794:X O *D sky130_fd_sc_hd__or2_1
*CAP
1 *795:B 0.00025081
2 *794:X 0.00025081
3 *795:B *125:12 2.43739e-05
4 *795:B *317:10 0
5 *795:B *335:22 0
6 acc[11] *795:B 1.05947e-05
*RES
1 *794:X *795:B 30.9036 
*END

*D_NET *124 0.00563388
*CONN
*I *803:A I *D sky130_fd_sc_hd__or3_1
*I *802:A I *D sky130_fd_sc_hd__or3_1
*I *953:A I *D sky130_fd_sc_hd__xnor2_1
*I *795:Y O *D sky130_fd_sc_hd__nand2_1
*CAP
1 *803:A 0.000204149
2 *802:A 4.95697e-05
3 *953:A 0.000681422
4 *795:Y 0
5 *124:23 0.000833662
6 *124:4 0.00126137
7 *802:A *127:10 5.52302e-05
8 *802:A *127:21 2.14658e-05
9 *802:A *368:142 9.76261e-05
10 *803:A *801:B 4.66203e-05
11 *803:A *803:B 0.000344932
12 *803:A *803:C 0.000311495
13 *803:A *950:B1_N 0.00010326
14 *803:A *127:21 0.000227083
15 *803:A *367:10 0
16 *953:A *750:A 2.27416e-05
17 *953:A *797:B 1.00073e-05
18 *953:A *953:B 0.000103129
19 *953:A *125:6 0.000404707
20 *953:A *372:37 4.22676e-05
21 *124:23 *804:A2 0.000131439
22 *124:23 *986:CLK 3.97685e-05
23 *124:23 *125:6 0.00014183
24 *124:23 *127:21 5.66157e-05
25 *124:23 *328:23 0.000132452
26 *124:23 *331:10 0
27 *124:23 *335:22 0.000223599
28 *991:RESET_B *953:A 6.78055e-06
29 *995:RESET_B *953:A 2.13847e-05
30 *1012:A *124:23 5.92787e-05
*RES
1 *795:Y *124:4 9.3 
2 *124:4 *953:A 19.0857 
3 *124:4 *124:23 14.9821 
4 *124:23 *802:A 15.1571 
5 *124:23 *803:A 21.2107 
*END

*D_NET *125 0.00271778
*CONN
*I *804:A2 I *D sky130_fd_sc_hd__o21a_1
*I *798:A I *D sky130_fd_sc_hd__nand2_1
*I *952:B1_N I *D sky130_fd_sc_hd__a21bo_1
*I *796:Y O *D sky130_fd_sc_hd__nand2_1
*CAP
1 *804:A2 2.1497e-05
2 *798:A 3.44431e-05
3 *952:B1_N 4.80744e-05
4 *796:Y 9.61785e-05
5 *125:12 0.000286591
6 *125:6 0.000321749
7 *798:A *798:B 0
8 *798:A *127:10 4.27935e-05
9 *798:A *368:142 2.89114e-05
10 *804:A2 *986:CLK 3.48705e-05
11 *952:B1_N *798:B 5.52238e-05
12 *952:B1_N *127:10 1.24368e-05
13 *952:B1_N *368:142 1.98839e-05
14 *125:6 *796:A 0.000186662
15 *125:6 *797:B 1.74352e-05
16 *125:6 *126:12 1.72894e-05
17 *125:12 *838:B1 0.000320031
18 *125:12 *986:CLK 7.80714e-06
19 *125:12 *131:12 0
20 *795:A *804:A2 5.52302e-05
21 *795:A *125:6 0.00018372
22 *795:B *125:12 2.43739e-05
23 *953:A *125:6 0.000404707
24 *1012:A *125:12 0
25 *121:12 *125:12 0.000224599
26 *124:23 *804:A2 0.000131439
27 *124:23 *125:6 0.00014183
*RES
1 *796:Y *125:6 14.3536 
2 *125:6 *125:12 14.2857 
3 *125:12 *952:B1_N 10.2464 
4 *125:12 *798:A 10.2643 
5 *125:6 *804:A2 10.6571 
*END

*D_NET *126 0.00106294
*CONN
*I *798:B I *D sky130_fd_sc_hd__nand2_1
*I *952:A1 I *D sky130_fd_sc_hd__a21bo_1
*I *797:X O *D sky130_fd_sc_hd__or2_1
*CAP
1 *798:B 0.000108114
2 *952:A1 0
3 *797:X 0.000222301
4 *126:12 0.000330415
5 *798:B *952:A2 5.52302e-05
6 *798:B *368:100 3.03304e-05
7 *798:B *368:142 0.000126572
8 *126:12 *986:CLK 0.000117468
9 *126:12 *334:10 0
10 *798:A *798:B 0
11 *952:B1_N *798:B 5.52238e-05
12 *125:6 *126:12 1.72894e-05
*RES
1 *797:X *126:12 22.9071 
2 *126:12 *952:A1 9.3 
3 *126:12 *798:B 12.0321 
*END

*D_NET *127 0.00355044
*CONN
*I *803:B I *D sky130_fd_sc_hd__or3_1
*I *951:A I *D sky130_fd_sc_hd__xnor2_1
*I *802:B I *D sky130_fd_sc_hd__or3_1
*I *798:Y O *D sky130_fd_sc_hd__nand2_1
*CAP
1 *803:B 0.000130917
2 *951:A 0.000369226
3 *802:B 0
4 *798:Y 0.000139675
5 *127:21 0.000680067
6 *127:10 0.000319598
7 *803:B *837:B1 8.32242e-05
8 *803:B *948:B 0
9 *951:A *950:A2 0.000312209
10 *951:A *951:B 5.52238e-05
11 *951:A *257:6 0.000136958
12 *127:10 *131:12 9.90367e-05
13 *127:10 *368:142 6.12745e-05
14 *127:21 *802:C 0.000170654
15 *798:A *127:10 4.27935e-05
16 *802:A *127:10 5.52302e-05
17 *802:A *127:21 2.14658e-05
18 *803:A *803:B 0.000344932
19 *803:A *127:21 0.000227083
20 *952:B1_N *127:10 1.24368e-05
21 *1012:A *803:B 0.000173406
22 *1012:A *127:21 5.84171e-05
23 *124:23 *127:21 5.66157e-05
*RES
1 *798:Y *127:10 12.7464 
2 *127:10 *802:B 9.3 
3 *127:10 *127:21 8.80357 
4 *127:21 *951:A 20.4071 
5 *127:21 *803:B 19.0857 
*END

*D_NET *128 0.00232203
*CONN
*I *803:C I *D sky130_fd_sc_hd__or3_1
*I *950:B1_N I *D sky130_fd_sc_hd__a21bo_1
*I *801:A I *D sky130_fd_sc_hd__nand2_1
*I *799:Y O *D sky130_fd_sc_hd__nand2_1
*CAP
1 *803:C 9.80399e-05
2 *950:B1_N 0.000171946
3 *801:A 0
4 *799:Y 8.8567e-05
5 *128:23 0.000467506
6 *128:10 0.000286087
7 *803:C *948:B 4.1331e-06
8 *803:C *256:12 0.00027438
9 *803:C *301:10 0
10 *950:B1_N *801:B 2.59004e-05
11 *950:B1_N *802:C 9.41642e-05
12 *950:B1_N *950:A2 1.98839e-05
13 *950:B1_N *130:10 4.08637e-05
14 *950:B1_N *256:12 5.59013e-05
15 *128:10 *801:B 0
16 *128:10 *332:58 0
17 *128:10 *367:10 4.15914e-05
18 *128:23 *950:A2 1.24368e-05
19 *128:23 *989:D 1.39726e-05
20 *128:23 *130:10 0.000158605
21 *128:23 *256:12 5.33005e-05
22 *803:A *803:C 0.000311495
23 *803:A *950:B1_N 0.00010326
*RES
1 *799:Y *128:10 19.9429 
2 *128:10 *801:A 9.3 
3 *128:10 *128:23 8.25 
4 *128:23 *950:B1_N 16.9071 
5 *128:23 *803:C 17.8714 
*END

*D_NET *129 0.0016708
*CONN
*I *801:B I *D sky130_fd_sc_hd__nand2_1
*I *950:A1 I *D sky130_fd_sc_hd__a21bo_1
*I *800:X O *D sky130_fd_sc_hd__or2_1
*CAP
1 *801:B 0.000212042
2 *950:A1 0.00031146
3 *800:X 0
4 *129:4 0.000523502
5 *801:B *989:D 5.71472e-05
6 *801:B *130:10 5.71472e-05
7 *801:B *368:142 1.32552e-05
8 *950:A1 *838:B1 6.97972e-05
9 *950:A1 *131:12 4.57445e-05
10 *950:A1 *368:142 0.000308184
11 *803:A *801:B 4.66203e-05
12 *950:B1_N *801:B 2.59004e-05
13 *128:10 *801:B 0
*RES
1 *800:X *129:4 9.3 
2 *129:4 *950:A1 23.3536 
3 *129:4 *801:B 22.2107 
*END

*D_NET *130 0.00130443
*CONN
*I *949:A I *D sky130_fd_sc_hd__xnor2_1
*I *802:C I *D sky130_fd_sc_hd__or3_1
*I *801:Y O *D sky130_fd_sc_hd__nand2_1
*CAP
1 *949:A 0
2 *802:C 8.9727e-05
3 *801:Y 0.000109204
4 *130:10 0.000198931
5 *802:C *950:A2 9.41642e-05
6 *130:10 *950:A2 5.33005e-05
7 *130:10 *989:D 2.44318e-05
8 *130:10 *256:12 4.08637e-05
9 *801:B *130:10 5.71472e-05
10 *950:B1_N *802:C 9.41642e-05
11 *950:B1_N *130:10 4.08637e-05
12 *1012:A *802:C 0.000172375
13 *127:21 *802:C 0.000170654
14 *128:23 *130:10 0.000158605
*RES
1 *801:Y *130:10 12.4429 
2 *130:10 *802:C 21.4964 
3 *130:10 *949:A 9.3 
*END

*D_NET *131 0.00391226
*CONN
*I *837:B1 I *D sky130_fd_sc_hd__a211oi_1
*I *838:A1 I *D sky130_fd_sc_hd__o211ai_1
*I *802:X O *D sky130_fd_sc_hd__or3_1
*CAP
1 *837:B1 0.000692931
2 *838:A1 0
3 *802:X 0.000384164
4 *131:12 0.00107709
5 *837:B1 *838:A2 9.60939e-05
6 *837:B1 *838:C1 5.33005e-05
7 *837:B1 *947:A 2.89016e-05
8 *837:B1 *948:B 0
9 *837:B1 *992:CLK 1.74352e-05
10 *837:B1 *992:D 2.89114e-05
11 *837:B1 *165:6 3.53079e-05
12 *837:B1 *166:16 0.000494549
13 *131:12 *838:B1 0
14 *803:B *837:B1 8.32242e-05
15 *950:A1 *131:12 4.57445e-05
16 *1012:A *837:B1 0.000150625
17 *1012:A *131:12 0.000624946
18 *125:12 *131:12 0
19 *127:10 *131:12 9.90367e-05
*RES
1 *802:X *131:12 27.2643 
2 *131:12 *838:A1 9.3 
3 *131:12 *837:B1 29.1214 
*END

*D_NET *132 0.000393587
*CONN
*I *838:C1 I *D sky130_fd_sc_hd__o211ai_1
*I *803:X O *D sky130_fd_sc_hd__or3_1
*CAP
1 *838:C1 0.000130145
2 *803:X 0.000130145
3 *838:C1 *838:A2 2.28499e-05
4 *838:C1 *838:B1 5.71472e-05
5 *838:C1 *134:18 0
6 *837:B1 *838:C1 5.33005e-05
*RES
1 *803:X *838:C1 21.2071 
*END

*D_NET *133 0.00179363
*CONN
*I *838:B1 I *D sky130_fd_sc_hd__o211ai_1
*I *804:X O *D sky130_fd_sc_hd__o21a_1
*CAP
1 *838:B1 0.000442613
2 *804:X 0.000442613
3 *838:B1 *986:CLK 0.000414696
4 *838:B1 *996:CLK 4.06782e-05
5 *838:B1 *167:6 6.05161e-06
6 *838:C1 *838:B1 5.71472e-05
7 *950:A1 *838:B1 6.97972e-05
8 *125:12 *838:B1 0.000320031
9 *131:12 *838:B1 0
*RES
1 *804:X *838:B1 39.9036 
*END

*D_NET *134 0.00291649
*CONN
*I *807:A I *D sky130_fd_sc_hd__nand2_1
*I *948:A I *D sky130_fd_sc_hd__nand2_1
*I *838:A2 I *D sky130_fd_sc_hd__o211ai_1
*I *805:Y O *D sky130_fd_sc_hd__nand2_1
*CAP
1 *807:A 0
2 *948:A 0
3 *838:A2 0.000240958
4 *805:Y 0.000165302
5 *134:18 0.000782264
6 *134:10 0.000706608
7 *134:10 *806:A 4.59075e-05
8 *134:10 *806:B 5.52238e-05
9 *134:10 *807:B 6.07328e-05
10 *134:10 *303:21 0
11 *134:10 *303:60 0
12 *134:10 *330:18 2.56601e-05
13 *134:18 *807:B 5.80706e-06
14 *134:18 *946:A 5.33005e-05
15 *134:18 *947:B 0.000146513
16 *134:18 *979:A 6.85697e-05
17 *134:18 *161:10 0.000440705
18 *134:18 *303:21 0
19 *837:B1 *838:A2 9.60939e-05
20 *838:C1 *838:A2 2.28499e-05
21 *838:C1 *134:18 0
*RES
1 *805:Y *134:10 16.8 
2 *134:10 *134:18 15.8214 
3 *134:18 *838:A2 13.1571 
4 *134:18 *948:A 9.3 
5 *134:10 *807:A 13.8 
*END

*D_NET *135 0.000283349
*CONN
*I *807:B I *D sky130_fd_sc_hd__nand2_1
*I *806:X O *D sky130_fd_sc_hd__or2_1
*CAP
1 *807:B 4.46813e-05
2 *806:X 4.46813e-05
3 *807:B *979:A 0.000127446
4 *134:10 *807:B 6.07328e-05
5 *134:18 *807:B 5.80706e-06
*RES
1 *806:X *807:B 29.2429 
*END

*D_NET *136 0.00157648
*CONN
*I *837:C1 I *D sky130_fd_sc_hd__a211oi_1
*I *836:B1 I *D sky130_fd_sc_hd__a21o_1
*I *946:A I *D sky130_fd_sc_hd__nand3_1
*I *807:Y O *D sky130_fd_sc_hd__nand2_1
*CAP
1 *837:C1 0
2 *836:B1 0
3 *946:A 0.00015825
4 *807:Y 5.98532e-05
5 *136:12 0.000272679
6 *136:6 0.000174282
7 *946:A *947:B 0
8 *946:A *948:B 0
9 *946:A *166:16 0
10 *946:A *301:10 0.000216304
11 *136:6 *303:27 7.61932e-05
12 *136:12 *837:A2 5.33005e-05
13 *136:12 *948:B 0
14 *136:12 *166:16 0.000329144
15 *136:12 *303:27 0.000183172
16 *134:18 *946:A 5.33005e-05
*RES
1 *807:Y *136:6 10.6571 
2 *136:6 *136:12 3.96429 
3 *136:12 *946:A 21.6929 
4 *136:12 *836:B1 9.3 
5 *136:6 *837:C1 9.3 
*END

*D_NET *137 0.00286481
*CONN
*I *816:A I *D sky130_fd_sc_hd__nor3_2
*I *966:A1 I *D sky130_fd_sc_hd__o21a_1
*I *968:A I *D sky130_fd_sc_hd__nor2_1
*I *817:B1 I *D sky130_fd_sc_hd__a21o_1
*I *808:X O *D sky130_fd_sc_hd__and2_1
*CAP
1 *816:A 0
2 *966:A1 2.23854e-05
3 *968:A 0
4 *817:B1 0.000199383
5 *808:X 0.000189443
6 *137:24 0.000435786
7 *137:18 0.000577318
8 *137:10 0.000507972
9 *817:B1 *818:A 7.2754e-05
10 *817:B1 *832:B1 1.76039e-05
11 *817:B1 *145:21 0.000187752
12 *817:B1 *303:21 0
13 *817:B1 *366:10 0
14 *966:A1 *966:A2 0
15 *966:A1 *144:8 0
16 *137:10 *965:A 0
17 *137:10 *1079:A 1.97381e-05
18 *137:10 *138:12 5.84171e-05
19 *137:10 *357:8 5.33334e-05
20 *137:10 *357:15 6.05161e-06
21 *137:18 *965:A 0
22 *137:18 *966:B1 6.25993e-05
23 *137:18 *138:12 5.80706e-06
24 *137:18 *144:8 0.000186662
25 *137:18 *145:19 0
26 *137:24 *966:A2 5.52302e-05
27 *137:24 *966:B1 2.19364e-05
28 *137:24 *1087:A 0
29 *137:24 *145:19 0.000178828
30 *137:24 *145:21 5.80706e-06
31 *137:24 *366:10 0
32 *982:RESET_B *137:10 0
*RES
1 *808:X *137:10 17.6036 
2 *137:10 *137:18 9.375 
3 *137:18 *137:24 9.82143 
4 *137:24 *817:B1 18.7821 
5 *137:24 *968:A 13.8 
6 *137:18 *966:A1 9.72857 
7 *137:10 *816:A 13.8 
*END

*D_NET *138 0.00202915
*CONN
*I *966:A2 I *D sky130_fd_sc_hd__o21a_1
*I *816:B I *D sky130_fd_sc_hd__nor3_2
*I *809:Y O *D sky130_fd_sc_hd__nor2_1
*CAP
1 *966:A2 0.000192929
2 *816:B 0
3 *809:Y 0.000292333
4 *138:12 0.000485262
5 *966:A2 *966:B1 0.000427912
6 *966:A2 *967:A 0.000206432
7 *966:A2 *967:B 0
8 *966:A2 *144:8 3.48705e-05
9 *966:A2 *145:6 0.000130419
10 *138:12 *808:A 1.74352e-05
11 *138:12 *357:8 5.03772e-05
12 *138:12 *357:15 7.17235e-05
13 *966:A1 *966:A2 0
14 *137:10 *138:12 5.84171e-05
15 *137:18 *138:12 5.80706e-06
16 *137:24 *966:A2 5.52302e-05
*RES
1 *809:Y *138:12 22.5321 
2 *138:12 *816:B 9.3 
3 *138:12 *966:A2 16.05 
*END

*D_NET *139 0.000731755
*CONN
*I *811:A I *D sky130_fd_sc_hd__inv_2
*I *815:B1 I *D sky130_fd_sc_hd__o21a_1
*I *810:Y O *D sky130_fd_sc_hd__nand2_1
*CAP
1 *811:A 0
2 *815:B1 4.79832e-05
3 *810:Y 4.76633e-05
4 *139:10 9.56465e-05
5 *815:B1 *813:B 0.0001399
6 *815:B1 *965:B 0.00014285
7 *815:B1 *141:6 5.52302e-05
8 *139:10 *810:A 6.30388e-05
9 *139:10 *815:A2 3.17148e-05
10 *139:10 *143:10 0.000103267
11 *139:10 *309:10 4.46186e-06
*RES
1 *810:Y *139:10 19.9429 
2 *139:10 *815:B1 11.0679 
3 *139:10 *811:A 9.3 
*END

*D_NET *140 0.00083651
*CONN
*I *813:A I *D sky130_fd_sc_hd__nor2_1
*I *811:Y O *D sky130_fd_sc_hd__inv_2
*CAP
1 *813:A 0.000258773
2 *811:Y 0.000258773
3 *813:A *813:B 6.05161e-06
4 *813:A *1087:A 0.000125057
5 *813:A *141:6 4.27437e-05
6 *813:A *309:10 3.23339e-05
7 *1027:A *813:A 0.000112777
*RES
1 *811:Y *813:A 32.7964 
*END

*D_NET *141 0.00129383
*CONN
*I *815:A1 I *D sky130_fd_sc_hd__o21a_1
*I *813:B I *D sky130_fd_sc_hd__nor2_1
*I *812:Y O *D sky130_fd_sc_hd__nor2_1
*CAP
1 *815:A1 0
2 *813:B 0.000234055
3 *812:Y 0.000101445
4 *141:6 0.0003355
5 *813:B *965:A 0.000125731
6 *813:B *965:B 9.47712e-05
7 *813:B *981:D 0
8 *813:B *144:8 9.90431e-05
9 *813:B *309:10 0
10 *813:B *368:173 4.1331e-06
11 *141:6 *812:A 5.52302e-05
12 *813:A *813:B 6.05161e-06
13 *813:A *141:6 4.27437e-05
14 *815:B1 *813:B 0.0001399
15 *815:B1 *141:6 5.52302e-05
16 *1027:A *813:B 0
*RES
1 *812:Y *141:6 11.4786 
2 *141:6 *813:B 23.8536 
3 *141:6 *815:A1 9.3 
*END

*D_NET *142 0.000438824
*CONN
*I *965:A I *D sky130_fd_sc_hd__xnor2_1
*I *813:Y O *D sky130_fd_sc_hd__nor2_1
*CAP
1 *965:A 0.000133947
2 *813:Y 0.000133947
3 *965:A *815:A2 0
4 *965:A *981:D 2.79092e-05
5 *965:A *1087:A 1.72894e-05
6 *813:B *965:A 0.000125731
7 *137:10 *965:A 0
8 *137:18 *965:A 0
*RES
1 *813:Y *965:A 30.0821 
*END

*D_NET *143 0.00245175
*CONN
*I *971:A I *D sky130_fd_sc_hd__and2_1
*I *965:B I *D sky130_fd_sc_hd__xnor2_1
*I *815:A2 I *D sky130_fd_sc_hd__o21a_1
*I *814:Y O *D sky130_fd_sc_hd__nand2_1
*CAP
1 *971:A 1.98573e-05
2 *965:B 0.000231882
3 *815:A2 8.97219e-05
4 *814:Y 0.000129051
5 *143:10 0.000554609
6 *143:8 0.000381913
7 *815:A2 *309:10 1.09501e-05
8 *965:B *144:8 2.77143e-05
9 *971:A *970:A 1.39726e-05
10 *971:A *971:B 5.71472e-05
11 *971:A *1079:A 9.90367e-05
12 *143:8 *970:A 0.000272665
13 *143:8 *970:B 0.000122942
14 *143:8 *333:25 3.57844e-05
15 *143:10 *810:A 3.19058e-05
16 acc[2] *143:8 0
17 *813:B *965:B 9.47712e-05
18 *815:B1 *965:B 0.00014285
19 *965:A *815:A2 0
20 *139:10 *815:A2 3.17148e-05
21 *139:10 *143:10 0.000103267
*RES
1 *814:Y *143:8 18.175 
2 *143:8 *143:10 4.375 
3 *143:10 *815:A2 15.4964 
4 *143:10 *965:B 18.3536 
5 *143:8 *971:A 14.7464 
*END

*D_NET *144 0.0016638
*CONN
*I *966:B1 I *D sky130_fd_sc_hd__o21a_1
*I *816:C I *D sky130_fd_sc_hd__nor3_2
*I *815:X O *D sky130_fd_sc_hd__o21a_1
*CAP
1 *966:B1 7.18991e-05
2 *816:C 0
3 *815:X 0.000329633
4 *144:8 0.000401532
5 *813:B *144:8 9.90431e-05
6 *965:B *144:8 2.77143e-05
7 *966:A1 *144:8 0
8 *966:A2 *966:B1 0.000427912
9 *966:A2 *144:8 3.48705e-05
10 *137:18 *966:B1 6.25993e-05
11 *137:18 *144:8 0.000186662
12 *137:24 *966:B1 2.19364e-05
*RES
1 *815:X *144:8 15.6036 
2 *144:8 *816:C 9.3 
3 *144:8 *966:B1 13.2464 
*END

*D_NET *145 0.00326528
*CONN
*I *968:B I *D sky130_fd_sc_hd__nor2_1
*I *819:B1 I *D sky130_fd_sc_hd__o22ai_1
*I *832:B1 I *D sky130_fd_sc_hd__o221ai_4
*I *967:A I *D sky130_fd_sc_hd__nor2_1
*I *816:Y O *D sky130_fd_sc_hd__nor3_2
*CAP
1 *968:B 0
2 *819:B1 1.64323e-05
3 *832:B1 0.00020783
4 *967:A 0.00021025
5 *816:Y 9.07085e-05
6 *145:21 0.000434728
7 *145:19 0.000515652
8 *145:6 0.000606144
9 *819:B1 *324:16 9.90431e-05
10 *819:B1 *330:18 9.90431e-05
11 *832:B1 *831:C 5.62995e-05
12 *832:B1 *832:A2 0
13 *832:B1 *832:B2 0.000173804
14 *832:B1 *148:8 0
15 *832:B1 *303:21 0
16 *832:B1 *360:38 0
17 *967:A *967:B 2.85077e-05
18 *145:19 *969:A 0
19 *145:21 *818:B 0
20 *145:21 *969:A 0
21 *817:B1 *832:B1 1.76039e-05
22 *817:B1 *145:21 0.000187752
23 *966:A2 *967:A 0.000206432
24 *966:A2 *145:6 0.000130419
25 *137:18 *145:19 0
26 *137:24 *145:19 0.000178828
27 *137:24 *145:21 5.80706e-06
*RES
1 *816:Y *145:6 10.6571 
2 *145:6 *967:A 12.6214 
3 *145:6 *145:19 10.0893 
4 *145:19 *145:21 4.67857 
5 *145:21 *832:B1 18.0321 
6 *145:21 *819:B1 14.7464 
7 *145:19 *968:B 13.8 
*END

*D_NET *146 0.000968705
*CONN
*I *819:B2 I *D sky130_fd_sc_hd__o22ai_1
*I *832:B2 I *D sky130_fd_sc_hd__o221ai_4
*I *817:X O *D sky130_fd_sc_hd__a21o_1
*CAP
1 *819:B2 2.41066e-05
2 *832:B2 0.000139593
3 *817:X 0
4 *146:4 0.000163699
5 *819:B2 *817:A2 0.000174232
6 *819:B2 *324:16 0.000186669
7 *832:B2 *817:A2 5.33005e-05
8 *832:B2 *954:A 0
9 *832:B2 *303:21 0
10 *832:B2 *324:16 5.33005e-05
11 *832:B1 *832:B2 0.000173804
*RES
1 *817:X *146:4 9.3 
2 *146:4 *832:B2 21.3893 
3 *146:4 *819:B2 11.0679 
*END

*D_NET *147 0.000503429
*CONN
*I *969:A I *D sky130_fd_sc_hd__xnor2_1
*I *818:X O *D sky130_fd_sc_hd__xor2_1
*CAP
1 *969:A 0.000198514
2 *818:X 0.000198514
3 *969:A *818:B 8.07313e-05
4 *969:A *981:CLK 0
5 *969:A *983:D 2.56694e-05
6 *145:19 *969:A 0
7 *145:21 *969:A 0
*RES
1 *818:X *969:A 30.9036 
*END

*D_NET *148 0.00114605
*CONN
*I *955:A I *D sky130_fd_sc_hd__nand2_1
*I *954:A I *D sky130_fd_sc_hd__or2_1
*I *819:Y O *D sky130_fd_sc_hd__o22ai_1
*CAP
1 *955:A 6.7862e-05
2 *954:A 0.000151005
3 *819:Y 7.90317e-05
4 *148:8 0.000297899
5 *954:A *832:A1 1.19309e-05
6 *954:A *956:B 0
7 *954:A *159:23 0
8 *955:A *831:C 0.000156837
9 *955:A *832:A2 5.52302e-05
10 *955:A *360:25 0.000216121
11 *148:8 *832:A1 6.8646e-06
12 *148:8 *360:38 0.000103267
13 *832:B1 *148:8 0
14 *832:B2 *954:A 0
*RES
1 *819:Y *148:8 15.4429 
2 *148:8 *954:A 16.3536 
3 *148:8 *955:A 16.8179 
*END

*D_NET *149 0.00161937
*CONN
*I *824:A I *D sky130_fd_sc_hd__or3_1
*I *960:B1 I *D sky130_fd_sc_hd__a21oi_1
*I *961:A I *D sky130_fd_sc_hd__and3_1
*I *820:Y O *D sky130_fd_sc_hd__xnor2_1
*CAP
1 *824:A 2.57063e-05
2 *960:B1 0.000100078
3 *961:A 0
4 *820:Y 0.00020759
5 *149:19 0.000136977
6 *149:12 0.000218783
7 *824:A *960:A2 0.00014183
8 *824:A *961:C 3.98559e-05
9 *824:A *369:39 5.52302e-05
10 *960:B1 *960:A1 6.74293e-05
11 *960:B1 *960:A2 0.000196446
12 *960:B1 *961:C 5.75824e-05
13 *960:B1 *962:B 0.000185643
14 *960:B1 *263:10 5.30637e-06
15 *149:12 *834:B1 0
16 *149:12 *963:A2 0.000117956
17 *149:12 *963:B1 5.71472e-05
18 *149:12 *151:16 0
19 *149:12 *369:39 5.80706e-06
*RES
1 *820:Y *149:12 21.4071 
2 *149:12 *961:A 9.3 
3 *149:12 *149:19 0.428571 
4 *149:19 *960:B1 13.2643 
5 *149:19 *824:A 10.6571 
*END

*D_NET *150 0.0025887
*CONN
*I *824:B I *D sky130_fd_sc_hd__or3_1
*I *823:A I *D sky130_fd_sc_hd__nor2_1
*I *833:B1 I *D sky130_fd_sc_hd__a21oi_1
*I *821:X O *D sky130_fd_sc_hd__and2_1
*CAP
1 *824:B 0.000138239
2 *823:A 2.42439e-05
3 *833:B1 0.000269484
4 *821:X 0
5 *150:12 0.000428397
6 *150:6 0.000272908
7 *823:A *822:A 0
8 *823:A *151:8 1.40034e-05
9 *823:A *151:16 5.7661e-06
10 *824:B *821:B 3.07555e-05
11 *824:B *961:C 6.98302e-05
12 *824:B *154:8 9.41642e-05
13 *824:B *156:10 0
14 *824:B *261:10 5.41794e-05
15 *833:B1 *820:A 4.15914e-05
16 *833:B1 *1085:A 5.52302e-05
17 *833:B1 *151:16 1.92905e-05
18 *833:B1 *327:8 0.000142856
19 *833:B1 *327:22 5.71472e-05
20 *150:12 *821:B 7.48452e-05
21 *150:12 *961:C 9.25014e-06
22 *150:12 *964:A 0.000153047
23 *150:12 *151:16 0.000167097
24 *1045:A *823:A 1.97695e-05
25 *1045:A *833:B1 0.000446603
*RES
1 *821:X *150:6 13.8 
2 *150:6 *150:12 8.80357 
3 *150:12 *833:B1 24.925 
4 *150:12 *823:A 10.0321 
5 *150:6 *824:B 16.3893 
*END

*D_NET *151 0.00256844
*CONN
*I *823:B I *D sky130_fd_sc_hd__nor2_1
*I *834:B2 I *D sky130_fd_sc_hd__o22a_1
*I *824:C I *D sky130_fd_sc_hd__or3_1
*I *822:Y O *D sky130_fd_sc_hd__nor2_1
*CAP
1 *823:B 0
2 *834:B2 0.000200603
3 *824:C 0
4 *822:Y 7.68664e-05
5 *151:16 0.000580806
6 *151:8 0.000457069
7 *834:B2 *834:A1 9.90367e-05
8 *834:B2 *961:C 3.34295e-05
9 *834:B2 *261:10 0.000162118
10 *834:B2 *368:173 0.000251339
11 *834:B2 *369:39 0.000325756
12 *151:8 *821:A 7.43578e-06
13 *151:8 *821:B 5.52302e-05
14 *151:8 *822:A 0
15 *151:8 *365:16 2.72319e-05
16 *151:16 *821:B 0
17 *151:16 *834:B1 0
18 *151:16 *961:C 5.59013e-05
19 *151:16 *963:A1 0
20 *151:16 *327:22 0
21 *151:16 *365:16 1.97695e-05
22 *151:16 *369:39 9.69119e-06
23 *823:A *151:8 1.40034e-05
24 *823:A *151:16 5.7661e-06
25 *833:B1 *151:16 1.92905e-05
26 *1047:A *151:16 0
27 *149:12 *151:16 0
28 *150:12 *151:16 0.000167097
*RES
1 *822:Y *151:8 11.0857 
2 *151:8 *151:16 11.5714 
3 *151:16 *824:C 13.8 
4 *151:16 *834:B2 20.6036 
5 *151:8 *823:B 9.3 
*END

*D_NET *152 0.000687941
*CONN
*I *964:A I *D sky130_fd_sc_hd__xnor2_1
*I *823:Y O *D sky130_fd_sc_hd__nor2_1
*CAP
1 *964:A 0.000185919
2 *823:Y 0.000185919
3 *964:A *821:B 0.000150618
4 *964:A *987:D 1.24368e-05
5 *150:12 *964:A 0.000153047
*RES
1 *823:Y *964:A 31.3143 
*END

*D_NET *153 0.00379025
*CONN
*I *831:A I *D sky130_fd_sc_hd__nor3_1
*I *835:A1 I *D sky130_fd_sc_hd__o31a_1
*I *834:A1 I *D sky130_fd_sc_hd__o22a_1
*I *824:X O *D sky130_fd_sc_hd__or3_1
*CAP
1 *831:A 0.00037323
2 *835:A1 0.000223492
3 *834:A1 1.645e-05
4 *824:X 8.23265e-05
5 *153:19 0.000903854
6 *153:8 0.000405908
7 *831:A *831:C 0.000229612
8 *831:A *989:CLK 2.6949e-05
9 *831:A *161:10 3.99416e-05
10 *831:A *303:21 2.34204e-05
11 *834:A1 *368:173 9.90367e-05
12 *835:A1 *835:A2 2.14757e-05
13 *835:A1 *835:A3 0.000656833
14 *835:A1 *835:B1 0.000271345
15 *835:A1 *1014:A 6.57914e-05
16 *835:A1 *164:10 1.24368e-05
17 *835:A1 *303:8 5.06983e-05
18 *153:8 *834:A2 2.79092e-05
19 *153:8 *834:B1 0
20 *153:8 *369:39 0.00010326
21 *153:19 *835:B1 0
22 *153:19 *989:CLK 5.72433e-05
23 *153:19 *157:29 0
24 *153:19 *261:10 0
25 *834:B2 *834:A1 9.90367e-05
*RES
1 *824:X *153:8 15.7464 
2 *153:8 *834:A1 14.7464 
3 *153:8 *153:19 4.67857 
4 *153:19 *835:A1 21.3357 
5 *153:19 *831:A 19.5857 
*END

*D_NET *154 0.0029874
*CONN
*I *827:A I *D sky130_fd_sc_hd__nand2_1
*I *961:B I *D sky130_fd_sc_hd__and3_1
*I *834:A2 I *D sky130_fd_sc_hd__o22a_1
*I *960:A1 I *D sky130_fd_sc_hd__a21oi_1
*I *825:Y O *D sky130_fd_sc_hd__nand2_1
*CAP
1 *827:A 4.88596e-05
2 *961:B 0
3 *834:A2 4.38624e-05
4 *960:A1 0.000141372
5 *825:Y 0
6 *154:21 6.29832e-05
7 *154:8 0.000824528
8 *154:4 0.000712894
9 *827:A *825:B 4.22908e-05
10 *827:A *827:B 1.97695e-05
11 *827:A *978:A 6.05161e-06
12 *827:A *156:10 1.02936e-05
13 *834:A2 *834:B1 2.79092e-05
14 *960:A1 *960:A2 0.000162625
15 *960:A1 *962:B 0
16 *960:A1 *369:27 0
17 *154:8 *960:A2 0.000342688
18 *154:8 *978:A 2.95726e-05
19 *154:8 *369:39 0.000285486
20 *154:8 *369:48 3.67142e-05
21 *824:B *154:8 9.41642e-05
22 *960:B1 *960:A1 6.74293e-05
23 *153:8 *834:A2 2.79092e-05
*RES
1 *825:Y *154:4 9.3 
2 *154:4 *154:8 12.875 
3 *154:8 *960:A1 12.7464 
4 *154:8 *154:21 0.428571 
5 *154:21 *834:A2 19.3357 
6 *154:21 *961:B 9.3 
7 *154:4 *827:A 10.675 
*END

*D_NET *155 0.000683387
*CONN
*I *827:B I *D sky130_fd_sc_hd__nand2_1
*I *826:X O *D sky130_fd_sc_hd__or2_1
*CAP
1 *827:B 0.000246583
2 *826:X 0.000246583
3 *827:B *825:B 4.22908e-05
4 *827:B *1068:A 0.000128161
5 *827:A *827:B 1.97695e-05
*RES
1 *826:X *827:B 32.2607 
*END

*D_NET *156 0.0058926
*CONN
*I *957:B1 I *D sky130_fd_sc_hd__a21o_1
*I *831:B I *D sky130_fd_sc_hd__nor3_1
*I *835:A2 I *D sky130_fd_sc_hd__o31a_1
*I *958:A I *D sky130_fd_sc_hd__nand3_1
*I *827:Y O *D sky130_fd_sc_hd__nand2_1
*CAP
1 *957:B1 0
2 *831:B 0.000193232
3 *835:A2 0.000348772
4 *958:A 0
5 *827:Y 0.000617306
6 *156:35 0.00095626
7 *156:25 0.00064571
8 *156:10 0.00084876
9 *831:B *835:B1 2.05938e-05
10 *831:B *979:A 0
11 *831:B *989:CLK 6.74911e-05
12 *831:B *303:21 5.74562e-05
13 *835:A2 *835:A3 0.000443654
14 *156:10 *821:A 3.07555e-05
15 *156:10 *825:B 5.71472e-05
16 *156:10 *978:A 8.57023e-05
17 *156:10 *987:CLK 0.000267821
18 *156:10 *261:10 0
19 *156:10 *369:39 0.00049041
20 *156:10 *369:48 8.76257e-05
21 *156:25 *956:A 0.000140933
22 *156:25 *958:C 4.25716e-05
23 *156:25 *959:A 5.97299e-05
24 *156:25 *987:CLK 1.02504e-05
25 *156:25 *261:10 0
26 *156:25 *303:90 0.000142797
27 *156:35 *835:B1 2.56601e-05
28 *156:35 *959:A 4.27935e-05
29 *156:35 *989:CLK 0.000111779
30 *156:35 *989:D 1.03968e-05
31 *156:35 *261:6 5.52238e-05
32 *824:B *156:10 0
33 *827:A *156:10 1.02936e-05
34 *835:A1 *835:A2 2.14757e-05
*RES
1 *827:Y *156:10 24.3714 
2 *156:10 *958:A 13.8 
3 *156:10 *156:25 9.46429 
4 *156:25 *156:35 11.3393 
5 *156:35 *835:A2 18.8714 
6 *156:35 *831:B 17.4964 
7 *156:25 *957:B1 9.3 
*END

*D_NET *157 0.0057127
*CONN
*I *830:A I *D sky130_fd_sc_hd__nand2_1
*I *957:A1 I *D sky130_fd_sc_hd__a21o_1
*I *958:B I *D sky130_fd_sc_hd__nand3_1
*I *835:A3 I *D sky130_fd_sc_hd__o31a_1
*I *828:Y O *D sky130_fd_sc_hd__nand2_1
*CAP
1 *830:A 0.000134362
2 *957:A1 0
3 *958:B 0.000170612
4 *835:A3 0.000334273
5 *828:Y 5.11779e-05
6 *157:29 0.000275426
7 *157:18 0.0012082
8 *157:8 0.000954658
9 *830:A *159:6 8.70873e-05
10 *830:A *362:8 9.31209e-05
11 *835:A3 *303:8 2.07491e-05
12 *835:A3 *303:84 0.000274288
13 *958:B *958:C 0.000125731
14 *958:B *261:10 4.57445e-05
15 *958:B *368:173 5.76121e-05
16 *157:8 *828:A 5.80706e-06
17 *157:8 *829:A 7.4826e-05
18 *157:8 *362:21 0.000150625
19 *157:18 *829:A 3.17163e-05
20 *157:18 *829:B 9.25014e-06
21 *157:18 *954:B 1.42064e-05
22 *157:18 *984:CLK 6.71854e-05
23 *157:18 *159:6 4.56097e-05
24 *157:18 *303:84 0.000169373
25 *157:18 *303:90 3.99614e-06
26 *157:18 *362:21 4.73656e-05
27 *157:29 *958:C 1.02504e-05
28 *157:29 *259:8 0.00014209
29 *157:29 *261:10 6.8646e-06
30 *157:29 *303:90 0
31 *835:A1 *835:A3 0.000656833
32 *835:A2 *835:A3 0.000443654
33 *153:19 *157:29 0
*RES
1 *828:Y *157:8 15.7464 
2 *157:8 *157:18 14.9464 
3 *157:18 *835:A3 18.8714 
4 *157:18 *157:29 6.75 
5 *157:29 *958:B 17.2286 
6 *157:29 *957:A1 13.8 
7 *157:8 *830:A 16.8179 
*END

*D_NET *158 0.000514041
*CONN
*I *830:B I *D sky130_fd_sc_hd__nand2_1
*I *829:X O *D sky130_fd_sc_hd__or2_1
*CAP
1 *830:B 0.000219885
2 *829:X 0.000219885
3 *830:B *1068:A 7.42707e-05
*RES
1 *829:X *830:B 30.9036 
*END

*D_NET *159 0.00388016
*CONN
*I *955:B I *D sky130_fd_sc_hd__nand2_1
*I *831:C I *D sky130_fd_sc_hd__nor3_1
*I *954:B I *D sky130_fd_sc_hd__or2_1
*I *830:Y O *D sky130_fd_sc_hd__nand2_1
*CAP
1 *955:B 0
2 *831:C 0.000524705
3 *954:B 0.000220569
4 *830:Y 0.000613554
5 *159:23 0.000647113
6 *159:6 0.00095653
7 *831:C *832:A2 1.55885e-05
8 *831:C *832:C1 3.82637e-05
9 *831:C *956:B 9.90431e-05
10 *831:C *161:10 1.57625e-05
11 *831:C *360:25 3.14078e-05
12 *954:B *984:CLK 0.000114637
13 *954:B *303:84 1.33343e-05
14 *159:23 *832:A1 0
15 *159:23 *974:A 0
16 *830:A *159:6 8.70873e-05
17 *831:A *831:C 0.000229612
18 *832:B1 *831:C 5.62995e-05
19 *954:A *159:23 0
20 *955:A *831:C 0.000156837
21 *1043:A *831:C 0
22 *157:18 *954:B 1.42064e-05
23 *157:18 *159:6 4.56097e-05
*RES
1 *830:Y *159:6 16.4071 
2 *159:6 *954:B 12.7464 
3 *159:6 *159:23 10.6429 
4 *159:23 *831:C 20.1393 
5 *159:23 *955:B 9.3 
*END

*D_NET *160 0.000178377
*CONN
*I *832:C1 I *D sky130_fd_sc_hd__o221ai_4
*I *831:Y O *D sky130_fd_sc_hd__nor3_1
*CAP
1 *832:C1 4.13837e-05
2 *831:Y 4.13837e-05
3 *832:C1 *161:10 5.73459e-05
4 *831:C *832:C1 3.82637e-05
*RES
1 *831:Y *832:C1 19.9929 
*END

*D_NET *161 0.00237903
*CONN
*I *946:B I *D sky130_fd_sc_hd__nand3_1
*I *837:A1 I *D sky130_fd_sc_hd__a211oi_1
*I *836:A1 I *D sky130_fd_sc_hd__a21o_1
*I *832:Y O *D sky130_fd_sc_hd__o221ai_4
*CAP
1 *946:B 0
2 *837:A1 0.000119623
3 *836:A1 0
4 *832:Y 0.000360121
5 *161:14 0.000200198
6 *161:10 0.000440697
7 *837:A1 *164:23 1.02504e-05
8 *837:A1 *301:10 4.66511e-05
9 *837:A1 *303:27 0.000139913
10 *837:A1 *332:58 2.26327e-05
11 *161:10 *946:C 5.33005e-05
12 *161:14 *164:23 0.000218019
13 *161:14 *301:10 0.000213868
14 *831:A *161:10 3.99416e-05
15 *831:C *161:10 1.57625e-05
16 *832:C1 *161:10 5.73459e-05
17 *134:18 *161:10 0.000440705
*RES
1 *832:Y *161:10 16.7464 
2 *161:10 *161:14 7.35714 
3 *161:14 *836:A1 13.8 
4 *161:14 *837:A1 15.8893 
5 *161:10 *946:B 9.3 
*END

*D_NET *162 0.000954773
*CONN
*I *834:B1 I *D sky130_fd_sc_hd__o22a_1
*I *833:Y O *D sky130_fd_sc_hd__a21oi_1
*CAP
1 *834:B1 0.000433099
2 *833:Y 0.000433099
3 *834:B1 *820:A 5.48581e-05
4 *834:B1 *835:B1 5.80706e-06
5 *834:B1 *963:A1 0
6 *834:B1 *963:B1 0
7 *834:B1 *979:A 0
8 *834:B1 *263:10 0
9 *834:B1 *327:22 0
10 *834:B1 *332:58 0
11 *834:B1 *369:27 0
12 *834:B1 *369:39 0
13 *834:A2 *834:B1 2.79092e-05
14 *149:12 *834:B1 0
15 *151:16 *834:B1 0
16 *153:8 *834:B1 0
*RES
1 *833:Y *834:B1 34.4036 
*END

*D_NET *163 0.00118462
*CONN
*I *835:B1 I *D sky130_fd_sc_hd__o31a_1
*I *834:X O *D sky130_fd_sc_hd__o22a_1
*CAP
1 *835:B1 0.000311569
2 *834:X 0.000311569
3 *835:B1 *979:A 0.00013712
4 *835:B1 *989:CLK 0
5 *835:B1 *1014:A 0.00010096
6 *831:B *835:B1 2.05938e-05
7 *834:B1 *835:B1 5.80706e-06
8 *835:A1 *835:B1 0.000271345
9 *153:19 *835:B1 0
10 *156:35 *835:B1 2.56601e-05
*RES
1 *834:X *835:B1 35.1714 
*END

*D_NET *164 0.00152087
*CONN
*I *837:A2 I *D sky130_fd_sc_hd__a211oi_1
*I *836:A2 I *D sky130_fd_sc_hd__a21o_1
*I *946:C I *D sky130_fd_sc_hd__nand3_1
*I *835:X O *D sky130_fd_sc_hd__o31a_1
*CAP
1 *837:A2 1.69531e-05
2 *836:A2 0
3 *946:C 3.34103e-05
4 *835:X 0.000152506
5 *164:23 0.000102764
6 *164:10 0.000271727
7 *837:A2 *303:27 5.33005e-05
8 *164:10 *1013:A 5.30637e-06
9 *164:10 *1014:A 2.77173e-05
10 *164:10 *301:10 6.75007e-05
11 *164:10 *332:58 0.000196276
12 *164:23 *301:10 7.33494e-06
13 *164:23 *332:58 0.000238762
14 *835:A1 *164:10 1.24368e-05
15 *837:A1 *164:23 1.02504e-05
16 *136:12 *837:A2 5.33005e-05
17 *161:10 *946:C 5.33005e-05
18 *161:14 *164:23 0.000218019
*RES
1 *835:X *164:10 17.3 
2 *164:10 *946:C 14.3357 
3 *164:10 *164:23 7.66071 
4 *164:23 *836:A2 9.3 
5 *164:23 *837:A2 9.83571 
*END

*D_NET *165 0.000819197
*CONN
*I *948:B I *D sky130_fd_sc_hd__nand2_1
*I *947:A I *D sky130_fd_sc_hd__and2_1
*I *836:X O *D sky130_fd_sc_hd__a21o_1
*CAP
1 *948:B 0.000135898
2 *947:A 1.13923e-05
3 *836:X 4.7781e-05
4 *165:6 0.000195072
5 *947:A *992:CLK 5.71472e-05
6 *948:B *947:B 0.000102545
7 *165:6 *992:CLK 1.33343e-05
8 *165:6 *166:16 9.90431e-05
9 *165:6 *303:27 8.86413e-05
10 *803:B *948:B 0
11 *803:C *948:B 4.1331e-06
12 *837:B1 *947:A 2.89016e-05
13 *837:B1 *948:B 0
14 *837:B1 *165:6 3.53079e-05
15 *946:A *948:B 0
16 *1012:A *948:B 0
17 *136:12 *948:B 0
*RES
1 *836:X *165:6 11.0679 
2 *165:6 *947:A 9.83571 
3 *165:6 *948:B 20.9786 
*END

*D_NET *166 0.00431317
*CONN
*I *839:A I *D sky130_fd_sc_hd__or2_1
*I *855:A1 I *D sky130_fd_sc_hd__o211a_1
*I *837:Y O *D sky130_fd_sc_hd__a211oi_1
*CAP
1 *839:A 1.11927e-05
2 *855:A1 0.000284572
3 *837:Y 0.0010426
4 *166:16 0.00133837
5 *855:A1 *855:A2 2.51539e-05
6 *855:A1 *855:B1 2.4474e-05
7 *855:A1 *992:D 1.56e-05
8 *855:A1 *168:14 5.52238e-05
9 *855:A1 *336:8 1.04066e-05
10 *166:16 *947:B 5.7616e-05
11 *166:16 *988:CLK 2.16719e-05
12 *166:16 *988:D 9.25014e-06
13 *166:16 *992:CLK 4.72818e-05
14 *166:16 *992:D 0.000322192
15 *166:16 *301:10 0
16 *166:16 *303:27 0.000124837
17 *837:B1 *166:16 0.000494549
18 *946:A *166:16 0
19 *136:12 *166:16 0.000329144
20 *165:6 *166:16 9.90431e-05
*RES
1 *837:Y *166:16 36.3357 
2 *166:16 *855:A1 13.0321 
3 *166:16 *839:A 9.72857 
*END

*D_NET *167 0.00206274
*CONN
*I *839:B I *D sky130_fd_sc_hd__or2_1
*I *855:A2 I *D sky130_fd_sc_hd__o211a_1
*I *838:Y O *D sky130_fd_sc_hd__o211ai_1
*CAP
1 *839:B 0.000113538
2 *855:A2 0.000270133
3 *838:Y 0.000252161
4 *167:6 0.000635832
5 *839:B *755:A 0
6 *839:B *168:14 5.94923e-05
7 *855:A2 *855:B1 2.27187e-05
8 *855:A2 *855:C1 0.000139907
9 *855:A2 *168:14 4.58976e-05
10 *855:A2 *332:43 0.00018602
11 *855:A2 *336:10 0.000103267
12 *855:A2 *336:38 7.86163e-05
13 *167:6 *751:A 2.59355e-05
14 *838:B1 *167:6 6.05161e-06
15 *855:A1 *855:A2 2.51539e-05
16 *992:RESET_B *167:6 9.80173e-05
*RES
1 *838:Y *167:6 13.5321 
2 *167:6 *855:A2 24.425 
3 *167:6 *839:B 20.55 
*END

*D_NET *168 0.00230891
*CONN
*I *939:A I *D sky130_fd_sc_hd__xor2_1
*I *940:A1 I *D sky130_fd_sc_hd__a21bo_1
*I *839:X O *D sky130_fd_sc_hd__or2_1
*CAP
1 *939:A 0
2 *940:A1 0.000267879
3 *839:X 0.000225686
4 *168:14 0.000493566
5 *940:A1 *852:B 9.77423e-05
6 *940:A1 *855:B1 6.47215e-05
7 *940:A1 *855:C1 4.27935e-05
8 *940:A1 *940:A2 9.04114e-05
9 *940:A1 *940:B1_N 0.000139208
10 *940:A1 *183:8 5.33005e-05
11 *940:A1 *184:14 5.20669e-05
12 *940:A1 *186:10 3.18676e-05
13 *940:A1 *332:43 0.00021693
14 *168:14 *755:A 0
15 *168:14 *852:B 4.18895e-05
16 *168:14 *855:C1 0.000178575
17 *168:14 *992:D 0.00015166
18 *168:14 *336:38 0
19 *839:B *168:14 5.94923e-05
20 *855:A1 *168:14 5.52238e-05
21 *855:A2 *168:14 4.58976e-05
*RES
1 *839:X *168:14 24.175 
2 *168:14 *940:A1 25.1036 
3 *168:14 *939:A 9.3 
*END

*D_NET *169 0.00266875
*CONN
*I *842:A I *D sky130_fd_sc_hd__nand2_1
*I *856:B2 I *D sky130_fd_sc_hd__o221ai_1
*I *942:B1_N I *D sky130_fd_sc_hd__a21bo_1
*I *840:Y O *D sky130_fd_sc_hd__nand2_1
*CAP
1 *842:A 5.85848e-05
2 *856:B2 0.000116578
3 *942:B1_N 0
4 *840:Y 3.95513e-05
5 *169:23 0.000699597
6 *169:6 0.000563985
7 *842:A *851:B 8.15095e-05
8 *842:A *857:B1 4.13573e-05
9 *842:A *171:10 6.05161e-06
10 *856:B2 *851:B 0.000307344
11 *856:B2 *857:B1 0.000140011
12 *856:B2 *179:10 1.02504e-05
13 *856:B2 *253:12 0
14 *169:6 *841:A 1.72894e-05
15 *169:6 *350:6 4.0342e-06
16 *169:23 *841:A 4.25576e-05
17 *169:23 *842:B 1.15281e-05
18 *169:23 *857:B1 5.74562e-05
19 *169:23 *942:A1 0.000330784
20 *169:23 *171:10 1.21257e-05
21 *169:23 *302:32 0.000128154
*RES
1 *840:Y *169:6 9.83571 
2 *169:6 *942:B1_N 9.3 
3 *169:6 *169:23 21.1429 
4 *169:23 *856:B2 17.8714 
5 *169:23 *842:A 15.3714 
*END

*D_NET *170 0.000999523
*CONN
*I *842:B I *D sky130_fd_sc_hd__nand2_1
*I *942:A1 I *D sky130_fd_sc_hd__a21bo_1
*I *841:X O *D sky130_fd_sc_hd__or2_1
*CAP
1 *842:B 3.36774e-05
2 *942:A1 0.000153452
3 *841:X 0
4 *170:4 0.000187129
5 *842:B *841:A 3.98091e-06
6 *842:B *171:10 5.52302e-05
7 *942:A1 *840:A 0
8 *942:A1 *840:B 0
9 *942:A1 *841:A 0.000139616
10 *942:A1 *942:A2 2.89016e-05
11 *942:A1 *171:10 5.52238e-05
12 *169:23 *842:B 1.15281e-05
13 *169:23 *942:A1 0.000330784
*RES
1 *841:X *170:4 9.3 
2 *170:4 *942:A1 14.3893 
3 *170:4 *842:B 10.2643 
*END

*D_NET *171 0.0013787
*CONN
*I *941:A I *D sky130_fd_sc_hd__xnor2_1
*I *851:A I *D sky130_fd_sc_hd__nor2_1
*I *842:Y O *D sky130_fd_sc_hd__nand2_1
*CAP
1 *941:A 6.45801e-05
2 *851:A 8.61066e-05
3 *842:Y 0.000180504
4 *171:10 0.000331191
5 *851:A *993:D 5.71472e-05
6 *851:A *302:32 5.71472e-05
7 *941:A *851:B 0.000181796
8 *941:A *852:A 7.94632e-05
9 *941:A *993:D 5.33005e-05
10 *171:10 *857:B1 0.00012401
11 *171:10 *942:A2 0
12 *171:10 *302:32 3.48235e-05
13 *842:A *171:10 6.05161e-06
14 *842:B *171:10 5.52302e-05
15 *942:A1 *171:10 5.52238e-05
16 *169:23 *171:10 1.21257e-05
*RES
1 *842:Y *171:10 16.8 
2 *171:10 *851:A 15.2821 
3 *171:10 *941:A 15.9786 
*END

*D_NET *172 0.00058163
*CONN
*I *944:A1 I *D sky130_fd_sc_hd__a21bo_1
*I *845:A I *D sky130_fd_sc_hd__nand2_1
*I *843:X O *D sky130_fd_sc_hd__or2_1
*CAP
1 *944:A1 0
2 *845:A 0.000132986
3 *843:X 0.000106726
4 *172:6 0.000239711
5 *845:A *845:B 0
6 *845:A *368:10 0
7 *172:6 *856:A1 0.000102207
*RES
1 *843:X *172:6 11.4786 
2 *172:6 *845:A 20.55 
3 *172:6 *944:A1 9.3 
*END

*D_NET *173 0.00238937
*CONN
*I *845:B I *D sky130_fd_sc_hd__nand2_1
*I *944:B1_N I *D sky130_fd_sc_hd__a21bo_1
*I *856:A1 I *D sky130_fd_sc_hd__o221ai_1
*I *844:Y O *D sky130_fd_sc_hd__nand2_1
*CAP
1 *845:B 0.000170919
2 *944:B1_N 0
3 *856:A1 0.000405729
4 *844:Y 0.000160744
5 *173:12 0.000405729
6 *173:10 0.000331662
7 *845:B *844:A 2.58997e-05
8 *845:B *361:8 8.16036e-05
9 *845:B *368:10 0
10 *856:A1 *843:B 3.99614e-06
11 *856:A1 *944:A2 0.000357952
12 *856:A1 *945:B 0.000186669
13 *856:A1 *253:12 4.38128e-05
14 *173:10 *844:A 8.67816e-05
15 *173:10 *945:B 2.56694e-05
16 *173:10 *368:10 0
17 *845:A *845:B 0
18 *172:6 *856:A1 0.000102207
*RES
1 *844:Y *173:10 16.3893 
2 *173:10 *173:12 4.5 
3 *173:12 *856:A1 17.9786 
4 *173:12 *944:B1_N 9.3 
5 *173:10 *845:B 17.3 
*END

*D_NET *174 0.00200311
*CONN
*I *943:A I *D sky130_fd_sc_hd__xnor2_1
*I *850:A I *D sky130_fd_sc_hd__or2_1
*I *845:Y O *D sky130_fd_sc_hd__nand2_1
*CAP
1 *943:A 0
2 *850:A 0.000350867
3 *845:Y 0.000378591
4 *174:10 0.000729457
5 *850:A *856:A2 0
6 *850:A *945:A 0.00040279
7 *850:A *994:D 5.63101e-05
8 *850:A *253:12 1.76135e-05
9 *850:A *368:10 0
10 *850:A *368:65 0
11 *174:10 *253:12 6.74815e-05
12 *174:10 *368:10 0
*RES
1 *845:Y *174:10 18.8536 
2 *174:10 *850:A 20.7821 
3 *174:10 *943:A 13.8 
*END

*D_NET *175 0.000983682
*CONN
*I *849:A I *D sky130_fd_sc_hd__nand2_1
*I *856:C1 I *D sky130_fd_sc_hd__o221ai_1
*I *846:Y O *D sky130_fd_sc_hd__nand2_1
*CAP
1 *849:A 0
2 *856:C1 0.000294705
3 *846:Y 3.53898e-05
4 *175:8 0.000330095
5 *856:C1 *849:B 9.25014e-06
6 *856:C1 *857:B1 7.20217e-06
7 *856:C1 *302:57 0
8 *856:C1 *302:78 0
9 *856:C1 *332:37 0
10 *856:C1 *340:30 1.02504e-05
11 *856:C1 *368:65 0.000123827
12 *175:8 *847:A 0.000119758
13 *175:8 *847:B 3.93247e-05
14 *175:8 *372:37 1.38796e-05
*RES
1 *846:Y *175:8 10.675 
2 *175:8 *856:C1 23.3357 
3 *175:8 *849:A 9.3 
*END

*D_NET *176 0.000683933
*CONN
*I *856:A2 I *D sky130_fd_sc_hd__o221ai_1
*I *847:Y O *D sky130_fd_sc_hd__nor2_1
*CAP
1 *856:A2 0.00020942
2 *847:Y 0.00020942
3 *856:A2 *332:37 0.000225808
4 *856:A2 *368:65 3.92854e-05
5 *850:A *856:A2 0
*RES
1 *847:Y *856:A2 30.8143 
*END

*D_NET *177 0.00110559
*CONN
*I *849:B I *D sky130_fd_sc_hd__nand2_1
*I *848:X O *D sky130_fd_sc_hd__or2_1
*CAP
1 *849:B 0.00026418
2 *848:X 0.00026418
3 *849:B *753:A 0
4 *849:B *847:A 2.84026e-05
5 *849:B *847:B 5.49489e-05
6 *849:B *848:B 4.60153e-05
7 *849:B *340:12 0.000101545
8 *849:B *340:30 3.48717e-05
9 *849:B *372:37 0.000146983
10 acc[15] *849:B 9.99853e-05
11 *856:C1 *849:B 9.25014e-06
12 *1054:A *849:B 5.52302e-05
*RES
1 *848:X *849:B 33.8679 
*END

*D_NET *178 0.0024205
*CONN
*I *850:B I *D sky130_fd_sc_hd__or2_1
*I *945:A I *D sky130_fd_sc_hd__xnor2_1
*I *849:Y O *D sky130_fd_sc_hd__nand2_1
*CAP
1 *850:B 0
2 *945:A 0.000307803
3 *849:Y 0.000181382
4 *178:8 0.000489185
5 *945:A *995:D 0.000184232
6 *945:A *179:10 0.000144497
7 *945:A *332:37 5.88385e-05
8 *945:A *368:10 7.80802e-05
9 *945:A *368:42 0.000345637
10 *178:8 *847:B 0.000220135
11 *178:8 *332:37 7.92229e-06
12 *850:A *945:A 0.00040279
*RES
1 *849:Y *178:8 12.2107 
2 *178:8 *945:A 19.0321 
3 *178:8 *850:B 9.3 
*END

*D_NET *179 0.00227859
*CONN
*I *851:B I *D sky130_fd_sc_hd__nor2_1
*I *856:B1 I *D sky130_fd_sc_hd__o221ai_1
*I *850:X O *D sky130_fd_sc_hd__or2_1
*CAP
1 *851:B 0.000435576
2 *856:B1 0
3 *850:X 0.000158543
4 *179:10 0.000594119
5 *851:B *857:B1 4.53031e-05
6 *851:B *993:D 2.28499e-05
7 *851:B *302:32 1.04232e-05
8 *179:10 *253:12 0
9 *179:10 *332:37 0.0001399
10 *179:10 *368:65 0.000146474
11 *842:A *851:B 8.15095e-05
12 *856:B2 *851:B 0.000307344
13 *856:B2 *179:10 1.02504e-05
14 *941:A *851:B 0.000181796
15 *945:A *179:10 0.000144497
*RES
1 *850:X *179:10 17.7107 
2 *179:10 *856:B1 13.8 
3 *179:10 *851:B 23.2107 
*END

*D_NET *180 0.00218248
*CONN
*I *855:B1 I *D sky130_fd_sc_hd__o211a_1
*I *857:A3 I *D sky130_fd_sc_hd__a31o_1
*I *851:Y O *D sky130_fd_sc_hd__nor2_1
*CAP
1 *855:B1 0.000503635
2 *857:A3 0
3 *851:Y 0.00016508
4 *180:14 0.000668714
5 *855:B1 *940:A2 0.000302211
6 *855:B1 *186:10 3.93678e-05
7 *855:B1 *252:6 6.79929e-05
8 *855:B1 *336:8 6.05161e-06
9 *180:14 *857:B1 5.01117e-05
10 *180:14 *942:A2 0.000222666
11 *180:14 *997:CLK 0
12 *180:14 *252:6 1.24368e-05
13 *180:14 *339:8 3.22964e-05
14 *855:A1 *855:B1 2.4474e-05
15 *855:A2 *855:B1 2.27187e-05
16 *940:A1 *855:B1 6.47215e-05
*RES
1 *851:Y *180:14 22.2464 
2 *180:14 *857:A3 9.3 
3 *180:14 *855:B1 18.1393 
*END

*D_NET *181 0.00090539
*CONN
*I *854:A I *D sky130_fd_sc_hd__and2_1
*I *940:B1_N I *D sky130_fd_sc_hd__a21bo_1
*I *852:Y O *D sky130_fd_sc_hd__nand2_1
*CAP
1 *854:A 0
2 *940:B1_N 0.00015219
3 *852:Y 4.70389e-05
4 *181:6 0.000199229
5 *940:B1_N *852:A 0
6 *940:B1_N *854:B 0.000171368
7 *940:B1_N *857:A2 0
8 *940:B1_N *940:A2 0.000139208
9 *181:6 *852:B 5.71472e-05
10 *940:A1 *940:B1_N 0.000139208
*RES
1 *852:Y *181:6 10.2464 
2 *181:6 *940:B1_N 21.9071 
3 *181:6 *854:A 9.3 
*END

*D_NET *182 0.000901586
*CONN
*I *854:B I *D sky130_fd_sc_hd__and2_1
*I *853:X O *D sky130_fd_sc_hd__or2_1
*CAP
1 *854:B 0.000269986
2 *853:X 0.000269986
3 *854:B *852:B 5.65955e-05
4 *854:B *857:A2 0
5 *854:B *940:A2 2.74273e-05
6 *854:B *186:10 7.83659e-05
7 *854:B *336:38 2.78576e-05
8 *940:B1_N *854:B 0.000171368
*RES
1 *853:X *854:B 33.0464 
*END

*D_NET *183 0.00202328
*CONN
*I *940:A2 I *D sky130_fd_sc_hd__a21bo_1
*I *855:C1 I *D sky130_fd_sc_hd__o211a_1
*I *939:B I *D sky130_fd_sc_hd__xor2_1
*I *854:X O *D sky130_fd_sc_hd__and2_1
*CAP
1 *940:A2 0.000148845
2 *855:C1 0.00012627
3 *939:B 0
4 *854:X 0
5 *183:8 0.000230231
6 *183:4 0.000252806
7 *855:C1 *992:D 0.000127439
8 *855:C1 *336:10 6.19181e-05
9 *855:C1 *336:38 4.25619e-05
10 *940:A2 *186:10 1.20417e-05
11 *183:8 *852:B 4.73286e-05
12 *854:B *940:A2 2.74273e-05
13 *855:A2 *855:C1 0.000139907
14 *855:B1 *940:A2 0.000302211
15 *940:A1 *855:C1 4.27935e-05
16 *940:A1 *940:A2 9.04114e-05
17 *940:A1 *183:8 5.33005e-05
18 *940:B1_N *940:A2 0.000139208
19 *168:14 *855:C1 0.000178575
*RES
1 *854:X *183:4 9.3 
2 *183:4 *183:8 2.08929 
3 *183:8 *939:B 9.3 
4 *183:8 *855:C1 22.6214 
5 *183:4 *940:A2 22.6571 
*END

*D_NET *184 0.00139671
*CONN
*I *858:A I *D sky130_fd_sc_hd__or2_1
*I *869:A1 I *D sky130_fd_sc_hd__o211ai_1
*I *855:X O *D sky130_fd_sc_hd__o211a_1
*CAP
1 *858:A 0
2 *869:A1 5.20553e-05
3 *855:X 0.000288963
4 *184:14 0.000341018
5 *869:A1 *858:B 3.08664e-05
6 *869:A1 *187:12 2.70242e-05
7 *869:A1 *198:18 0.000143375
8 *184:14 *858:B 0
9 *184:14 *186:10 0
10 *184:14 *187:12 4.82865e-05
11 *184:14 *198:18 7.6666e-05
12 *184:14 *332:43 0.000336384
13 *940:A1 *184:14 5.20669e-05
*RES
1 *855:X *184:14 24.5679 
2 *184:14 *869:A1 11.5143 
3 *184:14 *858:A 9.3 
*END

*D_NET *185 0.00202251
*CONN
*I *857:B1 I *D sky130_fd_sc_hd__a31o_1
*I *856:Y O *D sky130_fd_sc_hd__o221ai_1
*CAP
1 *857:B1 0.000621597
2 *856:Y 0.000621597
3 *857:B1 *852:A 0.000174797
4 *857:B1 *853:A 2.48938e-05
5 *857:B1 *941:B 7.80714e-06
6 *857:B1 *942:A2 0
7 *857:B1 *997:CLK 0
8 *857:B1 *253:12 0
9 *857:B1 *302:32 4.16207e-05
10 *857:B1 *339:8 3.57366e-05
11 *857:B1 *368:65 2.90047e-05
12 *842:A *857:B1 4.13573e-05
13 *851:B *857:B1 4.53031e-05
14 *856:B2 *857:B1 0.000140011
15 *856:C1 *857:B1 7.20217e-06
16 *169:23 *857:B1 5.74562e-05
17 *171:10 *857:B1 0.00012401
18 *180:14 *857:B1 5.01117e-05
*RES
1 *856:Y *857:B1 39.8946 
*END

*D_NET *186 0.00125218
*CONN
*I *858:B I *D sky130_fd_sc_hd__or2_1
*I *869:A2 I *D sky130_fd_sc_hd__o211ai_1
*I *857:X O *D sky130_fd_sc_hd__a31o_1
*CAP
1 *858:B 0.000106598
2 *869:A2 0
3 *857:X 0.000350617
4 *186:10 0.000457215
5 *858:B *869:C1 3.34366e-05
6 *858:B *187:12 9.83442e-05
7 *858:B *198:18 1.34631e-05
8 *186:10 *857:A2 0
9 *854:B *186:10 7.83659e-05
10 *855:B1 *186:10 3.93678e-05
11 *869:A1 *858:B 3.08664e-05
12 *940:A1 *186:10 3.18676e-05
13 *940:A2 *186:10 1.20417e-05
14 *184:14 *858:B 0
15 *184:14 *186:10 0
*RES
1 *857:X *186:10 19.4429 
2 *186:10 *869:A2 13.8 
3 *186:10 *858:B 16.0857 
*END

*D_NET *187 0.00180701
*CONN
*I *930:A I *D sky130_fd_sc_hd__nand2_1
*I *931:A I *D sky130_fd_sc_hd__xor2_1
*I *858:X O *D sky130_fd_sc_hd__or2_1
*CAP
1 *930:A 0.000217595
2 *931:A 0
3 *858:X 0.000331176
4 *187:12 0.000548771
5 *930:A *197:19 2.49484e-05
6 *930:A *247:14 0.000200842
7 *930:A *341:12 0.000130662
8 *187:12 *869:C1 0.000150244
9 *187:12 *932:A2 2.16315e-05
10 *187:12 *198:18 7.48301e-06
11 *858:B *187:12 9.83442e-05
12 *869:A1 *187:12 2.70242e-05
13 *184:14 *187:12 4.82865e-05
*RES
1 *858:X *187:12 23.3536 
2 *187:12 *931:A 9.3 
3 *187:12 *930:A 23.05 
*END

*D_NET *188 0.00235678
*CONN
*I *933:A I *D sky130_fd_sc_hd__and3_1
*I *865:A_N I *D sky130_fd_sc_hd__and2b_1
*I *932:B1 I *D sky130_fd_sc_hd__a21oi_1
*I *859:Y O *D sky130_fd_sc_hd__xnor2_1
*CAP
1 *933:A 0.000109578
2 *865:A_N 0
3 *932:B1 8.56117e-05
4 *859:Y 0.00029846
5 *188:23 0.000146425
6 *188:8 0.000420919
7 *932:B1 *869:B1 0
8 *932:B1 *932:A1 0.000100823
9 *932:B1 *934:A 2.89114e-05
10 *932:B1 *935:B1 0.00012401
11 *933:A *869:B1 8.57023e-05
12 *933:A *933:B 8.35655e-05
13 *933:A *933:C 0.000107881
14 *933:A *934:B 5.52302e-05
15 *188:8 *859:A 1.02821e-05
16 *188:8 *865:B 2.77289e-05
17 *188:8 *869:B1 0.0001399
18 *188:8 *871:A 2.89114e-05
19 *188:8 *872:A3 5.52302e-05
20 *188:8 *935:A1 6.12335e-05
21 *188:8 *935:B1 0.000227532
22 *188:23 *869:B1 8.36572e-05
23 *188:23 *933:B 1.40415e-05
24 *1056:A *188:8 6.11433e-05
*RES
1 *859:Y *188:8 15.6036 
2 *188:8 *932:B1 20.4786 
3 *188:8 *188:23 0.946429 
4 *188:23 *865:A_N 9.3 
5 *188:23 *933:A 12.7107 
*END

*D_NET *189 0.00107669
*CONN
*I *937:A1 I *D sky130_fd_sc_hd__a21bo_1
*I *862:A I *D sky130_fd_sc_hd__nand2_1
*I *860:X O *D sky130_fd_sc_hd__or2_1
*CAP
1 *937:A1 2.91597e-05
2 *862:A 9.38557e-05
3 *860:X 0.000115131
4 *189:10 0.000238146
5 *862:A *862:B 0.000222878
6 *862:A *864:B 7.95581e-05
7 *937:A1 *343:16 1.92905e-05
8 *189:10 *861:A 5.52302e-05
9 *189:10 *861:B 1.39726e-05
10 *189:10 *862:B 4.80729e-05
11 *189:10 *864:B 1.78447e-05
12 *189:10 *873:C1 1.17968e-05
13 *189:10 *938:B 5.33882e-05
14 *189:10 *190:8 7.83659e-05
*RES
1 *860:X *189:10 16.6929 
2 *189:10 *862:A 16.6571 
3 *189:10 *937:A1 14.3357 
*END

*D_NET *190 0.00118148
*CONN
*I *937:B1_N I *D sky130_fd_sc_hd__a21bo_1
*I *862:B I *D sky130_fd_sc_hd__nand2_1
*I *861:Y O *D sky130_fd_sc_hd__nand2_1
*CAP
1 *937:B1_N 8.91494e-05
2 *862:B 0.000118258
3 *861:Y 2.69798e-05
4 *190:8 0.000234387
5 *862:B *873:C1 0.00027338
6 *862:B *191:8 1.24368e-05
7 *937:B1_N *343:16 8.46044e-06
8 *190:8 *873:C1 6.91157e-05
9 *862:A *862:B 0.000222878
10 *189:10 *862:B 4.80729e-05
11 *189:10 *190:8 7.83659e-05
*RES
1 *861:Y *190:8 14.8357 
2 *190:8 *862:B 17.8 
3 *190:8 *937:B1_N 14.7464 
*END

*D_NET *191 0.000952854
*CONN
*I *936:A I *D sky130_fd_sc_hd__xnor2_1
*I *864:A I *D sky130_fd_sc_hd__nor2_1
*I *862:Y O *D sky130_fd_sc_hd__nand2_1
*CAP
1 *936:A 0.000282653
2 *864:A 1.91209e-05
3 *862:Y 8.15329e-05
4 *191:8 0.000383306
5 *936:A *864:B 0
6 *936:A *250:12 0.000173804
7 *862:B *191:8 1.24368e-05
*RES
1 *862:Y *191:8 10.675 
2 *191:8 *864:A 9.72857 
3 *191:8 *936:A 23.4429 
*END

*D_NET *192 0.00169192
*CONN
*I *938:A I *D sky130_fd_sc_hd__xnor2_1
*I *864:B I *D sky130_fd_sc_hd__nor2_1
*I *863:Y O *D sky130_fd_sc_hd__xnor2_1
*CAP
1 *938:A 5.28827e-05
2 *864:B 0.00030303
3 *863:Y 0.000191987
4 *192:10 0.0005479
5 *864:B *873:C1 0
6 *864:B *938:B 0.000320024
7 *864:B *250:12 6.95205e-05
8 *864:B *310:14 0
9 *938:A *310:14 3.14048e-05
10 *192:10 *863:A 4.58976e-05
11 *192:10 *870:A1 3.18676e-05
12 *192:10 *873:C1 0
13 *192:10 *310:14 0
14 *192:10 *344:16 0
15 *862:A *864:B 7.95581e-05
16 *936:A *864:B 0
17 *189:10 *864:B 1.78447e-05
*RES
1 *863:Y *192:10 16.8 
2 *192:10 *864:B 21.5143 
3 *192:10 *938:A 14.7464 
*END

*D_NET *193 0.00163298
*CONN
*I *865:B I *D sky130_fd_sc_hd__and2b_1
*I *871:C I *D sky130_fd_sc_hd__and3_1
*I *864:Y O *D sky130_fd_sc_hd__nor2_1
*CAP
1 *865:B 0.000150097
2 *871:C 0.000101716
3 *864:Y 0.000247866
4 *193:8 0.000499679
5 *865:B *935:A1 9.71197e-05
6 *865:B *935:B1 0.000100625
7 *865:B *250:12 9.90367e-05
8 *871:C *871:A 7.83366e-05
9 *871:C *872:B1 2.26327e-05
10 *871:C *935:A2 0.000128218
11 *871:C *342:16 1.58213e-06
12 *193:8 *872:B1 7.83462e-05
13 *193:8 *873:C1 0
14 *193:8 *1064:A 0
15 *193:8 *250:12 0
16 *1055:A *193:8 0
17 *188:8 *865:B 2.77289e-05
*RES
1 *864:Y *193:8 17.5679 
2 *193:8 *871:C 16.2464 
3 *193:8 *865:B 17.2107 
*END

*D_NET *194 0.00315139
*CONN
*I *869:B1 I *D sky130_fd_sc_hd__o211ai_1
*I *872:A3 I *D sky130_fd_sc_hd__a31o_1
*I *865:X O *D sky130_fd_sc_hd__and2b_1
*CAP
1 *869:B1 0.000507944
2 *872:A3 0.000538878
3 *865:X 0
4 *194:4 0.00104682
5 *869:B1 *869:C1 5.65955e-05
6 *869:B1 *932:A1 2.56601e-05
7 *869:B1 *932:A2 0.000173467
8 *869:B1 *934:B 0.000125724
9 *869:B1 *935:B1 0
10 *872:A3 *872:B1 0
11 *872:A3 *932:A1 0
12 *872:A3 *935:B1 1.65558e-05
13 *872:A3 *1064:A 1.74352e-05
14 *872:A3 *195:8 0
15 *872:A3 *250:12 0.000100979
16 *872:A3 *341:27 0.00017684
17 *932:B1 *869:B1 0
18 *933:A *869:B1 8.57023e-05
19 *188:8 *869:B1 0.0001399
20 *188:8 *872:A3 5.52302e-05
21 *188:23 *869:B1 8.36572e-05
*RES
1 *865:X *194:4 9.3 
2 *194:4 *872:A3 27.05 
3 *194:4 *869:B1 27.4786 
*END

*D_NET *195 0.00135523
*CONN
*I *868:A I *D sky130_fd_sc_hd__and2_1
*I *933:B I *D sky130_fd_sc_hd__and3_1
*I *932:A1 I *D sky130_fd_sc_hd__a21oi_1
*I *866:Y O *D sky130_fd_sc_hd__nand2_1
*CAP
1 *868:A 0.000103349
2 *933:B 0.000220868
3 *932:A1 0.00012062
4 *866:Y 0
5 *195:8 0.000407912
6 *195:4 0.000169773
7 *868:A *867:A 3.48705e-05
8 *868:A *373:21 6.29133e-05
9 *932:A1 *935:B1 1.08359e-05
10 *869:B1 *932:A1 2.56601e-05
11 *872:A3 *932:A1 0
12 *872:A3 *195:8 0
13 *932:B1 *932:A1 0.000100823
14 *933:A *933:B 8.35655e-05
15 *188:23 *933:B 1.40415e-05
*RES
1 *866:Y *195:4 9.3 
2 *195:4 *195:8 5.53571 
3 *195:8 *932:A1 16.3536 
4 *195:8 *933:B 16.8 
5 *195:4 *868:A 11.5143 
*END

*D_NET *196 0.000270707
*CONN
*I *868:B I *D sky130_fd_sc_hd__and2_1
*I *867:X O *D sky130_fd_sc_hd__or2_1
*CAP
1 *868:B 3.46694e-05
2 *867:X 3.46694e-05
3 *868:B *867:A 0.000144497
4 *868:B *197:6 5.68713e-05
*RES
1 *867:X *868:B 19.9571 
*END

*D_NET *197 0.00146136
*CONN
*I *931:B I *D sky130_fd_sc_hd__xor2_1
*I *869:C1 I *D sky130_fd_sc_hd__o211ai_1
*I *930:B I *D sky130_fd_sc_hd__nand2_1
*I *868:X O *D sky130_fd_sc_hd__and2_1
*CAP
1 *931:B 0
2 *869:C1 0.000140092
3 *930:B 2.22847e-05
4 *868:X 0.000108845
5 *197:19 0.000260473
6 *197:6 0.000251511
7 *869:C1 *934:B 0
8 *869:C1 *198:18 7.43578e-06
9 *869:C1 *247:14 8.08022e-05
10 *197:6 *867:A 4.73286e-05
11 *197:6 *341:12 3.08664e-05
12 *197:6 *341:23 2.70242e-05
13 *197:19 *247:14 0.000134198
14 *197:19 *341:12 2.84026e-05
15 *858:B *869:C1 3.34366e-05
16 *868:B *197:6 5.68713e-05
17 *869:B1 *869:C1 5.65955e-05
18 *930:A *197:19 2.49484e-05
19 *187:12 *869:C1 0.000150244
*RES
1 *868:X *197:6 11.8893 
2 *197:6 *930:B 9.72857 
3 *197:6 *197:19 7.28571 
4 *197:19 *869:C1 17.3 
5 *197:19 *931:B 13.8 
*END

*D_NET *198 0.00493832
*CONN
*I *889:A1 I *D sky130_fd_sc_hd__a211o_1
*I *874:A I *D sky130_fd_sc_hd__nand2_1
*I *869:Y O *D sky130_fd_sc_hd__o211ai_1
*CAP
1 *889:A1 0.000281516
2 *874:A 0.000174262
3 *869:Y 0.000982132
4 *198:18 0.00143791
5 *874:A *923:A 8.16102e-05
6 *874:A *923:B 2.2351e-05
7 *874:A *1000:CLK 9.71197e-05
8 *874:A *346:14 7.92229e-06
9 *889:A1 *888:A 0.000153601
10 *889:A1 *889:B1 4.5226e-05
11 *889:A1 *923:B 0.000161015
12 *889:A1 *304:12 5.51658e-05
13 *889:A1 *304:14 1.52978e-05
14 *889:A1 *370:32 0
15 *198:18 *757:A 2.30245e-05
16 *198:18 *998:CLK 0
17 *198:18 *1000:CLK 5.49544e-05
18 *198:18 *1000:D 7.09928e-05
19 *198:18 *247:14 0
20 *198:18 *304:14 0
21 *198:18 *332:43 0.000710384
22 *198:18 *341:12 5.544e-05
23 *198:18 *346:14 9.35114e-06
24 *198:18 *370:21 7.0061e-05
25 *198:18 *370:32 0.000180555
26 *858:B *198:18 1.34631e-05
27 *869:A1 *198:18 0.000143375
28 *869:C1 *198:18 7.43578e-06
29 *998:RESET_B *198:18 0
30 *184:14 *198:18 7.6666e-05
31 *187:12 *198:18 7.48301e-06
*RES
1 *869:Y *198:18 40.8536 
2 *198:18 *874:A 12.7286 
3 *198:18 *889:A1 28.6689 
*END

*D_NET *199 0.000179565
*CONN
*I *873:B1 I *D sky130_fd_sc_hd__a211oi_1
*I *870:X O *D sky130_fd_sc_hd__o211a_1
*CAP
1 *873:B1 2.89467e-05
2 *870:X 2.89467e-05
3 *873:B1 *873:C1 8.00806e-05
4 *873:B1 *308:14 4.15914e-05
*RES
1 *870:X *873:B1 28.6357 
*END

*D_NET *200 0.00079002
*CONN
*I *872:B1 I *D sky130_fd_sc_hd__a31o_1
*I *871:X O *D sky130_fd_sc_hd__and3_1
*CAP
1 *872:B1 0.000193462
2 *871:X 0.000193462
3 *872:B1 *935:A2 0.000127446
4 *872:B1 *935:B1 0
5 *872:B1 *250:12 6.42242e-05
6 *872:B1 *341:27 5.52238e-05
7 *872:B1 *373:21 5.52238e-05
8 *871:C *872:B1 2.26327e-05
9 *872:A3 *872:B1 0
10 *193:8 *872:B1 7.83462e-05
*RES
1 *871:X *872:B1 32.2071 
*END

*D_NET *201 0.0019285
*CONN
*I *873:C1 I *D sky130_fd_sc_hd__a211oi_1
*I *872:X O *D sky130_fd_sc_hd__a31o_1
*CAP
1 *873:C1 0.000702261
2 *872:X 0.000702261
3 *873:C1 *870:B1 0
4 *873:C1 *938:B 0
5 *873:C1 *1064:A 4.79842e-05
6 *873:C1 *250:12 0
7 *873:C1 *307:16 0
8 *873:C1 *308:14 4.16207e-05
9 *873:C1 *343:22 0
10 *873:C1 *343:33 0
11 *873:C1 *344:16 0
12 acc[18] *873:C1 0
13 *862:B *873:C1 0.00027338
14 *864:B *873:C1 0
15 *873:B1 *873:C1 8.00806e-05
16 *189:10 *873:C1 1.17968e-05
17 *190:8 *873:C1 6.91157e-05
18 *192:10 *873:C1 0
19 *193:8 *873:C1 0
*RES
1 *872:X *873:C1 41.3857 
*END

*D_NET *202 0.00241001
*CONN
*I *889:A2 I *D sky130_fd_sc_hd__a211o_1
*I *874:B I *D sky130_fd_sc_hd__nand2_1
*I *873:Y O *D sky130_fd_sc_hd__a211oi_1
*CAP
1 *889:A2 0.00014683
2 *874:B 0.00012309
3 *873:Y 0.000541452
4 *202:6 0.000811373
5 *874:B *887:A 0
6 *874:B *889:B1 0
7 *874:B *923:A 5.41794e-05
8 *874:B *215:10 0.00012401
9 *874:B *304:12 0
10 *874:B *304:14 0
11 *874:B *310:14 0
12 *889:A2 *888:B 6.12668e-05
13 *889:A2 *889:B1 4.34009e-05
14 *889:A2 *924:B1_N 5.49544e-05
15 *202:6 *887:A 2.89016e-05
16 *202:6 *888:B 3.98547e-05
17 *202:6 *924:B1_N 5.33005e-05
18 *202:6 *1067:A 7.61932e-05
19 *202:6 *1069:A 0.000149004
20 *202:6 *216:6 8.07313e-05
21 *202:6 *344:33 2.14658e-05
*RES
1 *873:Y *202:6 18.8714 
2 *202:6 *874:B 20.55 
3 *202:6 *889:A2 12.2107 
*END

*D_NET *203 0.00114948
*CONN
*I *923:A I *D sky130_fd_sc_hd__xnor2_1
*I *924:A1 I *D sky130_fd_sc_hd__a21bo_1
*I *874:Y O *D sky130_fd_sc_hd__nand2_1
*CAP
1 *923:A 0.000115135
2 *924:A1 0.000212743
3 *874:Y 0
4 *203:4 0.000327878
5 *923:A *346:14 0.000125947
6 *924:A1 *887:A 0
7 *924:A1 *215:10 0.00016327
8 *924:A1 *346:14 6.87146e-05
9 *874:A *923:A 8.16102e-05
10 *874:B *923:A 5.41794e-05
*RES
1 *874:Y *203:4 9.3 
2 *203:4 *924:A1 21.7107 
3 *203:4 *923:A 21.2286 
*END

*D_NET *204 0.00172673
*CONN
*I *926:B1_N I *D sky130_fd_sc_hd__a21bo_1
*I *892:A I *D sky130_fd_sc_hd__or3_1
*I *877:A I *D sky130_fd_sc_hd__nand2_1
*I *875:Y O *D sky130_fd_sc_hd__nand2_1
*CAP
1 *926:B1_N 0
2 *892:A 0.000108423
3 *877:A 2.23854e-05
4 *875:Y 0.00020755
5 *204:19 0.0004113
6 *204:6 0.000532812
7 *877:A *875:A 0
8 *892:A *884:C 0.000130134
9 *892:A *885:A 1.69115e-05
10 *892:A *892:B 7.11463e-05
11 *892:A *1001:CLK 1.98839e-05
12 *892:A *209:17 0
13 *892:A *212:30 4.25176e-05
14 *204:6 *875:A 2.28598e-05
15 *204:6 *877:B 9.90431e-05
16 *204:6 *311:8 6.05161e-06
17 *204:19 *885:A 3.5707e-05
18 *204:19 *209:17 0
*RES
1 *875:Y *204:6 12.7107 
2 *204:6 *877:A 9.72857 
3 *204:6 *204:19 9.25 
4 *204:19 *892:A 16.6036 
5 *204:19 *926:B1_N 13.8 
*END

*D_NET *205 0.00158146
*CONN
*I *877:B I *D sky130_fd_sc_hd__nand2_1
*I *926:A1 I *D sky130_fd_sc_hd__a21bo_1
*I *876:X O *D sky130_fd_sc_hd__or2_1
*CAP
1 *877:B 0.000199388
2 *926:A1 0.000305803
3 *876:X 0.000130899
4 *205:10 0.00063609
5 *877:B *876:A 0
6 *877:B *1001:D 5.83304e-05
7 *877:B *206:10 0
8 *877:B *245:10 0
9 *926:A1 *892:B 1.24368e-05
10 *926:A1 *1001:CLK 6.28241e-05
11 *205:10 *876:A 0
12 *205:10 *1001:D 7.6644e-05
13 *204:6 *877:B 9.90431e-05
*RES
1 *876:X *205:10 15.7821 
2 *205:10 *926:A1 18.1929 
3 *205:10 *877:B 17.9071 
*END

*D_NET *206 0.00110089
*CONN
*I *884:A I *D sky130_fd_sc_hd__nor3_1
*I *925:A I *D sky130_fd_sc_hd__xnor2_1
*I *877:Y O *D sky130_fd_sc_hd__nand2_1
*CAP
1 *884:A 0.000141999
2 *925:A 0
3 *877:Y 0.000221357
4 *206:10 0.000363356
5 *884:A *884:B 8.07313e-05
6 *884:A *925:B 9.90367e-05
7 *206:10 *876:A 0
8 *206:10 *926:A2 5.75803e-05
9 *206:10 *1001:D 4.48113e-05
10 *206:10 *209:17 0
11 *206:10 *244:8 1.19402e-05
12 *206:10 *245:10 8.00806e-05
13 *877:B *206:10 0
*RES
1 *877:Y *206:10 22.675 
2 *206:10 *925:A 9.3 
3 *206:10 *884:A 12.3 
*END

*D_NET *207 0.000673854
*CONN
*I *928:A1 I *D sky130_fd_sc_hd__a21bo_1
*I *880:A I *D sky130_fd_sc_hd__nand2_1
*I *878:X O *D sky130_fd_sc_hd__or2_1
*CAP
1 *928:A1 0.000142903
2 *880:A 7.52833e-05
3 *878:X 0
4 *207:4 0.000218186
5 *880:A *928:A2 0
6 *880:A *929:B 6.32633e-05
7 *880:A *208:12 5.26184e-05
8 *928:A1 *1002:CLK 0.0001216
*RES
1 *878:X *207:4 9.3 
2 *207:4 *880:A 20.2464 
3 *207:4 *928:A1 11.9071 
*END

*D_NET *208 0.00198953
*CONN
*I *891:A_N I *D sky130_fd_sc_hd__nand2b_1
*I *928:B1_N I *D sky130_fd_sc_hd__a21bo_1
*I *880:B I *D sky130_fd_sc_hd__nand2_1
*I *879:Y O *D sky130_fd_sc_hd__nand2_1
*CAP
1 *891:A_N 6.07967e-05
2 *928:B1_N 6.83784e-05
3 *880:B 0
4 *879:Y 0.000141035
5 *208:21 0.000366997
6 *208:12 0.000378857
7 *928:B1_N *1003:D 3.84349e-05
8 *928:B1_N *212:16 6.56312e-06
9 *208:12 *878:A 0.00015234
10 *208:12 *878:B 0.00015234
11 *208:12 *927:A 5.71472e-05
12 *208:12 *928:A2 2.14757e-05
13 *208:12 *1002:D 0
14 *208:12 *245:10 5.83233e-05
15 *208:21 *927:A 2.14658e-05
16 *208:21 *928:A2 0.000270326
17 *208:21 *929:A 0.000142427
18 *880:A *208:12 5.26184e-05
*RES
1 *879:Y *208:12 22.9071 
2 *208:12 *880:B 9.3 
3 *208:12 *208:21 5.07143 
4 *208:21 *928:B1_N 19.6393 
5 *208:21 *891:A_N 10.2643 
*END

*D_NET *209 0.00299475
*CONN
*I *892:B I *D sky130_fd_sc_hd__or3_1
*I *884:B I *D sky130_fd_sc_hd__nor3_1
*I *927:A I *D sky130_fd_sc_hd__xnor2_1
*I *880:Y O *D sky130_fd_sc_hd__nand2_1
*CAP
1 *892:B 0.000231875
2 *884:B 0.000177545
3 *927:A 0.000278118
4 *880:Y 0
5 *209:17 0.000682817
6 *209:4 0.000551516
7 *884:B *884:C 6.05161e-06
8 *884:B *890:B 1.39841e-05
9 *884:B *926:A2 0.000104974
10 *892:B *1001:CLK 4.72595e-05
11 *927:A *927:B 0.00025018
12 *927:A *928:A2 1.02936e-05
13 *927:A *1002:D 0.000230475
14 *209:17 *884:C 0
15 *209:17 *885:A 0
16 *209:17 *926:A2 4.73656e-05
17 *209:17 *929:B 2.8266e-06
18 *209:17 *212:30 0
19 *209:17 *245:10 0.000116545
20 *884:A *884:B 8.07313e-05
21 *892:A *892:B 7.11463e-05
22 *892:A *209:17 0
23 *926:A1 *892:B 1.24368e-05
24 *204:19 *209:17 0
25 *206:10 *209:17 0
26 *208:12 *927:A 5.71472e-05
27 *208:21 *927:A 2.14658e-05
*RES
1 *880:Y *209:4 9.3 
2 *209:4 *927:A 16.425 
3 *209:4 *209:17 10.0893 
4 *209:17 *884:B 17.3179 
5 *209:17 *892:B 16.8 
*END

*D_NET *210 0.00325386
*CONN
*I *893:A I *D sky130_fd_sc_hd__and4_1
*I *883:A I *D sky130_fd_sc_hd__nand2_1
*I *881:Y O *D sky130_fd_sc_hd__nand2_1
*CAP
1 *893:A 0.000422614
2 *883:A 9.67674e-05
3 *881:Y 0.000144268
4 *210:6 0.00066365
5 *883:A *883:B 5.99152e-05
6 *883:A *370:134 0.000271898
7 *893:A *893:C 0.000141734
8 *893:A *893:D 9.56348e-05
9 *893:A *222:12 3.27526e-05
10 *893:A *304:74 0.000384979
11 *893:A *370:32 0.000645598
12 *893:A *370:134 4.80729e-05
13 *210:6 *882:A 9.90431e-05
14 *210:6 *313:8 1.74352e-05
15 *210:6 *370:36 5.33433e-05
16 *210:6 *370:55 2.28499e-05
17 *210:6 *370:134 5.33005e-05
*RES
1 *881:Y *210:6 12.3 
2 *210:6 *883:A 12.3179 
3 *210:6 *893:A 30.9786 
*END

*D_NET *211 0.00137182
*CONN
*I *883:B I *D sky130_fd_sc_hd__nand2_1
*I *891:B I *D sky130_fd_sc_hd__nand2b_1
*I *882:X O *D sky130_fd_sc_hd__or2_1
*CAP
1 *883:B 0.00034365
2 *891:B 4.66985e-05
3 *882:X 0.0002271
4 *211:6 0.000617448
5 *883:B *212:16 7.70035e-05
6 *883:A *883:B 5.99152e-05
*RES
1 *882:X *211:6 12.7107 
2 *211:6 *891:B 9.96964 
3 *211:6 *883:B 24.4786 
*END

*D_NET *212 0.00347602
*CONN
*I *929:A I *D sky130_fd_sc_hd__xnor2_1
*I *892:C I *D sky130_fd_sc_hd__or3_1
*I *884:C I *D sky130_fd_sc_hd__nor3_1
*I *883:Y O *D sky130_fd_sc_hd__nand2_1
*CAP
1 *929:A 5.63549e-05
2 *892:C 0
3 *884:C 0.000192287
4 *883:Y 0.000457712
5 *212:30 0.000579762
6 *212:16 0.000901542
7 *884:C *885:A 0.000125178
8 *884:C *890:B 5.68713e-05
9 *884:C *926:A2 0
10 *884:C *1001:CLK 9.66977e-05
11 *884:C *304:51 0
12 *212:16 *878:A 0
13 *212:16 *928:A2 6.42338e-05
14 *212:16 *929:B 0
15 *212:16 *1002:CLK 0.00012357
16 *212:16 *1003:D 0.00010288
17 *212:16 *304:76 7.56926e-05
18 *212:30 *885:A 8.33056e-05
19 *212:30 *929:B 0
20 *212:30 *1001:CLK 9.66977e-05
21 *212:30 *304:51 8.18233e-06
22 *212:30 *304:68 5.03526e-05
23 *883:B *212:16 7.70035e-05
24 *884:B *884:C 6.05161e-06
25 *892:A *884:C 0.000130134
26 *892:A *212:30 4.25176e-05
27 *928:B1_N *212:16 6.56312e-06
28 *208:21 *929:A 0.000142427
29 *209:17 *884:C 0
30 *209:17 *212:30 0
*RES
1 *883:Y *212:16 30.4071 
2 *212:16 *212:30 12.5714 
3 *212:30 *884:C 22.6393 
4 *212:30 *892:C 9.3 
5 *212:16 *929:A 15.1571 
*END

*D_NET *213 0.000889882
*CONN
*I *885:A I *D sky130_fd_sc_hd__inv_2
*I *884:Y O *D sky130_fd_sc_hd__nor3_1
*CAP
1 *885:A 0.00031439
2 *884:Y 0.00031439
3 *884:C *885:A 0.000125178
4 *892:A *885:A 1.69115e-05
5 *204:19 *885:A 3.5707e-05
6 *209:17 *885:A 0
7 *212:30 *885:A 8.33056e-05
*RES
1 *884:Y *885:A 33.6893 
*END

*D_NET *214 0.00221549
*CONN
*I *890:A I *D sky130_fd_sc_hd__or2_1
*I *889:B1 I *D sky130_fd_sc_hd__a211o_1
*I *885:Y O *D sky130_fd_sc_hd__inv_2
*CAP
1 *890:A 0
2 *889:B1 0.000419321
3 *885:Y 0.000322395
4 *214:14 0.000741716
5 *889:B1 *888:B 6.31724e-05
6 *889:B1 *890:B 5.49544e-05
7 *889:B1 *215:21 0
8 *889:B1 *217:8 1.73088e-05
9 *889:B1 *304:10 5.52302e-05
10 *889:B1 *304:12 7.58301e-05
11 *889:B1 *304:51 1.0033e-05
12 *214:14 *893:B 7.45188e-05
13 *214:14 *893:C 7.6644e-05
14 *214:14 *304:10 4.3537e-05
15 *214:14 *304:51 0.000132452
16 *214:14 *304:68 3.97485e-05
17 *874:B *889:B1 0
18 *889:A1 *889:B1 4.5226e-05
19 *889:A2 *889:B1 4.34009e-05
*RES
1 *885:Y *214:14 24.5679 
2 *214:14 *889:B1 25.2687 
3 *214:14 *890:A 9.3 
*END

*D_NET *215 0.0030641
*CONN
*I *890:B I *D sky130_fd_sc_hd__or2_1
*I *888:A I *D sky130_fd_sc_hd__nand2_1
*I *924:B1_N I *D sky130_fd_sc_hd__a21bo_1
*I *886:Y O *D sky130_fd_sc_hd__nand2_1
*CAP
1 *890:B 0.000294912
2 *888:A 0.000507531
3 *924:B1_N 2.66579e-05
4 *886:Y 0.000156852
5 *215:21 0.000836985
6 *215:10 0.000218052
7 *888:A *923:B 3.47641e-06
8 *888:A *304:12 2.30116e-06
9 *890:B *244:8 0
10 *924:B1_N *888:B 5.28427e-05
11 *215:10 *887:A 0
12 *215:10 *346:14 0.000232399
13 *215:10 *346:22 5.71472e-05
14 *215:21 *887:A 0
15 *874:B *215:10 0.00012401
16 *884:B *890:B 1.39841e-05
17 *884:C *890:B 5.68713e-05
18 *889:A1 *888:A 0.000153601
19 *889:A2 *924:B1_N 5.49544e-05
20 *889:B1 *890:B 5.49544e-05
21 *889:B1 *215:21 0
22 *924:A1 *215:10 0.00016327
23 *202:6 *924:B1_N 5.33005e-05
*RES
1 *886:Y *215:10 18.3357 
2 *215:10 *924:B1_N 14.7464 
3 *215:10 *215:21 0.580357 
4 *215:21 *888:A 21.7365 
5 *215:21 *890:B 18.5946 
*END

*D_NET *216 0.00146867
*CONN
*I *888:B I *D sky130_fd_sc_hd__nand2_1
*I *924:A2 I *D sky130_fd_sc_hd__a21bo_1
*I *887:X O *D sky130_fd_sc_hd__or2_1
*CAP
1 *888:B 0.000307577
2 *924:A2 0
3 *887:X 5.10293e-05
4 *216:6 0.000358607
5 *888:B *217:8 5.7007e-05
6 *888:B *218:6 0.000396581
7 *889:A2 *888:B 6.12668e-05
8 *889:B1 *888:B 6.31724e-05
9 *924:B1_N *888:B 5.28427e-05
10 *202:6 *888:B 3.98547e-05
11 *202:6 *216:6 8.07313e-05
*RES
1 *887:X *216:6 10.6571 
2 *216:6 *924:A2 9.3 
3 *216:6 *888:B 16.8536 
*END

*D_NET *217 0.00100139
*CONN
*I *889:C1 I *D sky130_fd_sc_hd__a211o_1
*I *923:B I *D sky130_fd_sc_hd__xnor2_1
*I *888:Y O *D sky130_fd_sc_hd__nand2_1
*CAP
1 *889:C1 0
2 *923:B 0.000162171
3 *888:Y 6.03279e-05
4 *217:8 0.000222499
5 *923:B *1000:CLK 5.52302e-05
6 *923:B *304:12 0.000191714
7 *923:B *346:14 4.82865e-05
8 *874:A *923:B 2.2351e-05
9 *888:A *923:B 3.47641e-06
10 *888:B *217:8 5.7007e-05
11 *889:A1 *923:B 0.000161015
12 *889:B1 *217:8 1.73088e-05
*RES
1 *888:Y *217:8 10.675 
2 *217:8 *923:B 22.3357 
3 *217:8 *889:C1 9.3 
*END

*D_NET *218 0.00325234
*CONN
*I *894:A1 I *D sky130_fd_sc_hd__a21oi_1
*I *914:B I *D sky130_fd_sc_hd__and3_1
*I *895:A1 I *D sky130_fd_sc_hd__a21o_1
*I *889:X O *D sky130_fd_sc_hd__a211o_1
*CAP
1 *894:A1 3.76456e-05
2 *914:B 0.000525268
3 *895:A1 0.000110462
4 *889:X 0.00044685
5 *218:10 0.000688726
6 *218:6 0.000537492
7 *894:A1 *1004:CLK 1.74352e-05
8 *895:A1 *304:6 8.17274e-05
9 *895:A1 *304:10 5.33005e-05
10 *914:B *914:C 5.52555e-05
11 *914:B *370:32 0.000156275
12 *218:6 *894:A2 6.86792e-05
13 *218:10 *370:32 7.6644e-05
14 *888:B *218:6 0.000396581
15 *914:A *914:B 0
16 *120:10 *914:B 0
*RES
1 *889:X *218:6 15.175 
2 *218:6 *218:10 5.53571 
3 *218:10 *895:A1 15.1571 
4 *218:10 *914:B 21.6571 
5 *218:6 *894:A1 9.83571 
*END

*D_NET *219 0.000359228
*CONN
*I *893:B I *D sky130_fd_sc_hd__and4_1
*I *890:X O *D sky130_fd_sc_hd__or2_1
*CAP
1 *893:B 0.000133308
2 *890:X 0.000133308
3 *893:B *222:12 3.23884e-06
4 *893:B *304:10 1.48543e-05
5 *214:14 *893:B 7.45188e-05
*RES
1 *890:X *893:B 30.0821 
*END

*D_NET *220 0.000950071
*CONN
*I *893:C I *D sky130_fd_sc_hd__and4_1
*I *891:Y O *D sky130_fd_sc_hd__nand2b_1
*CAP
1 *893:C 0.000282743
2 *891:Y 0.000282743
3 *893:C *893:D 1.55885e-05
4 *893:C *304:68 0.000150618
5 *893:C *304:74 0
6 *893:A *893:C 0.000141734
7 *214:14 *893:C 7.6644e-05
*RES
1 *891:Y *893:C 32.8321 
*END

*D_NET *221 0.000541111
*CONN
*I *893:D I *D sky130_fd_sc_hd__and4_1
*I *892:X O *D sky130_fd_sc_hd__or3_1
*CAP
1 *893:D 0.000200743
2 *892:X 0.000200743
3 *893:D *1001:CLK 2.84026e-05
4 *893:A *893:D 9.56348e-05
5 *893:C *893:D 1.55885e-05
*RES
1 *892:X *893:D 22.4571 
*END

*D_NET *222 0.00240776
*CONN
*I *914:C I *D sky130_fd_sc_hd__and3_1
*I *895:A2 I *D sky130_fd_sc_hd__a21o_1
*I *894:A2 I *D sky130_fd_sc_hd__a21oi_1
*I *893:X O *D sky130_fd_sc_hd__and4_1
*CAP
1 *914:C 0.000503925
2 *895:A2 2.39758e-05
3 *894:A2 0.000169657
4 *893:X 0
5 *222:12 0.000348415
6 *222:4 0.000658707
7 *894:A2 *1004:CLK 0.000240061
8 *894:A2 *304:12 0
9 *894:A2 *370:32 1.0033e-05
10 *895:A2 *304:10 5.49489e-05
11 *222:12 *370:32 0.000238107
12 *893:A *222:12 3.27526e-05
13 *893:B *222:12 3.23884e-06
14 *914:B *914:C 5.52555e-05
15 *218:6 *894:A2 6.86792e-05
*RES
1 *893:X *222:4 9.3 
2 *222:4 *222:12 8.625 
3 *222:12 *894:A2 17.4071 
4 *222:12 *895:A2 14.3357 
5 *222:4 *914:C 15.2464 
*END

*D_NET *223 0.0017894
*CONN
*I *915:A I *D sky130_fd_sc_hd__nor2_1
*I *894:Y O *D sky130_fd_sc_hd__a21oi_1
*CAP
1 *915:A 0.00071258
2 *894:Y 0.00071258
3 *915:A *1004:CLK 0.000154027
4 *915:A *1004:D 0.000196963
5 *915:A *370:80 0
6 *894:B1 *915:A 1.32552e-05
7 *914:A *915:A 0
8 *118:25 *915:A 0
*RES
1 *894:Y *915:A 39.3679 
*END

*D_NET *224 0.00468245
*CONN
*I *896:A3 I *D sky130_fd_sc_hd__a31oi_1
*I *897:A3 I *D sky130_fd_sc_hd__a311o_1
*I *919:A2 I *D sky130_fd_sc_hd__a21o_1
*I *916:B I *D sky130_fd_sc_hd__nand2_1
*I *895:X O *D sky130_fd_sc_hd__a21o_1
*CAP
1 *896:A3 8.14869e-05
2 *897:A3 0.000301499
3 *919:A2 0
4 *916:B 6.55435e-05
5 *895:X 0.000506584
6 *224:21 0.000453988
7 *224:12 0.00030741
8 *224:8 0.000677449
9 *896:A3 *790:B 1.02504e-05
10 *896:A3 *1073:A 0
11 *896:A3 *314:10 1.721e-05
12 *896:A3 *351:25 0
13 *897:A3 *1019:A 0
14 *897:A3 *1073:A 0
15 *224:8 *789:A 5.52302e-05
16 *224:8 *790:A 2.28499e-05
17 *224:8 *1015:A 2.65105e-05
18 *224:12 *1073:A 0
19 *224:12 *314:10 0.000176234
20 *791:B *224:8 3.18676e-05
21 *895:B1 *224:8 0.000224356
22 *897:A1 *897:A3 6.49391e-05
23 *897:A2 *897:A3 0.000238125
24 *897:B1 *897:A3 5.66157e-05
25 *897:C1 *897:A3 2.82057e-05
26 *111:12 *897:A3 9.25014e-06
27 *117:18 *897:A3 1.00073e-05
28 *118:17 *224:8 5.91367e-05
29 *118:34 *897:A3 5.71472e-05
30 *118:34 *916:B 0.000137983
31 *118:34 *224:21 0.000446603
32 *120:8 *224:8 0.000615969
*RES
1 *895:X *224:8 25.8357 
2 *224:8 *224:12 6.75 
3 *224:12 *916:B 10.6571 
4 *224:12 *224:21 4.23214 
5 *224:21 *919:A2 9.3 
6 *224:21 *897:A3 24.9696 
7 *224:8 *896:A3 15.0679 
*END

*D_NET *225 0.000855455
*CONN
*I *898:B I *D sky130_fd_sc_hd__xnor2_1
*I *896:Y O *D sky130_fd_sc_hd__a31oi_1
*CAP
1 *898:B 0.000141495
2 *896:Y 0.000141495
3 *898:B *1073:A 5.58941e-05
4 *898:B *301:28 8.32171e-05
5 *898:B *351:25 5.06883e-05
6 *896:A1 *898:B 0.0001399
7 *896:B1 *898:B 0.0001399
8 *897:B1 *898:B 1.46624e-05
9 *897:C1 *898:B 8.82021e-05
*RES
1 *896:Y *898:B 32.1179 
*END

*D_NET *226 0.00331005
*CONN
*I *911:A1 I *D sky130_fd_sc_hd__a21oi_1
*I *907:A2 I *D sky130_fd_sc_hd__a31o_1
*I *902:B I *D sky130_fd_sc_hd__nand2_1
*I *897:X O *D sky130_fd_sc_hd__a311o_1
*CAP
1 *911:A1 9.11761e-05
2 *907:A2 0.00011537
3 *902:B 0
4 *897:X 0.000612754
5 *226:21 0.000788522
6 *226:12 0.00119473
7 *907:A2 *911:B1 0.000105324
8 *907:A2 *227:17 9.48172e-05
9 *911:A1 *913:A 3.37729e-05
10 *226:12 *1019:A 5.52238e-05
11 *226:21 *913:A 4.53919e-05
12 *226:21 *913:B 4.87854e-05
13 *774:A *226:12 5.49561e-05
14 *774:A *226:21 1.40034e-05
15 *101:18 *226:12 5.52238e-05
*RES
1 *897:X *226:12 17.3893 
2 *226:12 *902:B 9.3 
3 *226:12 *226:21 7.32143 
4 *226:21 *907:A2 20.6036 
5 *226:21 *911:A1 10.8714 
*END

*D_NET *227 0.00255569
*CONN
*I *910:A1 I *D sky130_fd_sc_hd__a21o_1
*I *907:B1 I *D sky130_fd_sc_hd__a31o_1
*I *901:A_N I *D sky130_fd_sc_hd__nand2b_1
*I *899:Y O *D sky130_fd_sc_hd__nor2_1
*CAP
1 *910:A1 0.000233408
2 *907:B1 0
3 *901:A_N 0.000217348
4 *899:Y 0
5 *227:17 0.000519588
6 *227:4 0.000503528
7 *901:A_N *900:A 0.000144773
8 *901:A_N *228:8 0.000115035
9 *910:A1 *908:B 2.04825e-05
10 *910:A1 *911:B1 4.75428e-05
11 *910:A1 *1077:A 0.000187244
12 *910:A1 *231:12 5.52302e-05
13 *910:A1 *232:6 1.58163e-05
14 *227:17 *769:A 6.98575e-05
15 *227:17 *911:A2 0.000150611
16 *227:17 *911:B1 5.21933e-05
17 *227:17 *1011:D 3.2534e-05
18 *227:17 *1077:A 9.56804e-05
19 *227:17 *228:25 0
20 *227:17 *305:77 0
21 *227:17 *306:8 0
22 *907:A2 *227:17 9.48172e-05
*RES
1 *899:Y *227:4 9.3 
2 *227:4 *901:A_N 13.8536 
3 *227:4 *227:17 11.3036 
4 *227:17 *907:B1 13.8 
5 *227:17 *910:A1 18.3714 
*END

*D_NET *228 0.00224595
*CONN
*I *907:A3 I *D sky130_fd_sc_hd__a31o_1
*I *909:A1 I *D sky130_fd_sc_hd__o211a_1
*I *901:B I *D sky130_fd_sc_hd__nand2b_1
*I *900:Y O *D sky130_fd_sc_hd__nand2_1
*CAP
1 *907:A3 8.99395e-05
2 *909:A1 1.91209e-05
3 *901:B 5.15806e-06
4 *900:Y 0.000188455
5 *228:25 0.000509067
6 *228:8 0.00059362
7 *907:A3 *911:A2 6.90561e-05
8 *907:A3 *913:B 5.33005e-05
9 *228:8 *900:A 3.18676e-05
10 *228:25 *911:A2 0
11 *228:25 *305:45 0
12 *228:25 *305:73 5.59013e-05
13 *228:25 *305:77 0
14 *228:25 *355:12 0.000171368
15 *901:A_N *228:8 0.000115035
16 *907:A1 *907:A3 0.000181803
17 *909:C1 *907:A3 3.30237e-05
18 *909:C1 *909:A1 0
19 *909:C1 *228:25 2.27416e-05
20 *101:18 *228:25 0
21 *101:40 *228:25 0.000106498
22 *227:17 *228:25 0
*RES
1 *900:Y *228:8 13.1393 
2 *228:8 *901:B 9.42946 
3 *228:8 *228:25 17.0714 
4 *228:25 *909:A1 9.72857 
5 *228:25 *907:A3 11.8893 
*END

*D_NET *229 0.001055
*CONN
*I *903:A I *D sky130_fd_sc_hd__xnor2_1
*I *901:Y O *D sky130_fd_sc_hd__nand2b_1
*CAP
1 *903:A 0.000270386
2 *901:Y 0.000270386
3 *903:A *767:A 0.000230475
4 *903:A *903:B 6.55205e-05
5 *903:A *1009:D 0.000164835
6 *903:A *305:45 5.33978e-05
*RES
1 *901:Y *903:A 34.0107 
*END

*D_NET *230 0.00155084
*CONN
*I *903:B I *D sky130_fd_sc_hd__xnor2_1
*I *902:Y O *D sky130_fd_sc_hd__nand2_1
*CAP
1 *903:B 0.000465584
2 *902:Y 0.000465584
3 *903:B *767:A 0.000126446
4 *903:B *980:CLK 2.88517e-05
5 *903:B *1009:D 8.45221e-05
6 *903:B *305:45 0.000109229
7 *903:B *355:12 0
8 *774:B *903:B 7.6644e-05
9 *903:A *903:B 6.55205e-05
10 *101:18 *903:B 0.000102545
11 *103:12 *903:B 2.59093e-05
*RES
1 *902:Y *903:B 38.0464 
*END

*D_NET *231 0.00139342
*CONN
*I *910:B1 I *D sky130_fd_sc_hd__a21o_1
*I *906:A_N I *D sky130_fd_sc_hd__and2b_1
*I *909:A2 I *D sky130_fd_sc_hd__o211a_1
*I *904:Y O *D sky130_fd_sc_hd__nor2_1
*CAP
1 *910:B1 2.22141e-05
2 *906:A_N 1.53865e-05
3 *909:A2 0.000202522
4 *904:Y 0.000104466
5 *231:12 0.000336253
6 *231:6 0.000245025
7 *909:A2 *909:B1 0.00014673
8 *909:A2 *232:10 1.55953e-05
9 *910:B1 *910:A2 3.99614e-06
10 *231:6 *904:B 1.92789e-05
11 *231:6 *911:B1 8.57023e-05
12 *231:6 *232:6 4.30382e-05
13 *231:12 *911:B1 5.52302e-05
14 *231:12 *232:6 1.539e-05
15 *231:12 *232:10 5.39166e-06
16 *909:C1 *909:A2 1.78353e-05
17 *910:A1 *231:12 5.52302e-05
18 *101:40 *909:A2 4.1331e-06
*RES
1 *904:Y *231:6 11.4786 
2 *231:6 *231:12 2.32143 
3 *231:12 *909:A2 21.7107 
4 *231:12 *906:A_N 9.72857 
5 *231:6 *910:B1 9.72857 
*END

*D_NET *232 0.00199889
*CONN
*I *910:A2 I *D sky130_fd_sc_hd__a21o_1
*I *906:B I *D sky130_fd_sc_hd__and2b_1
*I *909:B1 I *D sky130_fd_sc_hd__o211a_1
*I *905:Y O *D sky130_fd_sc_hd__nand2_1
*CAP
1 *910:A2 3.3203e-05
2 *906:B 0
3 *909:B1 0.000214184
4 *905:Y 0.000370289
5 *232:10 0.00038259
6 *232:6 0.000571897
7 *909:B1 *305:77 0
8 *232:6 *904:B 0.00018077
9 *909:A2 *909:B1 0.00014673
10 *909:A2 *232:10 1.55953e-05
11 *910:A1 *232:6 1.58163e-05
12 *910:B1 *910:A2 3.99614e-06
13 *231:6 *232:6 4.30382e-05
14 *231:12 *232:6 1.539e-05
15 *231:12 *232:10 5.39166e-06
*RES
1 *905:Y *232:6 13.9429 
2 *232:6 *232:10 2.19643 
3 *232:10 *909:B1 22.2286 
4 *232:10 *906:B 9.3 
5 *232:6 *910:A2 10.3357 
*END

*D_NET *233 0.000232698
*CONN
*I *908:A I *D sky130_fd_sc_hd__xnor2_1
*I *906:X O *D sky130_fd_sc_hd__and2b_1
*CAP
1 *908:A 0.000110379
2 *906:X 0.000110379
3 *908:A *1007:CLK 0
4 *908:A *1007:D 1.19402e-05
5 *908:A *305:77 0
*RES
1 *906:X *908:A 29.5464 
*END

*D_NET *234 0.0016084
*CONN
*I *908:B I *D sky130_fd_sc_hd__xnor2_1
*I *907:X O *D sky130_fd_sc_hd__a31o_1
*CAP
1 *908:B 0.000478796
2 *907:X 0.000478796
3 *908:B *911:B1 0.000101545
4 *908:B *1007:CLK 8.07951e-05
5 *908:B *1010:D 5.26897e-05
6 *908:B *1077:A 0
7 *908:B *305:77 0.000340066
8 *907:A1 *908:B 5.52302e-05
9 *910:A1 *908:B 2.04825e-05
*RES
1 *907:X *908:B 37.725 
*END

*D_NET *235 0.00118039
*CONN
*I *911:A2 I *D sky130_fd_sc_hd__a21oi_1
*I *909:X O *D sky130_fd_sc_hd__o211a_1
*CAP
1 *911:A2 0.000293986
2 *909:X 0.000293986
3 *911:A2 *913:B 0.000219711
4 *911:A2 *1077:A 0.00015304
5 *907:A3 *911:A2 6.90561e-05
6 *227:17 *911:A2 0.000150611
7 *228:25 *911:A2 0
*RES
1 *909:X *911:A2 33.1 
*END

*D_NET *236 0.0012652
*CONN
*I *911:B1 I *D sky130_fd_sc_hd__a21oi_1
*I *910:X O *D sky130_fd_sc_hd__a21o_1
*CAP
1 *911:B1 0.000325648
2 *910:X 0.000325648
3 *911:B1 *913:B 0.000122347
4 *911:B1 *305:77 4.40149e-05
5 *907:A2 *911:B1 0.000105324
6 *908:B *911:B1 0.000101545
7 *910:A1 *911:B1 4.75428e-05
8 *227:17 *911:B1 5.21933e-05
9 *231:6 *911:B1 8.57023e-05
10 *231:12 *911:B1 5.52302e-05
*RES
1 *910:X *911:B1 34.2964 
*END

*D_NET *237 0.000449217
*CONN
*I *913:A I *D sky130_fd_sc_hd__xnor2_1
*I *911:Y O *D sky130_fd_sc_hd__a21oi_1
*CAP
1 *913:A 0.000136018
2 *911:Y 0.000136018
3 *913:A *913:B 9.80173e-05
4 *911:A1 *913:A 3.37729e-05
5 *226:21 *913:A 4.53919e-05
*RES
1 *911:Y *913:A 21.5107 
*END

*D_NET *238 0.00132414
*CONN
*I *913:B I *D sky130_fd_sc_hd__xnor2_1
*I *912:Y O *D sky130_fd_sc_hd__xnor2_1
*CAP
1 *913:B 0.000280447
2 *912:Y 0.000280447
3 *913:B *912:A 3.18676e-05
4 *913:B *305:77 0.000146474
5 *907:A1 *913:B 4.27437e-05
6 *907:A3 *913:B 5.33005e-05
7 *911:A2 *913:B 0.000219711
8 *911:B1 *913:B 0.000122347
9 *913:A *913:B 9.80173e-05
10 *226:21 *913:B 4.87854e-05
*RES
1 *912:Y *913:B 34.3143 
*END

*D_NET *239 0.000146008
*CONN
*I *915:B I *D sky130_fd_sc_hd__nor2_1
*I *914:X O *D sky130_fd_sc_hd__and3_1
*CAP
1 *915:B 7.30041e-05
2 *914:X 7.30041e-05
*RES
1 *914:X *915:B 19.8679 
*END

*D_NET *240 0.00115893
*CONN
*I *918:A2 I *D sky130_fd_sc_hd__a21bo_1
*I *917:B I *D sky130_fd_sc_hd__xnor2_1
*I *916:Y O *D sky130_fd_sc_hd__nand2_1
*CAP
1 *918:A2 0.000136402
2 *917:B 0
3 *916:Y 0.000146476
4 *240:10 0.000282877
5 *918:A2 *775:A 2.54632e-05
6 *918:A2 *776:B 9.41642e-05
7 *918:A2 *314:10 0
8 *918:A2 *370:63 0.000165262
9 *240:10 *314:10 0
10 *240:10 *370:63 3.34366e-05
11 *240:10 *370:80 3.34672e-05
12 *918:A1 *918:A2 2.28499e-05
13 *104:12 *918:A2 0.000180764
14 *118:25 *240:10 2.44318e-05
15 *118:34 *240:10 1.33343e-05
*RES
1 *916:Y *240:10 16.2821 
2 *240:10 *917:B 13.8 
3 *240:10 *918:A2 17.8179 
*END

*D_NET *241 0.000831647
*CONN
*I *920:B I *D sky130_fd_sc_hd__xnor2_1
*I *918:X O *D sky130_fd_sc_hd__a21bo_1
*CAP
1 *920:B 0.000241443
2 *918:X 0.000241443
3 *920:B *881:B 0
4 *920:B *882:B 0
5 *920:B *1006:D 0.000128146
6 *920:B *1074:A 0
7 *920:B *370:55 0.00014285
8 acc[23] *920:B 0
9 *920:A *920:B 7.77652e-05
*RES
1 *918:X *920:B 33.0286 
*END

*D_NET *242 0.000657315
*CONN
*I *921:C I *D sky130_fd_sc_hd__and3_1
*I *919:X O *D sky130_fd_sc_hd__a21o_1
*CAP
1 *921:C 0.000296407
2 *919:X 0.000296407
3 *921:C *1073:A 0
4 *784:B *921:C 1.43625e-06
5 *787:A *921:C 0
6 *788:A1 *921:C 0
7 *921:A *921:C 5.80706e-06
8 *107:12 *921:C 1.19309e-05
9 *111:12 *921:C 3.92757e-05
10 *112:8 *921:C 6.05161e-06
11 *116:12 *921:C 0
*RES
1 *919:X *921:C 32.475 
*END

*D_NET *243 0.000633438
*CONN
*I *922:B I *D sky130_fd_sc_hd__xor2_1
*I *921:X O *D sky130_fd_sc_hd__and3_1
*CAP
1 *922:B 8.69881e-05
2 *921:X 8.69881e-05
3 *784:B *922:B 0.000169373
4 *107:12 *922:B 0.0001399
5 *107:25 *922:B 0.000130419
6 *112:8 *922:B 1.97695e-05
*RES
1 *921:X *922:B 22.0286 
*END

*D_NET *244 0.000764038
*CONN
*I *926:A2 I *D sky130_fd_sc_hd__a21bo_1
*I *925:B I *D sky130_fd_sc_hd__xnor2_1
*I *924:X O *D sky130_fd_sc_hd__a21bo_1
*CAP
1 *926:A2 6.95266e-05
2 *925:B 4.05809e-05
3 *924:X 0.000111463
4 *244:8 0.00022157
5 *884:A *925:B 9.90367e-05
6 *884:B *926:A2 0.000104974
7 *884:C *926:A2 0
8 *890:B *244:8 0
9 *206:10 *926:A2 5.75803e-05
10 *206:10 *244:8 1.19402e-05
11 *209:17 *926:A2 4.73656e-05
*RES
1 *924:X *244:8 15.7464 
2 *244:8 *925:B 14.7464 
3 *244:8 *926:A2 16.05 
*END

*D_NET *245 0.00294291
*CONN
*I *928:A2 I *D sky130_fd_sc_hd__a21bo_1
*I *927:B I *D sky130_fd_sc_hd__xnor2_1
*I *926:X O *D sky130_fd_sc_hd__a21bo_1
*CAP
1 *928:A2 0.000314019
2 *927:B 0.000493478
3 *926:X 0.000208585
4 *245:10 0.00101608
5 *928:A2 *878:A 0
6 *928:A2 *929:B 3.92854e-05
7 *245:10 *876:A 0
8 *245:10 *929:B 0
9 *245:10 *1002:D 0
10 *877:B *245:10 0
11 *880:A *928:A2 0
12 *927:A *927:B 0.00025018
13 *927:A *928:A2 1.02936e-05
14 *206:10 *245:10 8.00806e-05
15 *208:12 *928:A2 2.14757e-05
16 *208:12 *245:10 5.83233e-05
17 *208:21 *928:A2 0.000270326
18 *209:17 *245:10 0.000116545
19 *212:16 *928:A2 6.42338e-05
*RES
1 *926:X *245:10 23.2821 
2 *245:10 *927:B 16.2107 
3 *245:10 *928:A2 23.3536 
*END

*D_NET *246 0.000273409
*CONN
*I *929:B I *D sky130_fd_sc_hd__xnor2_1
*I *928:X O *D sky130_fd_sc_hd__a21bo_1
*CAP
1 *929:B 8.40169e-05
2 *928:X 8.40169e-05
3 *880:A *929:B 6.32633e-05
4 *928:A2 *929:B 3.92854e-05
5 *209:17 *929:B 2.8266e-06
6 *212:16 *929:B 0
7 *212:30 *929:B 0
8 *245:10 *929:B 0
*RES
1 *928:X *929:B 29.5464 
*END

*D_NET *247 0.00218642
*CONN
*I *932:A2 I *D sky130_fd_sc_hd__a21oi_1
*I *933:C I *D sky130_fd_sc_hd__and3_1
*I *930:Y O *D sky130_fd_sc_hd__nand2_1
*CAP
1 *932:A2 0.000297077
2 *933:C 0.000107303
3 *930:Y 0.000305402
4 *247:14 0.000709782
5 *932:A2 *934:A 4.22908e-05
6 *932:A2 *934:B 0
7 *247:14 *341:12 5.74499e-06
8 *869:B1 *932:A2 0.000173467
9 *869:C1 *247:14 8.08022e-05
10 *930:A *247:14 0.000200842
11 *933:A *933:C 0.000107881
12 *187:12 *932:A2 2.16315e-05
13 *197:19 *247:14 0.000134198
14 *198:18 *247:14 0
*RES
1 *930:Y *247:14 23.5679 
2 *247:14 *933:C 10.7286 
3 *247:14 *932:A2 23.8893 
*END

*D_NET *248 0.00121691
*CONN
*I *934:A I *D sky130_fd_sc_hd__nor2_1
*I *935:B1 I *D sky130_fd_sc_hd__a21o_1
*I *932:Y O *D sky130_fd_sc_hd__a21oi_1
*CAP
1 *934:A 0.000127074
2 *935:B1 0.000206002
3 *932:Y 0
4 *248:4 0.000333076
5 *935:B1 *935:A2 0
6 *865:B *935:B1 0.000100625
7 *869:B1 *935:B1 0
8 *872:A3 *935:B1 1.65558e-05
9 *872:B1 *935:B1 0
10 *932:A1 *935:B1 1.08359e-05
11 *932:A2 *934:A 4.22908e-05
12 *932:B1 *934:A 2.89114e-05
13 *932:B1 *935:B1 0.00012401
14 *188:8 *935:B1 0.000227532
*RES
1 *932:Y *248:4 9.3 
2 *248:4 *935:B1 23.3357 
3 *248:4 *934:A 11.925 
*END

*D_NET *249 0.00040605
*CONN
*I *934:B I *D sky130_fd_sc_hd__nor2_1
*I *933:X O *D sky130_fd_sc_hd__and3_1
*CAP
1 *934:B 0.000112548
2 *933:X 0.000112548
3 *869:B1 *934:B 0.000125724
4 *869:C1 *934:B 0
5 *932:A2 *934:B 0
6 *933:A *934:B 5.52302e-05
*RES
1 *933:X *934:B 29.7786 
*END

*D_NET *250 0.00149064
*CONN
*I *936:B I *D sky130_fd_sc_hd__xnor2_1
*I *937:A2 I *D sky130_fd_sc_hd__a21bo_1
*I *935:X O *D sky130_fd_sc_hd__a21o_1
*CAP
1 *936:B 0
2 *937:A2 6.64719e-05
3 *935:X 0.000358799
4 *250:12 0.000425271
5 *937:A2 *938:B 3.4879e-05
6 *937:A2 *343:16 9.7659e-05
7 *864:B *250:12 6.95205e-05
8 *865:B *250:12 9.90367e-05
9 *872:A3 *250:12 0.000100979
10 *872:B1 *250:12 6.42242e-05
11 *873:C1 *250:12 0
12 *936:A *250:12 0.000173804
13 *193:8 *250:12 0
*RES
1 *935:X *250:12 25.7464 
2 *250:12 *937:A2 11.0679 
3 *250:12 *936:B 9.3 
*END

*D_NET *251 0.000915389
*CONN
*I *938:B I *D sky130_fd_sc_hd__xnor2_1
*I *937:X O *D sky130_fd_sc_hd__a21bo_1
*CAP
1 *938:B 0.000253549
2 *937:X 0.000253549
3 *864:B *938:B 0.000320024
4 *873:C1 *938:B 0
5 *937:A2 *938:B 3.4879e-05
6 *189:10 *938:B 5.33882e-05
*RES
1 *937:X *938:B 32.6179 
*END

*D_NET *252 0.00211775
*CONN
*I *941:B I *D sky130_fd_sc_hd__xnor2_1
*I *942:A2 I *D sky130_fd_sc_hd__a21bo_1
*I *940:X O *D sky130_fd_sc_hd__a21bo_1
*CAP
1 *941:B 8.42945e-05
2 *942:A2 0.000532396
3 *940:X 9.8287e-05
4 *252:6 0.000714977
5 *941:B *852:A 5.10822e-05
6 *942:A2 *756:A 0
7 *942:A2 *841:A 5.71472e-05
8 *942:A2 *841:B 6.09476e-05
9 *942:A2 *997:CLK 0.00015234
10 *942:A2 *302:32 7.80714e-06
11 *942:A2 *339:8 1.86687e-05
12 *942:A2 *368:10 0
13 *855:B1 *252:6 6.79929e-05
14 *857:B1 *941:B 7.80714e-06
15 *857:B1 *942:A2 0
16 *942:A1 *942:A2 2.89016e-05
17 *171:10 *942:A2 0
18 *180:14 *942:A2 0.000222666
19 *180:14 *252:6 1.24368e-05
*RES
1 *940:X *252:6 10.6571 
2 *252:6 *942:A2 27.0321 
3 *252:6 *941:B 19.9429 
*END

*D_NET *253 0.00125178
*CONN
*I *943:B I *D sky130_fd_sc_hd__xnor2_1
*I *944:A2 I *D sky130_fd_sc_hd__a21bo_1
*I *942:X O *D sky130_fd_sc_hd__a21bo_1
*CAP
1 *943:B 0
2 *944:A2 0.000132476
3 *942:X 0.000215085
4 *253:12 0.000347561
5 *253:12 *302:32 6.97972e-05
6 *253:12 *368:10 0
7 *850:A *253:12 1.76135e-05
8 *856:A1 *944:A2 0.000357952
9 *856:A1 *253:12 4.38128e-05
10 *856:B2 *253:12 0
11 *857:B1 *253:12 0
12 *174:10 *253:12 6.74815e-05
13 *179:10 *253:12 0
*RES
1 *942:X *253:12 23.2107 
2 *253:12 *944:A2 12.7107 
3 *253:12 *943:B 9.3 
*END

*D_NET *254 0.000625374
*CONN
*I *945:B I *D sky130_fd_sc_hd__xnor2_1
*I *944:X O *D sky130_fd_sc_hd__a21bo_1
*CAP
1 *945:B 0.000206518
2 *944:X 0.000206518
3 *945:B *844:A 0
4 *945:B *368:10 0
5 *856:A1 *945:B 0.000186669
6 *173:10 *945:B 2.56694e-05
*RES
1 *944:X *945:B 31.0107 
*END

*D_NET *255 0.000889673
*CONN
*I *947:B I *D sky130_fd_sc_hd__and2_1
*I *946:Y O *D sky130_fd_sc_hd__nand3_1
*CAP
1 *947:B 0.000286875
2 *946:Y 0.000286875
3 *947:B *988:CLK 9.25014e-06
4 *946:A *947:B 0
5 *948:B *947:B 0.000102545
6 *1012:A *947:B 0
7 *134:18 *947:B 0.000146513
8 *166:16 *947:B 5.7616e-05
*RES
1 *946:Y *947:B 32.1357 
*END

*D_NET *256 0.00160171
*CONN
*I *949:B I *D sky130_fd_sc_hd__xnor2_1
*I *950:A2 I *D sky130_fd_sc_hd__a21bo_1
*I *948:Y O *D sky130_fd_sc_hd__nand2_1
*CAP
1 *949:B 0
2 *950:A2 0.000159422
3 *948:Y 0.000183211
4 *256:12 0.000342633
5 *256:12 *301:10 0
6 *802:C *950:A2 9.41642e-05
7 *803:C *256:12 0.00027438
8 *950:B1_N *950:A2 1.98839e-05
9 *950:B1_N *256:12 5.59013e-05
10 *951:A *950:A2 0.000312209
11 *128:23 *950:A2 1.24368e-05
12 *128:23 *256:12 5.33005e-05
13 *130:10 *950:A2 5.33005e-05
14 *130:10 *256:12 4.08637e-05
*RES
1 *948:Y *256:12 22.9071 
2 *256:12 *950:A2 13.1214 
3 *256:12 *949:B 9.3 
*END

*D_NET *257 0.000975836
*CONN
*I *952:A2 I *D sky130_fd_sc_hd__a21bo_1
*I *951:B I *D sky130_fd_sc_hd__xnor2_1
*I *950:X O *D sky130_fd_sc_hd__a21bo_1
*CAP
1 *952:A2 0.000133811
2 *951:B 2.36895e-05
3 *950:X 6.36583e-05
4 *257:6 0.000221159
5 *952:A2 *986:CLK 1.08359e-05
6 *952:A2 *334:10 0
7 *952:A2 *368:100 9.90367e-05
8 *952:A2 *368:108 0.000176234
9 *798:B *952:A2 5.52302e-05
10 *951:A *951:B 5.52238e-05
11 *951:A *257:6 0.000136958
*RES
1 *950:X *257:6 10.6571 
2 *257:6 *951:B 9.83571 
3 *257:6 *952:A2 21.8 
*END

*D_NET *258 0.00193988
*CONN
*I *953:B I *D sky130_fd_sc_hd__xnor2_1
*I *952:X O *D sky130_fd_sc_hd__a21bo_1
*CAP
1 *953:B 0.000482384
2 *952:X 0.000482384
3 *953:B *991:D 0.00010326
4 *953:B *1060:A 0.000339717
5 *953:B *302:57 5.83157e-05
6 *953:B *302:78 2.61189e-05
7 *953:B *332:43 9.25014e-06
8 *953:B *340:30 0
9 *953:B *368:74 4.58194e-05
10 *953:B *368:100 0.000189345
11 *953:A *953:B 0.000103129
12 *995:RESET_B *953:B 0.000100163
*RES
1 *952:X *953:B 37.975 
*END

*D_NET *259 0.00104748
*CONN
*I *956:A I *D sky130_fd_sc_hd__and2_1
*I *957:A2 I *D sky130_fd_sc_hd__a21o_1
*I *958:C I *D sky130_fd_sc_hd__nand3_1
*I *954:X O *D sky130_fd_sc_hd__or2_1
*CAP
1 *956:A 4.58188e-05
2 *957:A2 0
3 *958:C 7.29074e-05
4 *954:X 8.18537e-05
5 *259:19 4.58188e-05
6 *259:8 0.000154761
7 *956:A *959:A 0.000184745
8 *958:C *261:10 0
9 *259:8 *303:90 0
10 *958:B *958:C 0.000125731
11 *156:25 *956:A 0.000140933
12 *156:25 *958:C 4.25716e-05
13 *157:29 *958:C 1.02504e-05
14 *157:29 *259:8 0.00014209
*RES
1 *954:X *259:8 15.7464 
2 *259:8 *958:C 15.7464 
3 *259:8 *259:19 4.5 
4 *259:19 *957:A2 9.3 
5 *259:19 *956:A 11.0679 
*END

*D_NET *260 0.000876023
*CONN
*I *956:B I *D sky130_fd_sc_hd__and2_1
*I *955:Y O *D sky130_fd_sc_hd__nand2_1
*CAP
1 *956:B 0.000343904
2 *955:Y 0.000343904
3 *956:B *959:B 0
4 *956:B *974:A 0
5 *956:B *984:D 0
6 *956:B *303:90 8.91726e-05
7 *831:C *956:B 9.90431e-05
8 *954:A *956:B 0
*RES
1 *955:Y *956:B 32.9214 
*END

*D_NET *261 0.00412275
*CONN
*I *959:A I *D sky130_fd_sc_hd__and2_1
*I *960:A2 I *D sky130_fd_sc_hd__a21oi_1
*I *961:C I *D sky130_fd_sc_hd__and3_1
*I *957:X O *D sky130_fd_sc_hd__a21o_1
*CAP
1 *959:A 0.000352871
2 *960:A2 0.000104606
3 *961:C 0.000276645
4 *957:X 2.52229e-05
5 *261:10 0.000643295
6 *261:6 0.000640138
7 *959:A *984:D 5.62995e-05
8 *959:A *985:D 5.33433e-05
9 *960:A2 *369:39 6.57815e-05
10 *961:C *369:39 0.000183713
11 *824:A *960:A2 0.00014183
12 *824:A *961:C 3.98559e-05
13 *824:B *961:C 6.98302e-05
14 *824:B *261:10 5.41794e-05
15 *834:B2 *961:C 3.34295e-05
16 *834:B2 *261:10 0.000162118
17 *956:A *959:A 0.000184745
18 *958:B *261:10 4.57445e-05
19 *958:C *261:10 0
20 *960:A1 *960:A2 0.000162625
21 *960:B1 *960:A2 0.000196446
22 *960:B1 *961:C 5.75824e-05
23 *150:12 *961:C 9.25014e-06
24 *151:16 *961:C 5.59013e-05
25 *153:19 *261:10 0
26 *154:8 *960:A2 0.000342688
27 *156:10 *261:10 0
28 *156:25 *959:A 5.97299e-05
29 *156:25 *261:10 0
30 *156:35 *959:A 4.27935e-05
31 *156:35 *261:6 5.52238e-05
32 *157:29 *261:10 6.8646e-06
*RES
1 *957:X *261:6 9.83571 
2 *261:6 *261:10 9.48214 
3 *261:10 *961:C 18.3179 
4 *261:10 *960:A2 18.8714 
5 *261:6 *959:A 16.4071 
*END

*D_NET *262 0.0010653
*CONN
*I *959:B I *D sky130_fd_sc_hd__and2_1
*I *958:Y O *D sky130_fd_sc_hd__nand3_1
*CAP
1 *959:B 0.000404919
2 *958:Y 0.000404919
3 *959:B *985:D 0
4 *959:B *987:CLK 0
5 *959:B *303:90 0
6 *959:B *368:173 0.00019242
7 *956:B *959:B 0
8 *985:RESET_B *959:B 0
9 *1044:A *959:B 6.30405e-05
*RES
1 *958:Y *959:B 34.1714 
*END

*D_NET *263 0.00101553
*CONN
*I *962:A I *D sky130_fd_sc_hd__nor2_1
*I *963:B1 I *D sky130_fd_sc_hd__a21oi_1
*I *960:Y O *D sky130_fd_sc_hd__a21oi_1
*CAP
1 *962:A 0
2 *963:B1 0.000272954
3 *960:Y 7.68403e-05
4 *263:10 0.000349795
5 *963:B1 *963:A2 0.000185643
6 *963:B1 *332:58 0
7 *963:B1 *364:6 6.05161e-06
8 *963:B1 *364:28 4.13595e-05
9 *263:10 *962:B 1.11843e-05
10 *263:10 *332:58 0
11 *263:10 *369:27 9.25014e-06
12 *834:B1 *963:B1 0
13 *834:B1 *263:10 0
14 *960:B1 *263:10 5.30637e-06
15 *149:12 *963:B1 5.71472e-05
*RES
1 *960:Y *263:10 15.0679 
2 *263:10 *963:B1 18.3357 
3 *263:10 *962:A 13.8 
*END

*D_NET *264 0.000738896
*CONN
*I *962:B I *D sky130_fd_sc_hd__nor2_1
*I *961:X O *D sky130_fd_sc_hd__and3_1
*CAP
1 *962:B 0.000225878
2 *961:X 0.000225878
3 *962:B *986:D 5.71472e-05
4 *962:B *369:27 3.31648e-05
5 *960:A1 *962:B 0
6 *960:B1 *962:B 0.000185643
7 *263:10 *962:B 1.11843e-05
*RES
1 *961:X *962:B 22.5821 
*END

*D_NET *265 0.000417718
*CONN
*I *964:B I *D sky130_fd_sc_hd__xnor2_1
*I *963:Y O *D sky130_fd_sc_hd__a21oi_1
*CAP
1 *964:B 0.000158123
2 *963:Y 0.000158123
3 *964:B *963:A2 0.000101473
*RES
1 *963:Y *964:B 21.6179 
*END

*D_NET *266 0.000215536
*CONN
*I *967:B I *D sky130_fd_sc_hd__nor2_1
*I *966:X O *D sky130_fd_sc_hd__o21a_1
*CAP
1 *967:B 8.21436e-05
2 *966:X 8.21436e-05
3 *967:B *982:D 2.27416e-05
4 *966:A2 *967:B 0
5 *967:A *967:B 2.85077e-05
*RES
1 *966:X *967:B 20.3857 
*END

*D_NET *267 0.000226952
*CONN
*I *969:B I *D sky130_fd_sc_hd__xnor2_1
*I *968:Y O *D sky130_fd_sc_hd__nor2_1
*CAP
1 *969:B 0.000113476
2 *968:Y 0.000113476
*RES
1 *968:Y *969:B 20.3679 
*END

*D_NET *268 0.000213395
*CONN
*I *971:B I *D sky130_fd_sc_hd__and2_1
*I *970:X O *D sky130_fd_sc_hd__or2_1
*CAP
1 *971:B 4.99742e-05
2 *970:X 4.99742e-05
3 *971:B *970:A 7.43578e-06
4 *971:B *1079:A 4.88637e-05
5 *971:A *971:B 5.71472e-05
*RES
1 *970:X *971:B 19.9571 
*END

*D_NET *269 0.000549236
*CONN
*I *980:D I *D sky130_fd_sc_hd__dfrtp_1
*I *971:X O *D sky130_fd_sc_hd__and2_1
*CAP
1 *980:D 0.000239463
2 *971:X 0.000239463
3 *980:D *970:A 0
4 *980:D *1079:A 7.03103e-05
*RES
1 *971:X *980:D 31.1179 
*END

*D_NET *270 0.000634053
*CONN
*I *981:D I *D sky130_fd_sc_hd__dfrtp_1
*I *965:Y O *D sky130_fd_sc_hd__xnor2_1
*CAP
1 *981:D 0.000303072
2 *965:Y 0.000303072
3 *981:D *368:173 0
4 *813:B *981:D 0
5 *965:A *981:D 2.79092e-05
*RES
1 *965:Y *981:D 32.725 
*END

*D_NET *271 0.000476777
*CONN
*I *982:D I *D sky130_fd_sc_hd__dfrtp_1
*I *967:Y O *D sky130_fd_sc_hd__nor2_1
*CAP
1 *982:D 0.000227018
2 *967:Y 0.000227018
3 *967:B *982:D 2.27416e-05
*RES
1 *967:Y *982:D 30.7071 
*END

*D_NET *272 0.000292199
*CONN
*I *983:D I *D sky130_fd_sc_hd__dfrtp_4
*I *969:Y O *D sky130_fd_sc_hd__xnor2_1
*CAP
1 *983:D 0.000119361
2 *969:Y 0.000119361
3 *983:D *981:CLK 2.78072e-05
4 *969:A *983:D 2.56694e-05
*RES
1 *969:Y *983:D 29.4973 
*END

*D_NET *273 0.000396261
*CONN
*I *984:D I *D sky130_fd_sc_hd__dfrtp_1
*I *956:X O *D sky130_fd_sc_hd__and2_1
*CAP
1 *984:D 0.000169981
2 *956:X 0.000169981
3 *984:D *974:A 0
4 *956:B *984:D 0
5 *959:A *984:D 5.62995e-05
*RES
1 *956:X *984:D 30.1893 
*END

*D_NET *274 0.000349722
*CONN
*I *985:D I *D sky130_fd_sc_hd__dfrtp_1
*I *959:X O *D sky130_fd_sc_hd__and2_1
*CAP
1 *985:D 0.000124197
2 *959:X 0.000124197
3 *985:D *303:90 4.79842e-05
4 *959:A *985:D 5.33433e-05
5 *959:B *985:D 0
*RES
1 *959:X *985:D 30.1893 
*END

*D_NET *275 0.00155607
*CONN
*I *986:D I *D sky130_fd_sc_hd__dfrtp_1
*I *962:Y O *D sky130_fd_sc_hd__nor2_1
*CAP
1 *986:D 0.000708752
2 *962:Y 0.000708752
3 *986:D *986:CLK 3.99614e-06
4 *986:D *332:58 3.92854e-05
5 *986:D *369:27 3.81325e-05
6 *962:B *986:D 5.71472e-05
*RES
1 *962:Y *986:D 36.2964 
*END

*D_NET *276 0.000471748
*CONN
*I *987:D I *D sky130_fd_sc_hd__dfrtp_1
*I *964:Y O *D sky130_fd_sc_hd__xnor2_1
*CAP
1 *987:D 0.000201506
2 *964:Y 0.000201506
3 *987:D *987:CLK 5.62995e-05
4 *964:A *987:D 1.24368e-05
*RES
1 *964:Y *987:D 22.0286 
*END

*D_NET *277 0.000807295
*CONN
*I *988:D I *D sky130_fd_sc_hd__dfrtp_1
*I *947:X O *D sky130_fd_sc_hd__and2_1
*CAP
1 *988:D 0.000327246
2 *947:X 0.000327246
3 *988:D *988:CLK 0.000143553
4 *988:D *301:10 0
5 *1012:A *988:D 0
6 *166:16 *988:D 9.25014e-06
*RES
1 *947:X *988:D 34.0464 
*END

*D_NET *278 0.00178874
*CONN
*I *989:D I *D sky130_fd_sc_hd__dfrtp_1
*I *949:Y O *D sky130_fd_sc_hd__xnor2_1
*CAP
1 *989:D 0.000789222
2 *949:Y 0.000789222
3 *989:D *989:CLK 5.30637e-06
4 *989:D *367:10 9.90431e-05
5 *801:B *989:D 5.71472e-05
6 *128:23 *989:D 1.39726e-05
7 *130:10 *989:D 2.44318e-05
8 *156:35 *989:D 1.03968e-05
*RES
1 *949:Y *989:D 29.5821 
*END

*D_NET *279 0.00141038
*CONN
*I *990:D I *D sky130_fd_sc_hd__dfrtp_1
*I *951:Y O *D sky130_fd_sc_hd__xnor2_1
*CAP
1 *990:D 0.000578172
2 *951:Y 0.000578172
3 *990:D *302:16 8.68595e-05
4 *990:D *302:18 0.000111952
5 *990:D *334:10 5.52302e-05
*RES
1 *951:Y *990:D 27.1179 
*END

*D_NET *280 0.000364569
*CONN
*I *991:D I *D sky130_fd_sc_hd__dfrtp_1
*I *953:Y O *D sky130_fd_sc_hd__xnor2_1
*CAP
1 *991:D 7.99699e-05
2 *953:Y 7.99699e-05
3 *991:D *302:78 0.00010137
4 *953:B *991:D 0.00010326
*RES
1 *953:Y *991:D 29.475 
*END

*D_NET *281 0.00164402
*CONN
*I *992:D I *D sky130_fd_sc_hd__dfrtp_1
*I *939:X O *D sky130_fd_sc_hd__xor2_1
*CAP
1 *992:D 0.000428114
2 *939:X 0.000428114
3 *992:D *336:8 0.000141985
4 *837:B1 *992:D 2.89114e-05
5 *855:A1 *992:D 1.56e-05
6 *855:C1 *992:D 0.000127439
7 *166:16 *992:D 0.000322192
8 *168:14 *992:D 0.00015166
*RES
1 *939:X *992:D 38.4036 
*END

*D_NET *282 0.000707274
*CONN
*I *993:D I *D sky130_fd_sc_hd__dfrtp_1
*I *941:Y O *D sky130_fd_sc_hd__xnor2_1
*CAP
1 *993:D 0.000228182
2 *941:Y 0.000228182
3 *993:D *841:B 4.88546e-05
4 *993:D *852:A 0
5 *993:D *302:32 6.87574e-05
6 *851:A *993:D 5.71472e-05
7 *851:B *993:D 2.28499e-05
8 *941:A *993:D 5.33005e-05
*RES
1 *941:Y *993:D 23.2607 
*END

*D_NET *283 0.00117857
*CONN
*I *994:D I *D sky130_fd_sc_hd__dfrtp_1
*I *943:Y O *D sky130_fd_sc_hd__xnor2_1
*CAP
1 *994:D 0.000339906
2 *943:Y 0.000339906
3 *994:D *753:A 0
4 *994:D *994:CLK 0.000193836
5 *994:D *995:D 4.78056e-05
6 *994:D *332:14 7.50697e-05
7 *994:D *368:10 0.000125731
8 *850:A *994:D 5.63101e-05
9 *994:RESET_B *994:D 0
*RES
1 *943:Y *994:D 34.7071 
*END

*D_NET *284 0.00070573
*CONN
*I *995:D I *D sky130_fd_sc_hd__dfrtp_1
*I *945:Y O *D sky130_fd_sc_hd__xnor2_1
*CAP
1 *995:D 0.000236846
2 *945:Y 0.000236846
3 *995:D *753:A 0
4 *945:A *995:D 0.000184232
5 *994:D *995:D 4.78056e-05
*RES
1 *945:Y *995:D 31.1179 
*END

*D_NET *285 0.00091938
*CONN
*I *996:D I *D sky130_fd_sc_hd__dfrtp_1
*I *931:X O *D sky130_fd_sc_hd__xor2_1
*CAP
1 *996:D 0.00045969
2 *931:X 0.00045969
*RES
1 *931:X *996:D 25.7071 
*END

*D_NET *286 0.000800273
*CONN
*I *997:D I *D sky130_fd_sc_hd__dfrtp_1
*I *934:Y O *D sky130_fd_sc_hd__nor2_1
*CAP
1 *997:D 0.000363279
2 *934:Y 0.000363279
3 *997:D *756:A 7.37159e-05
*RES
1 *934:Y *997:D 32.3768 
*END

*D_NET *287 0.000394394
*CONN
*I *998:D I *D sky130_fd_sc_hd__dfrtp_1
*I *936:Y O *D sky130_fd_sc_hd__xnor2_1
*CAP
1 *998:D 8.34323e-05
2 *936:Y 8.34323e-05
3 *998:D *998:CLK 0.000116468
4 *998:D *343:16 0.000111062
*RES
1 *936:Y *998:D 21.4036 
*END

*D_NET *288 0.00112654
*CONN
*I *999:D I *D sky130_fd_sc_hd__dfrtp_1
*I *938:Y O *D sky130_fd_sc_hd__xnor2_1
*CAP
1 *999:D 0.000433229
2 *938:Y 0.000433229
3 *999:D *310:14 0.000210463
4 *999:RESET_B *999:D 4.96155e-05
*RES
1 *938:Y *999:D 27.0821 
*END

*D_NET *289 0.000348299
*CONN
*I *1000:D I *D sky130_fd_sc_hd__dfrtp_1
*I *923:Y O *D sky130_fd_sc_hd__xnor2_1
*CAP
1 *1000:D 6.14741e-05
2 *923:Y 6.14741e-05
3 *1000:D *1000:CLK 5.49544e-05
4 *1000:D *346:14 9.94037e-05
5 *198:18 *1000:D 7.09928e-05
*RES
1 *923:Y *1000:D 20.7964 
*END

*D_NET *290 0.000285647
*CONN
*I *1001:D I *D sky130_fd_sc_hd__dfrtp_1
*I *925:Y O *D sky130_fd_sc_hd__xnor2_1
*CAP
1 *1001:D 5.29308e-05
2 *925:Y 5.29308e-05
3 *877:B *1001:D 5.83304e-05
4 *205:10 *1001:D 7.6644e-05
5 *206:10 *1001:D 4.48113e-05
*RES
1 *925:Y *1001:D 29.2429 
*END

*D_NET *291 0.000733704
*CONN
*I *1002:D I *D sky130_fd_sc_hd__dfrtp_1
*I *927:Y O *D sky130_fd_sc_hd__xnor2_1
*CAP
1 *1002:D 0.000251614
2 *927:Y 0.000251614
3 *1002:D *760:A 0
4 *927:A *1002:D 0.000230475
5 *1002:RESET_B *1002:D 0
6 *208:12 *1002:D 0
7 *245:10 *1002:D 0
*RES
1 *927:Y *1002:D 32.3321 
*END

*D_NET *292 0.000726259
*CONN
*I *1003:D I *D sky130_fd_sc_hd__dfrtp_1
*I *929:Y O *D sky130_fd_sc_hd__xnor2_1
*CAP
1 *1003:D 0.000208391
2 *929:Y 0.000208391
3 *1003:D *1002:CLK 9.99059e-05
4 *1003:D *304:76 6.82569e-05
5 *928:B1_N *1003:D 3.84349e-05
6 *212:16 *1003:D 0.00010288
*RES
1 *929:Y *1003:D 31.9393 
*END

*D_NET *293 0.000709572
*CONN
*I *1004:D I *D sky130_fd_sc_hd__dfrtp_1
*I *915:Y O *D sky130_fd_sc_hd__nor2_1
*CAP
1 *1004:D 0.000256305
2 *915:Y 0.000256305
3 *894:B1 *1004:D 0
4 *915:A *1004:D 0.000196963
5 *120:10 *1004:D 0
*RES
1 *915:Y *1004:D 32.725 
*END

*D_NET *294 0.00114841
*CONN
*I *1005:D I *D sky130_fd_sc_hd__dfrtp_1
*I *917:Y O *D sky130_fd_sc_hd__xnor2_1
*CAP
1 *1005:D 0.000405678
2 *917:Y 0.000405678
3 *1005:D *764:A 5.71472e-05
4 *1005:D *775:B 5.62995e-05
5 *1005:D *352:23 9.77274e-05
6 *1005:RESET_B *1005:D 0.000125877
*RES
1 *917:Y *1005:D 27.3679 
*END

*D_NET *295 0.000508418
*CONN
*I *1006:D I *D sky130_fd_sc_hd__dfrtp_1
*I *920:Y O *D sky130_fd_sc_hd__xnor2_1
*CAP
1 *1006:D 0.000119225
2 *920:Y 0.000119225
3 *1006:D *1074:A 4.57352e-05
4 *1006:D *370:55 9.60875e-05
5 *920:B *1006:D 0.000128146
*RES
1 *920:Y *1006:D 30.1893 
*END

*D_NET *296 0.000682119
*CONN
*I *1007:D I *D sky130_fd_sc_hd__dfrtp_1
*I *922:X O *D sky130_fd_sc_hd__xor2_1
*CAP
1 *1007:D 0.000282084
2 *922:X 0.000282084
3 *1007:D *1007:CLK 0
4 *784:A *1007:D 4.88637e-05
5 *784:B *1007:D 5.71472e-05
6 *908:A *1007:D 1.19402e-05
*RES
1 *922:X *1007:D 32.85 
*END

*D_NET *297 0.000362581
*CONN
*I *1008:D I *D sky130_fd_sc_hd__dfrtp_1
*I *898:Y O *D sky130_fd_sc_hd__xnor2_1
*CAP
1 *1008:D 0.000171651
2 *898:Y 0.000171651
3 *1008:D *982:CLK 0
4 *1008:D *301:28 0
5 *1008:D *305:10 0
6 *103:12 *1008:D 1.92789e-05
*RES
1 *898:Y *1008:D 30.3857 
*END

*D_NET *298 0.00058342
*CONN
*I *1009:D I *D sky130_fd_sc_hd__dfrtp_1
*I *903:Y O *D sky130_fd_sc_hd__xnor2_1
*CAP
1 *1009:D 0.000167032
2 *903:Y 0.000167032
3 *903:A *1009:D 0.000164835
4 *903:B *1009:D 8.45221e-05
*RES
1 *903:Y *1009:D 22.4393 
*END

*D_NET *299 0.000469682
*CONN
*I *1010:D I *D sky130_fd_sc_hd__dfrtp_1
*I *908:Y O *D sky130_fd_sc_hd__xnor2_1
*CAP
1 *1010:D 0.000208496
2 *908:Y 0.000208496
3 *908:B *1010:D 5.26897e-05
*RES
1 *908:Y *1010:D 21.1045 
*END

*D_NET *300 0.000287868
*CONN
*I *1011:D I *D sky130_fd_sc_hd__dfrtp_1
*I *913:Y O *D sky130_fd_sc_hd__xnor2_1
*CAP
1 *1011:D 6.51936e-05
2 *913:Y 6.51936e-05
3 *1011:D *1077:A 5.52302e-05
4 *1011:D *305:77 5.24274e-05
5 *1011:D *319:16 1.72894e-05
6 *227:17 *1011:D 3.2534e-05
*RES
1 *913:Y *1011:D 29.475 
*END

*D_NET *301 0.00715798
*CONN
*I *1016:A I *D sky130_fd_sc_hd__clkbuf_16
*I *1015:A I *D sky130_fd_sc_hd__clkbuf_16
*I *1014:A I *D sky130_fd_sc_hd__clkbuf_16
*I *1013:A I *D sky130_fd_sc_hd__clkbuf_16
*I *1012:X O *D sky130_fd_sc_hd__clkbuf_16
*CAP
1 *1016:A 0.000253693
2 *1015:A 0.000574646
3 *1014:A 0.000158467
4 *1013:A 0.000253117
5 *1012:X 0
6 *301:28 0.00153913
7 *301:10 0.001024
8 *301:6 0.00132321
9 *1015:A *763:A 7.43578e-06
10 *1015:A *790:B 7.83587e-05
11 *1015:A *351:25 6.30173e-05
12 *301:10 *332:58 0.000292691
13 *301:28 *759:A 0
14 *301:28 *332:58 0.000129746
15 *301:28 *351:25 0.000106403
16 *803:C *301:10 0
17 *835:A1 *1014:A 6.57914e-05
18 *835:B1 *1014:A 0.00010096
19 *837:A1 *301:10 4.66511e-05
20 *898:A *1016:A 2.89016e-05
21 *898:B *301:28 8.32171e-05
22 *946:A *301:10 0.000216304
23 *988:D *301:10 0
24 *1008:D *301:28 0
25 *103:12 *1016:A 0.000102207
26 *118:17 *1015:A 0.000361788
27 *161:14 *301:10 0.000213868
28 *164:10 *1013:A 5.30637e-06
29 *164:10 *1014:A 2.77173e-05
30 *164:10 *301:10 6.75007e-05
31 *164:23 *301:10 7.33494e-06
32 *166:16 *301:10 0
33 *224:8 *1015:A 2.65105e-05
34 *256:12 *301:10 0
*RES
1 *1012:X *301:6 13.8 
2 *301:6 *301:10 19.5 
3 *301:10 *1013:A 13.1214 
4 *301:10 *1014:A 12.3 
5 *301:6 *301:28 19.1964 
6 *301:28 *1015:A 26.5857 
7 *301:28 *1016:A 12.7286 
*END

*D_NET *302 0.012735
*CONN
*I *986:CLK I *D sky130_fd_sc_hd__dfrtp_1
*I *996:CLK I *D sky130_fd_sc_hd__dfrtp_1
*I *1017:A I *D sky130_fd_sc_hd__clkbuf_4
*I *995:CLK I *D sky130_fd_sc_hd__dfrtp_1
*I *994:CLK I *D sky130_fd_sc_hd__dfrtp_1
*I *991:CLK I *D sky130_fd_sc_hd__dfrtp_1
*I *990:CLK I *D sky130_fd_sc_hd__dfrtp_1
*I *993:CLK I *D sky130_fd_sc_hd__dfrtp_1
*I *997:CLK I *D sky130_fd_sc_hd__dfrtp_1
*I *1013:X O *D sky130_fd_sc_hd__clkbuf_16
*CAP
1 *986:CLK 0.000608121
2 *996:CLK 0.000485885
3 *1017:A 0
4 *995:CLK 0
5 *994:CLK 0.000225795
6 *991:CLK 2.68751e-05
7 *990:CLK 0
8 *993:CLK 0
9 *997:CLK 0.000212637
10 *1013:X 0
11 *302:103 0.00109401
12 *302:78 0.0012061
13 *302:57 0.00125383
14 *302:32 0.000696992
15 *302:18 0.000694547
16 *302:16 0.000722846
17 *302:8 0.000695225
18 *302:4 0.000429221
19 *986:CLK *334:10 0
20 *986:CLK *368:108 0.000383416
21 *996:CLK *755:A 0.00033477
22 *996:CLK *368:108 0.000126439
23 *997:CLK *756:A 0.000130264
24 *997:CLK *853:A 0
25 *997:CLK *857:A2 0
26 *302:16 *1060:A 8.59039e-05
27 *302:16 *368:108 0
28 *302:32 *841:B 0.000263195
29 *302:32 *368:10 0
30 *302:57 *332:37 7.54868e-05
31 *302:57 *332:43 0.000263421
32 *302:78 *753:A 0.000177555
33 *795:A *986:CLK 9.6087e-05
34 *804:A2 *986:CLK 3.48705e-05
35 *838:B1 *986:CLK 0.000414696
36 *838:B1 *996:CLK 4.06782e-05
37 *851:A *302:32 5.71472e-05
38 *851:B *302:32 1.04232e-05
39 *856:C1 *302:57 0
40 *856:C1 *302:78 0
41 *857:B1 *997:CLK 0
42 *857:B1 *302:32 4.16207e-05
43 *942:A2 *997:CLK 0.00015234
44 *942:A2 *302:32 7.80714e-06
45 *952:A2 *986:CLK 1.08359e-05
46 *953:B *302:57 5.83157e-05
47 *953:B *302:78 2.61189e-05
48 *986:D *986:CLK 3.99614e-06
49 *990:D *302:16 8.68595e-05
50 *990:D *302:18 0.000111952
51 *991:D *302:78 0.00010137
52 *992:RESET_B *996:CLK 0.000150625
53 *993:D *302:32 6.87574e-05
54 *994:D *994:CLK 0.000193836
55 *994:RESET_B *994:CLK 0
56 *995:RESET_B *302:78 0.00047632
57 *1012:A *996:CLK 0
58 *124:23 *986:CLK 3.97685e-05
59 *125:12 *986:CLK 7.80714e-06
60 *126:12 *986:CLK 0.000117468
61 *169:23 *302:32 0.000128154
62 *171:10 *302:32 3.48235e-05
63 *180:14 *997:CLK 0
64 *253:12 *302:32 6.97972e-05
*RES
1 *1013:X *302:4 9.3 
2 *302:4 *302:8 5.07143 
3 *302:8 *302:16 14.4464 
4 *302:16 *302:18 4.23214 
5 *302:18 *302:32 19.5179 
6 *302:32 *997:CLK 23.2821 
7 *302:32 *993:CLK 9.3 
8 *302:18 *990:CLK 9.3 
9 *302:16 *302:57 9.48214 
10 *302:57 *991:CLK 14.3357 
11 *302:57 *302:78 18.6429 
12 *302:78 *994:CLK 22.6214 
13 *302:78 *995:CLK 9.3 
14 *302:8 *1017:A 9.3 
15 *302:4 *302:103 4.5 
16 *302:103 *996:CLK 25.6929 
17 *302:103 *986:CLK 29.1393 
*END

*D_NET *303 0.00912802
*CONN
*I *984:CLK I *D sky130_fd_sc_hd__dfrtp_1
*I *985:CLK I *D sky130_fd_sc_hd__dfrtp_1
*I *987:CLK I *D sky130_fd_sc_hd__dfrtp_1
*I *981:CLK I *D sky130_fd_sc_hd__dfrtp_1
*I *983:CLK I *D sky130_fd_sc_hd__dfrtp_4
*I *1018:A I *D sky130_fd_sc_hd__clkbuf_4
*I *988:CLK I *D sky130_fd_sc_hd__dfrtp_1
*I *992:CLK I *D sky130_fd_sc_hd__dfrtp_1
*I *989:CLK I *D sky130_fd_sc_hd__dfrtp_1
*I *1014:X O *D sky130_fd_sc_hd__clkbuf_16
*CAP
1 *984:CLK 3.27788e-05
2 *985:CLK 0
3 *987:CLK 0.000277477
4 *981:CLK 0.000315123
5 *983:CLK 2.23854e-05
6 *1018:A 0
7 *988:CLK 0.000334975
8 *992:CLK 1.8019e-05
9 *989:CLK 0.000179236
10 *1014:X 0
11 *303:90 0.000475426
12 *303:84 0.000450013
13 *303:60 0.000837612
14 *303:27 0.000841286
15 *303:23 0.000488292
16 *303:21 0.000762787
17 *303:8 0.000608335
18 *303:4 0.000385702
19 *981:CLK *818:B 0
20 *981:CLK *368:173 0
21 *987:CLK *821:A 3.38136e-05
22 *303:27 *330:18 9.90367e-05
23 *303:60 *806:B 2.37575e-05
24 *303:60 *818:A 5.52302e-05
25 *303:60 *818:B 0.000167998
26 *303:60 *330:18 3.69697e-05
27 *817:B1 *303:21 0
28 *831:A *989:CLK 2.6949e-05
29 *831:A *303:21 2.34204e-05
30 *831:B *989:CLK 6.74911e-05
31 *831:B *303:21 5.74562e-05
32 *832:B1 *303:21 0
33 *832:B2 *303:21 0
34 *835:A1 *303:8 5.06983e-05
35 *835:A3 *303:8 2.07491e-05
36 *835:A3 *303:84 0.000274288
37 *835:B1 *989:CLK 0
38 *837:A1 *303:27 0.000139913
39 *837:A2 *303:27 5.33005e-05
40 *837:B1 *992:CLK 1.74352e-05
41 *947:A *992:CLK 5.71472e-05
42 *947:B *988:CLK 9.25014e-06
43 *954:B *984:CLK 0.000114637
44 *954:B *303:84 1.33343e-05
45 *956:B *303:90 8.91726e-05
46 *959:B *987:CLK 0
47 *959:B *303:90 0
48 *969:A *981:CLK 0
49 *983:D *981:CLK 2.78072e-05
50 *985:D *303:90 4.79842e-05
51 *987:D *987:CLK 5.62995e-05
52 *988:D *988:CLK 0.000143553
53 *989:D *989:CLK 5.30637e-06
54 *1012:A *988:CLK 0
55 *134:10 *303:21 0
56 *134:10 *303:60 0
57 *134:18 *303:21 0
58 *136:6 *303:27 7.61932e-05
59 *136:12 *303:27 0.000183172
60 *153:19 *989:CLK 5.72433e-05
61 *156:10 *987:CLK 0.000267821
62 *156:25 *987:CLK 1.02504e-05
63 *156:25 *303:90 0.000142797
64 *156:35 *989:CLK 0.000111779
65 *157:18 *984:CLK 6.71854e-05
66 *157:18 *303:84 0.000169373
67 *157:18 *303:90 3.99614e-06
68 *157:29 *303:90 0
69 *165:6 *992:CLK 1.33343e-05
70 *165:6 *303:27 8.86413e-05
71 *166:16 *988:CLK 2.16719e-05
72 *166:16 *992:CLK 4.72818e-05
73 *166:16 *303:27 0.000124837
74 *259:8 *303:90 0
*RES
1 *1014:X *303:4 9.3 
2 *303:4 *303:8 6.67857 
3 *303:8 *989:CLK 18.3179 
4 *303:8 *303:21 4.67857 
5 *303:21 *303:23 4.5 
6 *303:23 *303:27 10 
7 *303:27 *992:CLK 10.2464 
8 *303:27 *988:CLK 24.7464 
9 *303:23 *1018:A 9.3 
10 *303:21 *303:60 12.9643 
11 *303:60 *983:CLK 9.72857 
12 *303:60 *981:CLK 23.7464 
13 *303:4 *303:84 5.67857 
14 *303:84 *303:90 9.30357 
15 *303:90 *987:CLK 19.8536 
16 *303:90 *985:CLK 13.8 
17 *303:84 *984:CLK 10.6571 
*END

*D_NET *304 0.0110421
*CONN
*I *1004:CLK I *D sky130_fd_sc_hd__dfrtp_1
*I *1005:CLK I *D sky130_fd_sc_hd__dfrtp_1
*I *1006:CLK I *D sky130_fd_sc_hd__dfrtp_1
*I *1003:CLK I *D sky130_fd_sc_hd__dfrtp_1
*I *1002:CLK I *D sky130_fd_sc_hd__dfrtp_1
*I *1001:CLK I *D sky130_fd_sc_hd__dfrtp_1
*I *1000:CLK I *D sky130_fd_sc_hd__dfrtp_1
*I *999:CLK I *D sky130_fd_sc_hd__dfrtp_1
*I *998:CLK I *D sky130_fd_sc_hd__dfrtp_1
*I *1015:X O *D sky130_fd_sc_hd__clkbuf_16
*CAP
1 *1004:CLK 0.000222724
2 *1005:CLK 3.49605e-05
3 *1006:CLK 0.00048822
4 *1003:CLK 0
5 *1002:CLK 0.0003175
6 *1001:CLK 0.000417795
7 *1000:CLK 3.40597e-05
8 *999:CLK 0
9 *998:CLK 0.0006885
10 *1015:X 7.5942e-05
11 *304:76 0.00046969
12 *304:74 0.000845477
13 *304:68 0.000518421
14 *304:51 0.000858011
15 *304:14 0.000830737
16 *304:12 0.000437112
17 *304:10 0.000610595
18 *304:6 0.000486623
19 *998:CLK *343:16 8.22651e-05
20 *1000:CLK *346:14 1.02821e-05
21 *1004:CLK *370:32 0.000168939
22 *1006:CLK *1072:A 9.90431e-05
23 *874:A *1000:CLK 9.71197e-05
24 *874:B *304:12 0
25 *874:B *304:14 0
26 *884:C *1001:CLK 9.66977e-05
27 *884:C *304:51 0
28 *888:A *304:12 2.30116e-06
29 *889:A1 *304:12 5.51658e-05
30 *889:A1 *304:14 1.52978e-05
31 *889:B1 *304:10 5.52302e-05
32 *889:B1 *304:12 7.58301e-05
33 *889:B1 *304:51 1.0033e-05
34 *892:A *1001:CLK 1.98839e-05
35 *892:B *1001:CLK 4.72595e-05
36 *893:A *304:74 0.000384979
37 *893:B *304:10 1.48543e-05
38 *893:C *304:68 0.000150618
39 *893:C *304:74 0
40 *893:D *1001:CLK 2.84026e-05
41 *894:A1 *1004:CLK 1.74352e-05
42 *894:A2 *1004:CLK 0.000240061
43 *894:A2 *304:12 0
44 *894:B1 *1004:CLK 0.000154027
45 *895:A1 *304:6 8.17274e-05
46 *895:A1 *304:10 5.33005e-05
47 *895:A2 *304:10 5.49489e-05
48 *895:B1 *304:6 0.000139907
49 *915:A *1004:CLK 0.000154027
50 *923:B *1000:CLK 5.52302e-05
51 *923:B *304:12 0.000191714
52 *926:A1 *1001:CLK 6.28241e-05
53 *928:A1 *1002:CLK 0.0001216
54 *998:D *998:CLK 0.000116468
55 *1000:D *1000:CLK 5.49544e-05
56 *1003:D *1002:CLK 9.99059e-05
57 *1003:D *304:76 6.82569e-05
58 *198:18 *998:CLK 0
59 *198:18 *1000:CLK 5.49544e-05
60 *198:18 *304:14 0
61 *212:16 *1002:CLK 0.00012357
62 *212:16 *304:76 7.56926e-05
63 *212:30 *1001:CLK 9.66977e-05
64 *212:30 *304:51 8.18233e-06
65 *212:30 *304:68 5.03526e-05
66 *214:14 *304:10 4.3537e-05
67 *214:14 *304:51 0.000132452
68 *214:14 *304:68 3.97485e-05
*RES
1 *1015:X *304:6 11.0679 
2 *304:6 *304:10 7.91071 
3 *304:10 *304:12 4.67857 
4 *304:12 *304:14 2.55357 
5 *304:14 *998:CLK 25.2643 
6 *304:14 *999:CLK 13.8 
7 *304:12 *1000:CLK 15.1571 
8 *304:10 *304:51 3.46429 
9 *304:51 *1001:CLK 20.925 
10 *304:51 *304:68 9.75 
11 *304:68 *304:74 13.9821 
12 *304:74 *304:76 3 
13 *304:76 *1002:CLK 15.9964 
14 *304:76 *1003:CLK 9.3 
15 *304:74 *1006:CLK 17.2286 
16 *304:68 *1005:CLK 9.83571 
17 *304:6 *1004:CLK 25.1929 
*END

*D_NET *305 0.00889763
*CONN
*I *1011:CLK I *D sky130_fd_sc_hd__dfrtp_1
*I *1007:CLK I *D sky130_fd_sc_hd__dfrtp_1
*I *1010:CLK I *D sky130_fd_sc_hd__dfrtp_1
*I *1009:CLK I *D sky130_fd_sc_hd__dfrtp_1
*I *980:CLK I *D sky130_fd_sc_hd__dfrtp_1
*I *1019:A I *D sky130_fd_sc_hd__clkbuf_8
*I *1008:CLK I *D sky130_fd_sc_hd__dfrtp_1
*I *982:CLK I *D sky130_fd_sc_hd__dfrtp_1
*I *1016:X O *D sky130_fd_sc_hd__clkbuf_16
*CAP
1 *1011:CLK 0
2 *1007:CLK 0.000528668
3 *1010:CLK 0
4 *1009:CLK 0
5 *980:CLK 0.000263428
6 *1019:A 0.000193391
7 *1008:CLK 0.000236674
8 *982:CLK 0.000525434
9 *1016:X 0
10 *305:77 0.000990657
11 *305:73 0.000719781
12 *305:45 0.000434252
13 *305:41 0.00065855
14 *305:10 0.000860074
15 *305:8 0.000562907
16 *305:4 0.000501484
17 *980:CLK *767:A 0
18 *980:CLK *371:14 0.000186662
19 *980:CLK *371:24 0
20 *982:CLK *332:58 0
21 *1007:CLK *354:8 0.000205769
22 *305:73 *772:B 0.00010096
23 *305:73 *773:A 0.0001399
24 *305:73 *1077:A 1.39726e-05
25 *305:73 *319:16 0.000217842
26 *305:73 *355:19 2.14757e-05
27 *774:B *305:41 8.27184e-06
28 *897:A3 *1019:A 0
29 *897:C1 *1019:A 0
30 *903:A *305:45 5.33978e-05
31 *903:B *980:CLK 2.88517e-05
32 *903:B *305:45 0.000109229
33 *908:A *1007:CLK 0
34 *908:A *305:77 0
35 *908:B *1007:CLK 8.07951e-05
36 *908:B *305:77 0.000340066
37 *909:B1 *305:77 0
38 *909:C1 *305:77 2.94103e-05
39 *911:B1 *305:77 4.40149e-05
40 *913:B *305:77 0.000146474
41 *1007:D *1007:CLK 0
42 *1008:D *982:CLK 0
43 *1008:D *305:10 0
44 *1008:RESET_B *982:CLK 5.56943e-05
45 *1009:RESET_B *980:CLK 5.62995e-05
46 *1009:RESET_B *305:45 0
47 *1011:D *305:77 5.24274e-05
48 *101:18 *305:41 2.72859e-05
49 *101:18 *305:73 1.76578e-05
50 *101:40 *305:77 0.000175795
51 *103:12 *305:8 0.000158772
52 *103:12 *305:41 4.01768e-05
53 *226:12 *1019:A 5.52238e-05
54 *227:17 *305:77 0
55 *228:25 *305:45 0
56 *228:25 *305:73 5.59013e-05
57 *228:25 *305:77 0
*RES
1 *1016:X *305:4 9.3 
2 *305:4 *305:8 8.32143 
3 *305:8 *305:10 1.64286 
4 *305:10 *982:CLK 23.6393 
5 *305:10 *1008:CLK 17.6214 
6 *305:8 *1019:A 17.1929 
7 *305:4 *305:41 3 
8 *305:41 *305:45 8.57143 
9 *305:45 *980:CLK 19.3536 
10 *305:45 *1009:CLK 13.8 
11 *305:41 *305:73 14.0893 
12 *305:73 *305:77 14.3393 
13 *305:77 *1010:CLK 13.8 
14 *305:77 *1007:CLK 21.5321 
15 *305:73 *1011:CLK 9.3 
*END

*D_NET *306 0.00196794
*CONN
*I *814:A I *D sky130_fd_sc_hd__nand2_1
*I *970:A I *D sky130_fd_sc_hd__or2_1
*I *1024:X O *D sky130_fd_sc_hd__clkbuf_1
*CAP
1 *814:A 0
2 *970:A 0.000277417
3 *1024:X 0.000233914
4 *306:8 0.000511332
5 *970:A *1079:A 1.15281e-05
6 *970:A *333:25 1.4403e-05
7 *970:A *371:32 4.1331e-06
8 *306:8 *769:A 0.000142317
9 *306:8 *1078:A 0.000383033
10 *306:8 *356:10 7.6644e-05
11 *306:8 *371:32 1.91418e-05
12 *971:A *970:A 1.39726e-05
13 *971:B *970:A 7.43578e-06
14 *980:D *970:A 0
15 *143:8 *970:A 0.000272665
16 *227:17 *306:8 0
*RES
1 *1024:X *306:8 20.3 
2 *306:8 *970:A 19.55 
3 *306:8 *814:A 13.8 
*END

*D_NET *307 0.00135222
*CONN
*I *870:B1 I *D sky130_fd_sc_hd__o211a_1
*I *861:A I *D sky130_fd_sc_hd__nand2_1
*I *860:A I *D sky130_fd_sc_hd__or2_1
*I *1025:X O *D sky130_fd_sc_hd__buf_1
*CAP
1 *870:B1 7.38979e-05
2 *861:A 4.98725e-05
3 *860:A 0
4 *1025:X 0.000101549
5 *307:16 0.000263038
6 *307:8 0.000388612
7 *861:A *861:B 6.87574e-05
8 *870:B1 *870:C1 6.39901e-05
9 *307:8 *310:14 2.65105e-05
10 *307:16 *860:B 7.43578e-06
11 *307:16 *861:B 9.90431e-05
12 *307:16 *870:C1 0.000117388
13 *307:16 *343:33 1.76039e-05
14 *873:C1 *870:B1 0
15 *873:C1 *307:16 0
16 *1025:A *307:8 1.92905e-05
17 *189:10 *861:A 5.52302e-05
*RES
1 *1025:X *307:8 15.1571 
2 *307:8 *307:16 9.03571 
3 *307:16 *860:A 9.3 
4 *307:16 *861:A 10.6571 
5 *307:8 *870:B1 15.4429 
*END

*D_NET *308 0.00183294
*CONN
*I *873:A1 I *D sky130_fd_sc_hd__a211oi_1
*I *863:A I *D sky130_fd_sc_hd__xnor2_1
*I *870:A1 I *D sky130_fd_sc_hd__o211a_1
*I *1026:X O *D sky130_fd_sc_hd__buf_1
*CAP
1 *873:A1 0
2 *863:A 3.55704e-05
3 *870:A1 7.97095e-05
4 *1026:X 0.000318894
5 *308:14 0.000245786
6 *308:10 0.0004494
7 *863:A *870:A2 9.90431e-05
8 *863:A *344:16 4.38128e-05
9 *870:A1 *870:A2 0.000227532
10 *308:10 *876:B 6.05161e-06
11 *308:10 *1067:A 3.34687e-05
12 *308:14 *1067:A 2.84494e-05
13 *308:14 *344:33 0.000104246
14 *873:B1 *308:14 4.15914e-05
15 *873:C1 *308:14 4.16207e-05
16 *192:10 *863:A 4.58976e-05
17 *192:10 *870:A1 3.18676e-05
*RES
1 *1026:X *308:10 17.8357 
2 *308:10 *308:14 7.96429 
3 *308:14 *870:A1 11.4786 
4 *308:14 *863:A 10.6571 
5 *308:10 *873:A1 13.8 
*END

*D_NET *309 0.00130136
*CONN
*I *810:A I *D sky130_fd_sc_hd__nand2_1
*I *812:A I *D sky130_fd_sc_hd__nor2_1
*I *1027:X O *D sky130_fd_sc_hd__clkbuf_1
*CAP
1 *810:A 0.000186992
2 *812:A 2.52056e-05
3 *1027:X 0.000233461
4 *309:10 0.000445658
5 *810:A *810:B 5.0725e-05
6 *810:A *321:8 5.33005e-05
7 *810:A *345:21 2.8266e-06
8 *309:10 *1087:A 2.65105e-05
9 *309:10 *345:21 4.49451e-05
10 *813:A *309:10 3.23339e-05
11 *813:B *309:10 0
12 *815:A2 *309:10 1.09501e-05
13 *1027:A *309:10 2.86754e-05
14 *1039:A *810:A 5.14407e-06
15 *139:10 *810:A 6.30388e-05
16 *139:10 *309:10 4.46186e-06
17 *141:6 *812:A 5.52302e-05
18 *143:10 *810:A 3.19058e-05
*RES
1 *1027:X *309:10 17.5143 
2 *309:10 *812:A 14.3357 
3 *309:10 *810:A 17.6571 
*END

*D_NET *310 0.0022581
*CONN
*I *887:A I *D sky130_fd_sc_hd__or2_1
*I *886:A I *D sky130_fd_sc_hd__nand2_1
*I *1028:X O *D sky130_fd_sc_hd__clkbuf_1
*CAP
1 *887:A 0.000175434
2 *886:A 0
3 *1028:X 0.000742128
4 *310:14 0.000917562
5 *887:A *346:22 7.04631e-05
6 *310:14 *344:16 0
7 *864:B *310:14 0
8 *874:B *887:A 0
9 *874:B *310:14 0
10 *924:A1 *887:A 0
11 *938:A *310:14 3.14048e-05
12 *999:D *310:14 0.000210463
13 *999:RESET_B *310:14 0
14 *1025:A *310:14 5.52302e-05
15 *192:10 *310:14 0
16 *202:6 *887:A 2.89016e-05
17 *215:10 *887:A 0
18 *215:21 *887:A 0
19 *307:8 *310:14 2.65105e-05
*RES
1 *1028:X *310:14 25.0321 
2 *310:14 *886:A 13.8 
3 *310:14 *887:A 17.1929 
*END

*D_NET *311 0.00154992
*CONN
*I *875:A I *D sky130_fd_sc_hd__nand2_1
*I *876:A I *D sky130_fd_sc_hd__or2_1
*I *1029:X O *D sky130_fd_sc_hd__clkbuf_1
*CAP
1 *875:A 4.72282e-05
2 *876:A 0.000209893
3 *1029:X 0.00027035
4 *311:8 0.000527471
5 *876:A *760:A 6.8646e-06
6 *876:A *875:B 0.000202842
7 *876:A *876:B 0.000201127
8 *311:8 *760:A 5.52302e-05
9 *877:A *875:A 0
10 *877:B *876:A 0
11 *204:6 *875:A 2.28598e-05
12 *204:6 *311:8 6.05161e-06
13 *205:10 *876:A 0
14 *206:10 *876:A 0
15 *245:10 *876:A 0
*RES
1 *1029:X *311:8 13.55 
2 *311:8 *876:A 23.5857 
3 *311:8 *875:A 10.2643 
*END

*D_NET *312 0.000849205
*CONN
*I *879:A I *D sky130_fd_sc_hd__nand2_1
*I *878:A I *D sky130_fd_sc_hd__or2_1
*I *1030:X O *D sky130_fd_sc_hd__clkbuf_1
*CAP
1 *879:A 0
2 *878:A 0.000114213
3 *1030:X 0.000139158
4 *312:8 0.000253371
5 *878:A *878:B 3.90513e-05
6 *312:8 *370:134 0.000151071
7 *928:A2 *878:A 0
8 *208:12 *878:A 0.00015234
9 *212:16 *878:A 0
*RES
1 *1030:X *312:8 12.6214 
2 *312:8 *878:A 21.1571 
3 *312:8 *879:A 9.3 
*END

*D_NET *313 0.00137532
*CONN
*I *881:A I *D sky130_fd_sc_hd__nand2_1
*I *882:A I *D sky130_fd_sc_hd__or2_1
*I *1031:X O *D sky130_fd_sc_hd__clkbuf_1
*CAP
1 *881:A 0
2 *882:A 0.000226992
3 *1031:X 6.7953e-05
4 *313:8 0.000294945
5 *882:A *881:B 0
6 *882:A *882:B 0
7 *882:A *370:32 6.16864e-05
8 *882:A *370:55 6.73591e-05
9 *882:A *370:134 1.19402e-05
10 *313:8 *762:A 9.7049e-06
11 *313:8 *881:B 2.32013e-05
12 *313:8 *370:55 0.000266212
13 *1003:RESET_B *882:A 0.000175512
14 *1031:A *313:8 5.33334e-05
15 *210:6 *882:A 9.90431e-05
16 *210:6 *313:8 1.74352e-05
*RES
1 *1031:X *313:8 12.2107 
2 *313:8 *882:A 23.925 
3 *313:8 *881:A 9.3 
*END

*D_NET *314 0.00275354
*CONN
*I *789:A I *D sky130_fd_sc_hd__nand2_1
*I *790:A I *D sky130_fd_sc_hd__or2_1
*I *1032:X O *D sky130_fd_sc_hd__clkbuf_1
*CAP
1 *789:A 0.000186539
2 *790:A 9.58911e-06
3 *1032:X 0.000493312
4 *314:10 0.00068944
5 *314:10 *776:A 5.58941e-05
6 *314:10 *790:B 9.25014e-06
7 *314:10 *1073:A 0
8 *314:10 *315:10 0.000272665
9 *314:10 *370:80 0.000192214
10 *782:B *314:10 0
11 *896:A1 *789:A 4.23858e-05
12 *896:A3 *314:10 1.721e-05
13 *896:B1 *789:A 0.000112219
14 *897:A1 *789:A 0
15 *918:A2 *314:10 0
16 *106:10 *314:10 5.57914e-05
17 *110:23 *314:10 0
18 *118:6 *789:A 0.000225148
19 *118:17 *789:A 8.04221e-05
20 *118:17 *790:A 5.71472e-05
21 *224:8 *789:A 5.52302e-05
22 *224:8 *790:A 2.28499e-05
23 *224:12 *314:10 0.000176234
24 *240:10 *314:10 0
*RES
1 *1032:X *314:10 29.9607 
2 *314:10 *790:A 9.83571 
3 *314:10 *789:A 15.4964 
*END

*D_NET *315 0.00216157
*CONN
*I *775:A I *D sky130_fd_sc_hd__nand2_1
*I *776:A I *D sky130_fd_sc_hd__or2_1
*I *1033:X O *D sky130_fd_sc_hd__clkbuf_1
*CAP
1 *775:A 0.000322962
2 *776:A 3.53023e-05
3 *1033:X 0.000185321
4 *315:10 0.000543585
5 *315:10 *766:A 4.58976e-05
6 *315:10 *370:63 0
7 *315:10 *370:106 3.18676e-05
8 *918:A1 *775:A 0.000344996
9 *918:A2 *775:A 2.54632e-05
10 *1006:RESET_B *315:10 0.000179656
11 *104:12 *775:A 0.000117956
12 *110:23 *315:10 0
13 *314:10 *776:A 5.58941e-05
14 *314:10 *315:10 0.000272665
*RES
1 *1033:X *315:10 18.925 
2 *315:10 *776:A 14.5321 
3 *315:10 *775:A 19.3 
*END

*D_NET *316 0.00249884
*CONN
*I *779:A I *D sky130_fd_sc_hd__nand2_1
*I *780:A I *D sky130_fd_sc_hd__or2_1
*I *785:B1 I *D sky130_fd_sc_hd__o211a_1
*I *1034:X O *D sky130_fd_sc_hd__buf_1
*CAP
1 *779:A 0
2 *780:A 0.00014202
3 *785:B1 4.74264e-05
4 *1034:X 0.000170609
5 *316:29 0.000419069
6 *316:8 0.000495084
7 *780:A *1073:A 0
8 *780:A *353:16 8.07313e-05
9 *780:A *353:20 1.31516e-05
10 *785:B1 *786:A2 0.000100823
11 *785:B1 *318:18 2.82057e-05
12 *316:8 *766:A 0.000219711
13 *316:29 *766:A 4.33058e-05
14 *316:29 *786:A2 7.39147e-05
15 *316:29 *1075:A 0.000186669
16 *316:29 *353:20 0
17 *781:A *780:A 4.56437e-05
18 *781:A *316:29 3.63587e-05
19 *781:B *780:A 8.96223e-05
20 *787:A *785:B1 0.000150611
21 *921:A *780:A 0.000153054
22 *1034:A *316:29 2.8266e-06
23 *1036:A *316:29 0
*RES
1 *1034:X *316:8 15.9786 
2 *316:8 *785:B1 15.7464 
3 *316:8 *316:29 10.3393 
4 *316:29 *780:A 22.5143 
5 *316:29 *779:A 9.3 
*END

*D_NET *317 0.000691324
*CONN
*I *797:A I *D sky130_fd_sc_hd__or2_1
*I *796:A I *D sky130_fd_sc_hd__nand2_1
*I *1035:X O *D sky130_fd_sc_hd__clkbuf_1
*CAP
1 *797:A 0
2 *796:A 7.41268e-05
3 *1035:X 0.0001411
4 *317:10 0.000215226
5 *796:A *797:B 6.20656e-05
6 *317:10 *1058:A 0
7 *317:10 *334:10 0
8 *795:A *796:A 1.21436e-05
9 *795:B *317:10 0
10 *125:6 *796:A 0.000186662
*RES
1 *1035:X *317:10 20.2464 
2 *317:10 *796:A 11.925 
3 *317:10 *797:A 9.3 
*END

*D_NET *318 0.00231467
*CONN
*I *786:A1 I *D sky130_fd_sc_hd__a211o_1
*I *785:A1 I *D sky130_fd_sc_hd__o211a_1
*I *778:A I *D sky130_fd_sc_hd__xnor2_1
*I *1036:X O *D sky130_fd_sc_hd__buf_1
*CAP
1 *786:A1 0
2 *785:A1 0
3 *778:A 0.000242524
4 *1036:X 0.000282734
5 *318:18 0.00038005
6 *318:8 0.00042026
7 *778:A *778:B 4.07528e-05
8 *778:A *785:A2 2.51862e-05
9 *778:A *785:C1 0.000188586
10 *778:A *353:8 0
11 *778:A *353:16 1.24368e-05
12 *778:A *354:8 2.36352e-05
13 *318:8 *766:A 9.22103e-06
14 *318:18 *766:A 5.33005e-05
15 *318:18 *786:A2 0.000145753
16 *785:B1 *318:18 2.82057e-05
17 *786:B1 *318:18 0.000195547
18 *1034:A *318:8 0.000228558
19 *1034:A *318:18 6.05161e-06
20 *1036:A *318:8 3.18676e-05
*RES
1 *1036:X *318:8 13.4429 
2 *318:8 *318:18 12.5179 
3 *318:18 *778:A 13.9786 
4 *318:18 *785:A1 9.3 
5 *318:8 *786:A1 9.3 
*END

*D_NET *319 0.00257195
*CONN
*I *772:A I *D sky130_fd_sc_hd__nand2_1
*I *773:A I *D sky130_fd_sc_hd__or2_1
*I *1037:X O *D sky130_fd_sc_hd__clkbuf_1
*CAP
1 *772:A 1.91209e-05
2 *773:A 6.87443e-05
3 *1037:X 0.000882599
4 *319:16 0.000970464
5 *772:A *772:B 0
6 *773:A *355:19 1.58163e-05
7 *319:16 *1057:A 3.41599e-05
8 *319:16 *1077:A 2.74834e-05
9 *319:16 *355:19 1.21258e-05
10 *319:16 *359:10 1.67323e-05
11 *1011:D *319:16 1.72894e-05
12 *1011:RESET_B *319:16 3.69697e-05
13 *1037:A *319:16 3.454e-05
14 *1038:A *319:16 5.33882e-05
15 *101:18 *773:A 2.47724e-05
16 *305:73 *773:A 0.0001399
17 *305:73 *319:16 0.000217842
*RES
1 *1037:X *319:16 31.4786 
2 *319:16 *773:A 11.3893 
3 *319:16 *772:A 10.0321 
*END

*D_NET *320 0.000673312
*CONN
*I *899:A I *D sky130_fd_sc_hd__nor2_1
*I *900:A I *D sky130_fd_sc_hd__nand2_1
*I *1038:X O *D sky130_fd_sc_hd__clkbuf_1
*CAP
1 *899:A 1.9885e-05
2 *900:A 9.15337e-05
3 *1038:X 1.30378e-05
4 *320:6 0.000124456
5 *899:A *769:A 9.7049e-06
6 *899:A *356:18 6.02956e-05
7 *900:A *769:A 3.18676e-05
8 *900:A *900:B 5.71472e-05
9 *900:A *356:18 6.9276e-05
10 *320:6 *769:A 1.3701e-05
11 *901:A_N *900:A 0.000144773
12 *1038:A *899:A 5.7661e-06
13 *228:8 *900:A 3.18676e-05
*RES
1 *1038:X *320:6 9.72857 
2 *320:6 *900:A 12.7286 
3 *320:6 *899:A 10.675 
*END

*D_NET *321 0.00101141
*CONN
*I *809:A I *D sky130_fd_sc_hd__nor2_1
*I *808:A I *D sky130_fd_sc_hd__and2_1
*I *1039:X O *D sky130_fd_sc_hd__clkbuf_1
*CAP
1 *809:A 2.23854e-05
2 *808:A 6.81742e-05
3 *1039:X 0.000337712
4 *321:8 0.000428272
5 *808:A *357:15 5.52238e-05
6 *321:8 *810:B 2.89016e-05
7 *810:A *321:8 5.33005e-05
8 *138:12 *808:A 1.74352e-05
*RES
1 *1039:X *321:8 15.1929 
2 *321:8 *808:A 10.6571 
3 *321:8 *809:A 9.72857 
*END

*D_NET *322 0.0010084
*CONN
*I *905:A I *D sky130_fd_sc_hd__nand2_1
*I *904:A I *D sky130_fd_sc_hd__nor2_1
*I *1040:X O *D sky130_fd_sc_hd__clkbuf_1
*CAP
1 *905:A 0
2 *904:A 3.39029e-05
3 *1040:X 0.000281205
4 *322:12 0.000315108
5 *904:A *904:B 2.59355e-05
6 *322:12 *912:A 0.000225812
7 *322:12 *1078:A 0.000126439
*RES
1 *1040:X *322:12 22.9429 
2 *322:12 *904:A 9.83571 
3 *322:12 *905:A 9.3 
*END

*D_NET *323 0.00223157
*CONN
*I *912:A I *D sky130_fd_sc_hd__xnor2_1
*I *1041:X O *D sky130_fd_sc_hd__clkbuf_1
*CAP
1 *912:A 0.000499532
2 *1041:X 0.000499532
3 *912:A *769:A 0.000713865
4 *912:A *905:B 7.79781e-06
5 *912:A *1078:A 3.90609e-05
6 *912:A *358:10 6.57244e-05
7 *913:B *912:A 3.18676e-05
8 *1010:RESET_B *912:A 0.000148374
9 *322:12 *912:A 0.000225812
*RES
1 *1041:X *912:A 40.475 
*END

*D_NET *324 0.00306294
*CONN
*I *832:A1 I *D sky130_fd_sc_hd__o221ai_4
*I *819:A1 I *D sky130_fd_sc_hd__o22ai_1
*I *817:A1 I *D sky130_fd_sc_hd__a21o_1
*I *818:A I *D sky130_fd_sc_hd__xor2_1
*I *1042:X O *D sky130_fd_sc_hd__clkbuf_2
*CAP
1 *832:A1 0.00013342
2 *819:A1 0
3 *817:A1 0
4 *818:A 0.000131968
5 *1042:X 0.000399011
6 *324:16 0.000255159
7 *324:10 0.000170942
8 *324:6 0.000580182
9 *832:A1 *818:B 1.76135e-05
10 *832:A1 *360:38 6.51946e-05
11 *324:6 *974:A 0.00018372
12 *324:6 *330:18 0.000305528
13 *324:10 *330:18 1.39726e-05
14 *324:16 *817:A2 7.19247e-05
15 *324:16 *330:18 0.000248517
16 *817:B1 *818:A 7.2754e-05
17 *819:B1 *324:16 9.90431e-05
18 *819:B2 *324:16 0.000186669
19 *832:B2 *324:16 5.33005e-05
20 *954:A *832:A1 1.19309e-05
21 *148:8 *832:A1 6.8646e-06
22 *159:23 *832:A1 0
23 *303:60 *818:A 5.52302e-05
*RES
1 *1042:X *324:6 18.05 
2 *324:6 *324:10 0.964286 
3 *324:10 *324:16 4.78571 
4 *324:16 *818:A 20.7821 
5 *324:16 *817:A1 9.3 
6 *324:10 *819:A1 9.3 
7 *324:6 *832:A1 20.8536 
*END

*D_NET *325 0.00121411
*CONN
*I *828:A I *D sky130_fd_sc_hd__nand2_1
*I *829:A I *D sky130_fd_sc_hd__or2_1
*I *1043:X O *D sky130_fd_sc_hd__clkbuf_1
*CAP
1 *828:A 3.77696e-05
2 *829:A 0.000281004
3 *1043:X 0
4 *325:6 0.000318773
5 *828:A *360:25 2.89114e-05
6 *828:A *362:21 1.46624e-05
7 *828:A *368:173 2.49484e-05
8 *829:A *829:B 5.29461e-05
9 *829:A *1082:A 0
10 *829:A *368:173 0.000110286
11 *984:RESET_B *829:A 0.000177227
12 *1043:A *828:A 5.52302e-05
13 *157:8 *828:A 5.80706e-06
14 *157:8 *829:A 7.4826e-05
15 *157:18 *829:A 3.17163e-05
*RES
1 *1043:X *325:6 13.8 
2 *325:6 *829:A 20.6571 
3 *325:6 *828:A 15.0679 
*END

*D_NET *326 0.00170355
*CONN
*I *826:A I *D sky130_fd_sc_hd__or2_1
*I *825:A I *D sky130_fd_sc_hd__nand2_1
*I *1044:X O *D sky130_fd_sc_hd__clkbuf_1
*CAP
1 *826:A 0.000353749
2 *825:A 0.000138272
3 *1044:X 7.75119e-05
4 *326:10 0.000569533
5 *825:A *363:10 0
6 *825:A *368:173 7.81028e-05
7 *825:A *369:52 0.00027098
8 *826:A *826:B 2.89016e-05
9 *826:A *368:173 1.58163e-05
10 *326:10 *975:A 2.59355e-05
11 *326:10 *368:173 7.6644e-05
12 *326:10 *369:52 6.81083e-05
*RES
1 *1044:X *326:10 15.3714 
2 *326:10 *825:A 17.2643 
3 *326:10 *826:A 18.05 
*END

*D_NET *327 0.00204413
*CONN
*I *963:A1 I *D sky130_fd_sc_hd__a21oi_1
*I *833:A1 I *D sky130_fd_sc_hd__a21oi_1
*I *820:A I *D sky130_fd_sc_hd__xnor2_1
*I *1045:X O *D sky130_fd_sc_hd__buf_1
*CAP
1 *963:A1 0.000126554
2 *833:A1 0
3 *820:A 0.000159719
4 *1045:X 9.26863e-05
5 *327:22 0.000428845
6 *327:8 0.000488366
7 *820:A *1085:A 2.28598e-05
8 *820:A *332:58 0
9 *820:A *364:14 0.00020475
10 *327:22 *1085:A 0.000140465
11 acc[6] *327:22 5.52302e-05
12 *833:B1 *820:A 4.15914e-05
13 *833:B1 *327:8 0.000142856
14 *833:B1 *327:22 5.71472e-05
15 *834:B1 *820:A 5.48581e-05
16 *834:B1 *963:A1 0
17 *834:B1 *327:22 0
18 *1045:A *820:A 2.82057e-05
19 *151:16 *963:A1 0
20 *151:16 *327:22 0
*RES
1 *1045:X *327:8 15.1571 
2 *327:8 *327:22 9.23214 
3 *327:22 *820:A 22.3 
4 *327:22 *833:A1 9.3 
5 *327:8 *963:A1 15.7464 
*END

*D_NET *328 0.00198066
*CONN
*I *793:A I *D sky130_fd_sc_hd__nor2_1
*I *792:A I *D sky130_fd_sc_hd__nand2_1
*I *794:A I *D sky130_fd_sc_hd__or2_1
*I *1046:X O *D sky130_fd_sc_hd__clkbuf_1
*CAP
1 *793:A 8.73373e-05
2 *792:A 0
3 *794:A 7.76949e-05
4 *1046:X 4.38726e-05
5 *328:23 0.00042215
6 *328:8 0.00045638
7 *793:A *792:B 7.98022e-05
8 *793:A *335:8 0
9 *793:A *335:12 9.05045e-05
10 *794:A *1059:A 5.52238e-05
11 *328:23 *1088:A 0
12 *328:23 *331:10 0
13 *328:23 *335:22 0
14 acc[11] *794:A 0.000229456
15 *1046:A *794:A 9.90367e-05
16 *1046:A *328:8 5.52302e-05
17 *1046:A *328:23 9.69119e-06
18 *121:12 *793:A 0.00014183
19 *124:23 *328:23 0.000132452
*RES
1 *1046:X *328:8 10.2643 
2 *328:8 *794:A 11.8893 
3 *328:8 *328:23 15.2321 
4 *328:23 *792:A 9.3 
5 *328:23 *793:A 12.6482 
*END

*D_NET *329 0.000882116
*CONN
*I *822:A I *D sky130_fd_sc_hd__nor2_1
*I *821:A I *D sky130_fd_sc_hd__and2_1
*I *1047:X O *D sky130_fd_sc_hd__clkbuf_1
*CAP
1 *822:A 5.3955e-05
2 *821:A 0.000214005
3 *1047:X 3.63937e-05
4 *329:6 0.000304354
5 *821:A *821:B 0.000169581
6 *821:A *365:12 0
7 *821:A *365:16 1.15281e-05
8 *822:A *365:16 5.7661e-06
9 *329:6 *365:16 9.22103e-06
10 *823:A *822:A 0
11 *987:CLK *821:A 3.38136e-05
12 *1047:A *329:6 5.30637e-06
13 *151:8 *821:A 7.43578e-06
14 *151:8 *822:A 0
15 *156:10 *821:A 3.07555e-05
*RES
1 *1047:X *329:6 9.83571 
2 *329:6 *821:A 22.9071 
3 *329:6 *822:A 10.3357 
*END

*D_NET *330 0.00353835
*CONN
*I *805:A I *D sky130_fd_sc_hd__nand2_1
*I *806:A I *D sky130_fd_sc_hd__or2_1
*I *1048:X O *D sky130_fd_sc_hd__clkbuf_1
*CAP
1 *805:A 0
2 *806:A 5.73247e-05
3 *1048:X 0.0011462
4 *330:18 0.00120353
5 *806:A *806:B 5.52238e-05
6 *330:18 *817:A2 1.32552e-05
7 *330:18 *974:A 0.00018372
8 *330:18 *979:A 0
9 *330:18 *366:10 4.46186e-06
10 *819:B1 *330:18 9.90431e-05
11 *134:10 *806:A 4.59075e-05
12 *134:10 *330:18 2.56601e-05
13 *303:27 *330:18 9.90367e-05
14 *303:60 *330:18 3.69697e-05
15 *324:6 *330:18 0.000305528
16 *324:10 *330:18 1.39726e-05
17 *324:16 *330:18 0.000248517
*RES
1 *1048:X *330:18 36.2464 
2 *330:18 *806:A 10.6571 
3 *330:18 *805:A 9.3 
*END

*D_NET *331 0.00108809
*CONN
*I *800:A I *D sky130_fd_sc_hd__or2_1
*I *799:A I *D sky130_fd_sc_hd__nand2_1
*I *1049:X O *D sky130_fd_sc_hd__clkbuf_1
*CAP
1 *800:A 8.64695e-05
2 *799:A 0
3 *1049:X 0.000319377
4 *331:10 0.000405847
5 *800:A *800:B 4.50908e-05
6 *800:A *368:142 3.48705e-05
7 *331:10 *1088:A 0.00019644
8 *124:23 *331:10 0
9 *328:23 *331:10 0
*RES
1 *1049:X *331:10 25.1036 
2 *331:10 *799:A 9.3 
3 *331:10 *800:A 11.0857 
*END

*D_NET *332 0.0157155
*CONN
*I *1023:A I *D sky130_fd_sc_hd__buf_2
*I *1021:A I *D sky130_fd_sc_hd__buf_2
*I *1022:A I *D sky130_fd_sc_hd__buf_4
*I *1020:A I *D sky130_fd_sc_hd__buf_4
*I *1050:X O *D sky130_fd_sc_hd__dlymetal6s2s_1
*CAP
1 *1023:A 0.000505066
2 *1021:A 0
3 *1022:A 8.8827e-05
4 *1020:A 0
5 *1050:X 0.000399537
6 *332:58 0.00150106
7 *332:52 0.00304646
8 *332:43 0.00204088
9 *332:37 0.00169276
10 *332:14 0.00118058
11 *1022:A *370:8 1.33343e-05
12 *332:14 *753:A 0.000104671
13 *332:14 *338:10 0
14 *332:37 *847:A 0.000281662
15 *332:37 *847:B 2.87101e-05
16 *332:37 *368:10 9.60939e-05
17 *332:37 *368:42 0.000358971
18 *332:37 *368:65 5.33005e-05
19 *332:37 *368:74 1.98839e-05
20 *332:43 *757:A 0.000202842
21 *332:43 *1060:A 0.000316693
22 *332:43 *336:10 2.90164e-05
23 *332:43 *336:38 8.16453e-05
24 *332:52 *370:8 5.52238e-05
25 *332:58 *979:A 0
26 *332:58 *1088:A 0
27 *332:58 *364:14 0
28 *332:58 *367:10 0
29 *332:58 *369:12 0.000117144
30 *332:58 *369:27 0
31 *820:A *332:58 0
32 *834:B1 *332:58 0
33 *837:A1 *332:58 2.26327e-05
34 *855:A2 *332:43 0.00018602
35 *856:A2 *332:37 0.000225808
36 *856:C1 *332:37 0
37 *940:A1 *332:43 0.00021693
38 *945:A *332:37 5.88385e-05
39 *953:B *332:43 9.25014e-06
40 *963:B1 *332:58 0
41 *982:CLK *332:58 0
42 *986:D *332:58 3.92854e-05
43 *986:RESET_B *332:58 0.000100823
44 *989:RESET_B *332:58 0.000175519
45 *994:D *332:14 7.50697e-05
46 *996:RESET_B *332:43 0
47 *1045:A *332:58 0
48 *128:10 *332:58 0
49 *164:10 *332:58 0.000196276
50 *164:23 *332:58 0.000238762
51 *178:8 *332:37 7.92229e-06
52 *179:10 *332:37 0.0001399
53 *184:14 *332:43 0.000336384
54 *198:18 *332:43 0.000710384
55 *263:10 *332:58 0
56 *301:10 *332:58 0.000292691
57 *301:28 *332:58 0.000129746
58 *302:57 *332:37 7.54868e-05
59 *302:57 *332:43 0.000263421
*RES
1 *1050:X *332:14 25.3179 
2 *332:14 *1020:A 9.3 
3 *332:14 *332:37 27.9821 
4 *332:37 *332:43 29.9464 
5 *332:43 *1022:A 10.6571 
6 *332:43 *332:52 17.375 
7 *332:52 *332:58 41 
8 *332:58 *1021:A 9.3 
9 *332:52 *1023:A 17.6393 
*END

*D_NET *333 0.00444191
*CONN
*I *1057:A I *D sky130_fd_sc_hd__buf_2
*I *814:B I *D sky130_fd_sc_hd__nand2_1
*I *970:B I *D sky130_fd_sc_hd__or2_1
*I *980:Q O *D sky130_fd_sc_hd__dfrtp_1
*CAP
1 *1057:A 0.000748555
2 *814:B 8.19963e-05
3 *970:B 0.000138136
4 *980:Q 0.000122077
5 *333:25 0.000932596
6 *333:8 0.000362257
7 *814:B *371:24 4.22908e-05
8 *970:B *1079:A 2.27416e-05
9 *1057:A *905:B 2.84398e-05
10 *1057:A *912:B 0.00020455
11 *1057:A *1078:A 0.00012196
12 *1057:A *1080:A 5.78355e-05
13 *1057:A *358:10 0.000121606
14 *1057:A *359:10 0.000128154
15 *1057:A *371:32 0.00013966
16 *333:25 *371:32 3.34295e-05
17 acc[28] *1057:A 0.000153047
18 acc[29] *1057:A 6.76337e-05
19 acc[30] *1057:A 8.15939e-05
20 acc[31] *1057:A 2.26973e-05
21 *970:A *333:25 1.4403e-05
22 *980:RESET_B *970:B 0.000106403
23 *980:RESET_B *333:8 9.51514e-06
24 *980:RESET_B *333:25 7.83659e-05
25 *1010:RESET_B *1057:A 2.34637e-05
26 *1011:RESET_B *1057:A 0.000147211
27 *1024:A *1057:A 4.5841e-05
28 *1038:A *1057:A 0.000126446
29 *1038:A *333:25 8.61174e-05
30 *1040:A *1057:A 0
31 *143:8 *970:B 0.000122942
32 *143:8 *333:25 3.57844e-05
33 *319:16 *1057:A 3.41599e-05
*RES
1 *980:Q *333:8 15.1571 
2 *333:8 *970:B 17.1929 
3 *333:8 *333:25 2.91071 
4 *333:25 *814:B 15.175 
5 *333:25 *1057:A 33.5857 
*END

*D_NET *334 0.00179042
*CONN
*I *797:B I *D sky130_fd_sc_hd__or2_1
*I *796:B I *D sky130_fd_sc_hd__nand2_1
*I *1058:A I *D sky130_fd_sc_hd__buf_2
*I *990:Q O *D sky130_fd_sc_hd__dfrtp_1
*CAP
1 *797:B 0.000111669
2 *796:B 0
3 *1058:A 0.000241898
4 *990:Q 0.000413928
5 *334:23 0.000111669
6 *334:10 0.000655826
7 *1058:A *1060:A 0
8 *334:10 *1060:A 0
9 *334:10 *368:82 0
10 acc[10] *1058:A 7.43578e-06
11 *796:A *797:B 6.20656e-05
12 *952:A2 *334:10 0
13 *953:A *797:B 1.00073e-05
14 *986:CLK *334:10 0
15 *990:D *334:10 5.52302e-05
16 *990:RESET_B *334:10 0
17 *991:RESET_B *334:10 0.00010326
18 *125:6 *797:B 1.74352e-05
19 *126:12 *334:10 0
20 *317:10 *1058:A 0
21 *317:10 *334:10 0
*RES
1 *990:Q *334:10 20.8357 
2 *334:10 *1058:A 17.6036 
3 *334:10 *334:23 4.5 
4 *334:23 *796:B 9.3 
5 *334:23 *797:B 11.4964 
*END

*D_NET *335 0.00179117
*CONN
*I *793:B I *D sky130_fd_sc_hd__nor2_1
*I *792:B I *D sky130_fd_sc_hd__nand2_1
*I *1059:A I *D sky130_fd_sc_hd__buf_2
*I *794:B I *D sky130_fd_sc_hd__or2_1
*I *991:Q O *D sky130_fd_sc_hd__dfrtp_1
*CAP
1 *793:B 0
2 *792:B 2.11938e-05
3 *1059:A 2.65735e-05
4 *794:B 0
5 *991:Q 0.000168709
6 *335:22 0.000244474
7 *335:12 0.000330025
8 *335:8 0.00025964
9 *793:A *792:B 7.98022e-05
10 *793:A *335:8 0
11 *793:A *335:12 9.05045e-05
12 *794:A *1059:A 5.52238e-05
13 *795:B *335:22 0
14 *804:A1 *335:12 5.52238e-05
15 *1012:A *335:22 0.000185914
16 *1046:A *335:22 9.25014e-06
17 *121:12 *335:8 2.89114e-05
18 *121:12 *335:12 1.21289e-05
19 *124:23 *335:22 0.000223599
20 *328:23 *335:22 0
*RES
1 *991:Q *335:8 11.9071 
2 *335:8 *335:12 2.19643 
3 *335:12 *335:22 14.3393 
4 *335:22 *794:B 9.3 
5 *335:22 *1059:A 9.83571 
6 *335:12 *792:B 10.4071 
7 *335:8 *793:B 9.3 
*END

*D_NET *336 0.00625213
*CONN
*I *853:B I *D sky130_fd_sc_hd__or2_1
*I *857:A2 I *D sky130_fd_sc_hd__a31o_1
*I *852:B I *D sky130_fd_sc_hd__nand2_1
*I *1060:A I *D sky130_fd_sc_hd__buf_2
*I *992:Q O *D sky130_fd_sc_hd__dfrtp_1
*CAP
1 *853:B 0
2 *857:A2 0.000208485
3 *852:B 0.000259554
4 *1060:A 0.000504132
5 *992:Q 0.000310465
6 *336:38 0.000633284
7 *336:10 0.000848408
8 *336:8 0.000819987
9 *852:B *852:A 3.41517e-06
10 *857:A2 *852:A 3.51442e-05
11 *857:A2 *853:A 0.000422522
12 *1060:A *340:30 0
13 *1060:A *368:82 0.00034421
14 *336:38 *853:A 8.55561e-05
15 *854:B *852:B 5.65955e-05
16 *854:B *857:A2 0
17 *854:B *336:38 2.78576e-05
18 *855:A1 *336:8 1.04066e-05
19 *855:A2 *336:10 0.000103267
20 *855:A2 *336:38 7.86163e-05
21 *855:B1 *336:8 6.05161e-06
22 *855:C1 *336:10 6.19181e-05
23 *855:C1 *336:38 4.25619e-05
24 *940:A1 *852:B 9.77423e-05
25 *940:B1_N *857:A2 0
26 *953:B *1060:A 0.000339717
27 *990:RESET_B *1060:A 0.000150625
28 *992:D *336:8 0.000141985
29 *997:CLK *857:A2 0
30 *1058:A *1060:A 0
31 *168:14 *852:B 4.18895e-05
32 *168:14 *336:38 0
33 *181:6 *852:B 5.71472e-05
34 *183:8 *852:B 4.73286e-05
35 *186:10 *857:A2 0
36 *302:16 *1060:A 8.59039e-05
37 *332:43 *1060:A 0.000316693
38 *332:43 *336:10 2.90164e-05
39 *332:43 *336:38 8.16453e-05
40 *334:10 *1060:A 0
*RES
1 *992:Q *336:8 17.6214 
2 *336:8 *336:10 2.25 
3 *336:10 *1060:A 28.1929 
4 *336:10 *852:B 18.5857 
5 *336:8 *336:38 12.3036 
6 *336:38 *857:A2 23.4429 
7 *336:38 *853:B 9.3 
*END

*D_NET *337 0.0041125
*CONN
*I *841:B I *D sky130_fd_sc_hd__or2_1
*I *840:B I *D sky130_fd_sc_hd__nand2_1
*I *1061:A I *D sky130_fd_sc_hd__buf_2
*I *993:Q O *D sky130_fd_sc_hd__dfrtp_1
*CAP
1 *841:B 0.000823491
2 *840:B 0.000268332
3 *1061:A 0.000511183
4 *993:Q 0
5 *337:8 0.000861215
6 *337:4 0.00090519
7 *840:B *752:A 5.52238e-05
8 *840:B *840:A 5.31567e-06
9 *840:B *350:6 0.00011674
10 *1061:A *752:A 0
11 *1061:A *1062:A 0
12 *1061:A *338:19 0
13 *1061:A *361:8 0
14 acc[13] *1061:A 2.11419e-05
15 acc[14] *1061:A 0.000115369
16 *942:A1 *840:B 0
17 *942:A2 *841:B 6.09476e-05
18 *993:D *841:B 4.88546e-05
19 *993:RESET_B *337:8 0
20 *1052:A *1061:A 0
21 *1052:A *337:8 0
22 *1053:A *840:B 5.62995e-05
23 *1053:A *1061:A 0
24 *302:32 *841:B 0.000263195
*RES
1 *993:Q *337:4 9.3 
2 *337:4 *337:8 5.83929 
3 *337:8 *1061:A 23.175 
4 *337:8 *840:B 18.9964 
5 *337:4 *841:B 29.1036 
*END

*D_NET *338 0.00191813
*CONN
*I *1062:A I *D sky130_fd_sc_hd__buf_2
*I *843:B I *D sky130_fd_sc_hd__or2_1
*I *844:B I *D sky130_fd_sc_hd__nand2_1
*I *994:Q O *D sky130_fd_sc_hd__dfrtp_1
*CAP
1 *1062:A 0.000132482
2 *843:B 7.91989e-05
3 *844:B 0
4 *994:Q 0.000415174
5 *338:19 0.000306563
6 *338:10 0.000510057
7 *843:B *843:A 1.24368e-05
8 *1062:A *844:A 5.58941e-05
9 *1062:A *361:8 0.00014209
10 *338:10 *844:A 1.02504e-05
11 *338:19 *844:A 0.00020455
12 acc[13] *338:19 6.27272e-06
13 acc[14] *1062:A 3.91668e-05
14 *856:A1 *843:B 3.99614e-06
15 *994:RESET_B *338:10 0
16 *1050:A *338:10 0
17 *1061:A *1062:A 0
18 *1061:A *338:19 0
19 *332:14 *338:10 0
*RES
1 *994:Q *338:10 19.6393 
2 *338:10 *844:B 13.8 
3 *338:10 *338:19 2.55357 
4 *338:19 *843:B 15.175 
5 *338:19 *1062:A 16.8893 
*END

*D_NET *339 0.00394419
*CONN
*I *857:A1 I *D sky130_fd_sc_hd__a31o_1
*I *853:A I *D sky130_fd_sc_hd__or2_1
*I *852:A I *D sky130_fd_sc_hd__nand2_1
*I *1051:X O *D sky130_fd_sc_hd__buf_1
*CAP
1 *857:A1 0
2 *853:A 0.000295717
3 *852:A 0.000266627
4 *1051:X 0.000927961
5 *339:10 0.000562344
6 *339:8 0.000927961
7 *852:B *852:A 3.41517e-06
8 *857:A2 *852:A 3.51442e-05
9 *857:A2 *853:A 0.000422522
10 *857:B1 *852:A 0.000174797
11 *857:B1 *853:A 2.48938e-05
12 *857:B1 *339:8 3.57366e-05
13 *940:B1_N *852:A 0
14 *941:A *852:A 7.94632e-05
15 *941:B *852:A 5.10822e-05
16 *942:A2 *339:8 1.86687e-05
17 *993:D *852:A 0
18 *997:CLK *853:A 0
19 *180:14 *339:8 3.22964e-05
20 *336:38 *853:A 8.55561e-05
*RES
1 *1051:X *339:8 20.425 
2 *339:8 *339:10 4.5 
3 *339:10 *852:A 19.3714 
4 *339:10 *853:A 19.5679 
5 *339:8 *857:A1 9.3 
*END

*D_NET *340 0.00248418
*CONN
*I *846:B I *D sky130_fd_sc_hd__nand2_1
*I *847:B I *D sky130_fd_sc_hd__nor2_1
*I *1063:A I *D sky130_fd_sc_hd__buf_2
*I *848:B I *D sky130_fd_sc_hd__or2_1
*I *995:Q O *D sky130_fd_sc_hd__dfrtp_1
*CAP
1 *846:B 0
2 *847:B 9.01963e-05
3 *1063:A 0
4 *848:B 8.72033e-05
5 *995:Q 8.39424e-05
6 *340:30 0.000332622
7 *340:12 0.000152397
8 *340:8 0.000391562
9 *847:B *847:A 3.16154e-05
10 *847:B *372:37 7.17614e-05
11 *848:B *848:A 0.000271725
12 *340:8 *372:37 1.24368e-05
13 *340:12 *372:37 7.15591e-05
14 *340:30 *372:37 0.000157016
15 acc[15] *848:B 6.47262e-05
16 acc[15] *340:12 0
17 *849:B *847:B 5.49489e-05
18 *849:B *848:B 4.60153e-05
19 *849:B *340:12 0.000101545
20 *849:B *340:30 3.48717e-05
21 *856:C1 *340:30 1.02504e-05
22 *953:B *340:30 0
23 *995:RESET_B *340:8 1.83301e-05
24 *1054:A *848:B 9.71197e-05
25 *1054:A *340:12 1.41642e-05
26 *1060:A *340:30 0
27 *175:8 *847:B 3.93247e-05
28 *178:8 *847:B 0.000220135
29 *332:37 *847:B 2.87101e-05
*RES
1 *995:Q *340:8 14.7464 
2 *340:8 *340:12 6.44643 
3 *340:12 *848:B 12.7107 
4 *340:12 *1063:A 9.3 
5 *340:8 *340:30 8.19643 
6 *340:30 *847:B 12.7464 
7 *340:30 *846:B 9.3 
*END

*D_NET *341 0.00369982
*CONN
*I *866:B I *D sky130_fd_sc_hd__nand2_1
*I *872:A2 I *D sky130_fd_sc_hd__a31o_1
*I *1064:A I *D sky130_fd_sc_hd__buf_2
*I *867:B I *D sky130_fd_sc_hd__or2_1
*I *996:Q O *D sky130_fd_sc_hd__dfrtp_1
*CAP
1 *866:B 0
2 *872:A2 0
3 *1064:A 0.000187005
4 *867:B 0
5 *996:Q 0.000234644
6 *341:27 0.000348564
7 *341:23 0.000579359
8 *341:12 0.000652444
9 *1064:A *373:6 0.000276211
10 *341:23 *867:A 0.000420532
11 *341:23 *373:21 3.53302e-05
12 *341:27 *872:A1 1.04232e-05
13 *341:27 *373:6 2.14658e-05
14 *341:27 *373:21 0.000320611
15 acc[16] *1064:A 2.34337e-05
16 *872:A3 *1064:A 1.74352e-05
17 *872:A3 *341:27 0.00017684
18 *872:B1 *341:27 5.52238e-05
19 *873:C1 *1064:A 4.79842e-05
20 *930:A *341:12 0.000130662
21 *1055:A *1064:A 1.41706e-05
22 *193:8 *1064:A 0
23 *197:6 *341:12 3.08664e-05
24 *197:6 *341:23 2.70242e-05
25 *197:19 *341:12 2.84026e-05
26 *198:18 *341:12 5.544e-05
27 *247:14 *341:12 5.74499e-06
*RES
1 *996:Q *341:12 23.1393 
2 *341:12 *867:B 9.3 
3 *341:12 *341:23 6.625 
4 *341:23 *341:27 5.07143 
5 *341:27 *1064:A 23.4429 
6 *341:27 *872:A2 9.3 
7 *341:23 *866:B 9.3 
*END

*D_NET *342 0.00202946
*CONN
*I *859:B I *D sky130_fd_sc_hd__xnor2_1
*I *1065:A I *D sky130_fd_sc_hd__buf_2
*I *935:A2 I *D sky130_fd_sc_hd__a21o_1
*I *871:B I *D sky130_fd_sc_hd__and3_1
*I *997:Q O *D sky130_fd_sc_hd__dfrtp_1
*CAP
1 *859:B 0.000185303
2 *1065:A 0
3 *935:A2 0.00015362
4 *871:B 0
5 *997:Q 9.32167e-05
6 *342:16 0.000460998
7 *342:12 0.000394451
8 *342:8 0.000365594
9 *859:B *871:A 0
10 *935:A2 *871:A 1.00375e-05
11 acc[17] *935:A2 0
12 acc[17] *342:8 8.00806e-05
13 *871:C *935:A2 0.000128218
14 *871:C *342:16 1.58213e-06
15 *872:B1 *935:A2 0.000127446
16 *935:B1 *935:A2 0
17 *1056:A *859:B 2.89114e-05
*RES
1 *997:Q *342:8 15.7464 
2 *342:8 *342:12 5.85714 
3 *342:12 *342:16 4.03571 
4 *342:16 *871:B 9.3 
5 *342:16 *935:A2 21.9964 
6 *342:12 *1065:A 9.3 
7 *342:8 *859:B 16.8893 
*END

*D_NET *343 0.00476783
*CONN
*I *1066:A I *D sky130_fd_sc_hd__buf_2
*I *870:C1 I *D sky130_fd_sc_hd__o211a_1
*I *861:B I *D sky130_fd_sc_hd__nand2_1
*I *860:B I *D sky130_fd_sc_hd__or2_1
*I *998:Q O *D sky130_fd_sc_hd__dfrtp_1
*CAP
1 *1066:A 0
2 *870:C1 0.000189528
3 *861:B 0.000242114
4 *860:B 4.86302e-05
5 *998:Q 0.00128479
6 *343:33 0.000485024
7 *343:22 0.000304276
8 *343:16 0.00148705
9 acc[18] *343:22 1.94945e-05
10 *861:A *861:B 6.87574e-05
11 *870:B1 *870:C1 6.39901e-05
12 *873:C1 *343:22 0
13 *873:C1 *343:33 0
14 *937:A1 *343:16 1.92905e-05
15 *937:A2 *343:16 9.7659e-05
16 *937:B1_N *343:16 8.46044e-06
17 *998:CLK *343:16 8.22651e-05
18 *998:D *343:16 0.000111062
19 *1025:A *870:C1 0
20 *1028:A *870:C1 0
21 *189:10 *861:B 1.39726e-05
22 *307:16 *860:B 7.43578e-06
23 *307:16 *861:B 9.90431e-05
24 *307:16 *870:C1 0.000117388
25 *307:16 *343:33 1.76039e-05
*RES
1 *998:Q *343:16 26.3536 
2 *343:16 *343:22 7.80357 
3 *343:22 *860:B 14.7464 
4 *343:22 *343:33 1.03571 
5 *343:33 *861:B 18.3536 
6 *343:33 *870:C1 18.175 
7 *343:16 *1066:A 9.3 
*END

*D_NET *344 0.00409658
*CONN
*I *863:B I *D sky130_fd_sc_hd__xnor2_1
*I *873:A2 I *D sky130_fd_sc_hd__a211oi_1
*I *1067:A I *D sky130_fd_sc_hd__buf_2
*I *870:A2 I *D sky130_fd_sc_hd__o211a_1
*I *999:Q O *D sky130_fd_sc_hd__dfrtp_1
*CAP
1 *863:B 0
2 *873:A2 0
3 *1067:A 0.000660691
4 *870:A2 0.000179393
5 *999:Q 0.000254954
6 *344:33 0.0007892
7 *344:16 0.000562856
8 *1067:A *760:A 0.000608347
9 *1067:A *875:B 3.096e-05
10 *1067:A *876:B 7.58571e-05
11 *1067:A *1069:A 0.000139913
12 *1067:A *1070:A 0
13 *1067:A *348:12 0
14 *344:33 *1069:A 5.52238e-05
15 *344:33 *346:22 0
16 *863:A *870:A2 9.90431e-05
17 *863:A *344:16 4.38128e-05
18 *870:A1 *870:A2 0.000227532
19 *873:C1 *344:16 0
20 *1001:RESET_B *1067:A 0.000104974
21 *1026:A *1067:A 0
22 *192:10 *344:16 0
23 *202:6 *1067:A 7.61932e-05
24 *202:6 *344:33 2.14658e-05
25 *308:10 *1067:A 3.34687e-05
26 *308:14 *1067:A 2.84494e-05
27 *308:14 *344:33 0.000104246
28 *310:14 *344:16 0
*RES
1 *999:Q *344:16 22.675 
2 *344:16 *870:A2 13.1393 
3 *344:16 *344:33 12.0893 
4 *344:33 *1067:A 34.3536 
5 *344:33 *873:A2 9.3 
6 *344:16 *863:B 9.3 
*END

*D_NET *345 0.00447311
*CONN
*I *810:B I *D sky130_fd_sc_hd__nand2_1
*I *812:B I *D sky130_fd_sc_hd__nor2_1
*I *1068:A I *D sky130_fd_sc_hd__buf_2
*I *981:Q O *D sky130_fd_sc_hd__dfrtp_1
*CAP
1 *810:B 0.000236339
2 *812:B 0
3 *1068:A 0.00117025
4 *981:Q 8.56257e-05
5 *345:21 0.000471159
6 *345:8 0.00149069
7 *1068:A *1082:A 0.000234417
8 *1068:A *360:10 5.85322e-05
9 *1068:A *368:173 0
10 *345:21 *368:173 0
11 acc[3] *1068:A 2.22043e-05
12 acc[4] *1068:A 0.00011584
13 acc[5] *1068:A 2.34337e-05
14 acc[8] *345:21 3.15282e-05
15 *810:A *810:B 5.0725e-05
16 *810:A *345:21 2.8266e-06
17 *827:B *1068:A 0.000128161
18 *830:B *1068:A 7.42707e-05
19 *981:RESET_B *1068:A 0
20 *981:RESET_B *345:21 0
21 *1027:A *345:21 0
22 *1042:A *1068:A 4.75911e-05
23 *1043:A *1068:A 4.33002e-05
24 *1048:A *1068:A 0.000112372
25 *309:10 *345:21 4.49451e-05
26 *321:8 *810:B 2.89016e-05
*RES
1 *981:Q *345:8 14.7464 
2 *345:8 *1068:A 38.4607 
3 *345:8 *345:21 4.375 
4 *345:21 *812:B 13.8 
5 *345:21 *810:B 17.9429 
*END

*D_NET *346 0.00448686
*CONN
*I *886:B I *D sky130_fd_sc_hd__nand2_1
*I *887:B I *D sky130_fd_sc_hd__or2_1
*I *1069:A I *D sky130_fd_sc_hd__buf_2
*I *1000:Q O *D sky130_fd_sc_hd__dfrtp_1
*CAP
1 *886:B 2.23854e-05
2 *887:B 0
3 *1069:A 0.000358936
4 *1000:Q 0.00105579
5 *346:22 0.000607332
6 *346:14 0.00132657
7 *874:A *346:14 7.92229e-06
8 *887:A *346:22 7.04631e-05
9 *923:A *346:14 0.000125947
10 *923:B *346:14 4.82865e-05
11 *924:A1 *346:14 6.87146e-05
12 *1000:CLK *346:14 1.02821e-05
13 *1000:D *346:14 9.94037e-05
14 *1000:RESET_B *346:14 4.17828e-05
15 *1067:A *1069:A 0.000139913
16 *198:18 *346:14 9.35114e-06
17 *202:6 *1069:A 0.000149004
18 *215:10 *346:14 0.000232399
19 *215:10 *346:22 5.71472e-05
20 *344:33 *1069:A 5.52238e-05
21 *344:33 *346:22 0
*RES
1 *1000:Q *346:14 24.9071 
2 *346:14 *346:22 13.7321 
3 *346:22 *1069:A 16.1571 
4 *346:22 *887:B 9.3 
5 *346:14 *886:B 9.72857 
*END

*D_NET *347 0.00204016
*CONN
*I *875:B I *D sky130_fd_sc_hd__nand2_1
*I *876:B I *D sky130_fd_sc_hd__or2_1
*I *1070:A I *D sky130_fd_sc_hd__buf_2
*I *1001:Q O *D sky130_fd_sc_hd__dfrtp_1
*CAP
1 *875:B 5.62605e-05
2 *876:B 9.81234e-05
3 *1070:A 0.000297615
4 *1001:Q 8.36426e-05
5 *347:21 0.000345525
6 *347:6 0.000572399
7 *875:B *760:A 4.46186e-06
8 acc[21] *1070:A 9.60337e-06
9 *876:A *875:B 0.000202842
10 *876:A *876:B 0.000201127
11 *1001:RESET_B *875:B 5.56943e-05
12 *1029:A *1070:A 0
13 *1067:A *875:B 3.096e-05
14 *1067:A *876:B 7.58571e-05
15 *1067:A *1070:A 0
16 *308:10 *876:B 6.05161e-06
*RES
1 *1001:Q *347:6 10.6571 
2 *347:6 *1070:A 23.5857 
3 *347:6 *347:21 7.5 
4 *347:21 *876:B 16.8893 
5 *347:21 *875:B 16.3536 
*END

*D_NET *348 0.00201013
*CONN
*I *879:B I *D sky130_fd_sc_hd__nand2_1
*I *878:B I *D sky130_fd_sc_hd__or2_1
*I *1071:A I *D sky130_fd_sc_hd__buf_2
*I *1002:Q O *D sky130_fd_sc_hd__dfrtp_1
*CAP
1 *879:B 0
2 *878:B 0.000131048
3 *1071:A 2.23854e-05
4 *1002:Q 0.000150136
5 *348:23 0.000480908
6 *348:12 0.000522381
7 *348:23 *370:134 0.000388632
8 acc[19] *348:12 5.41609e-05
9 acc[19] *348:23 4.01768e-05
10 acc[22] *348:12 2.89114e-05
11 *878:A *878:B 3.90513e-05
12 *1067:A *348:12 0
13 *208:12 *878:B 0.00015234
*RES
1 *1002:Q *348:12 21.3 
2 *348:12 *1071:A 9.72857 
3 *348:12 *348:23 7.53571 
4 *348:23 *878:B 21.1571 
5 *348:23 *879:B 9.3 
*END

*D_NET *349 0.00153367
*CONN
*I *1072:A I *D sky130_fd_sc_hd__buf_2
*I *881:B I *D sky130_fd_sc_hd__nand2_1
*I *882:B I *D sky130_fd_sc_hd__or2_1
*I *1003:Q O *D sky130_fd_sc_hd__dfrtp_1
*CAP
1 *1072:A 7.88054e-05
2 *881:B 0.000341211
3 *882:B 0.000229486
4 *1003:Q 0
5 *349:6 0.000570698
6 *349:4 7.88054e-05
7 acc[23] *881:B 0
8 *882:A *881:B 0
9 *882:A *882:B 0
10 *920:B *881:B 0
11 *920:B *882:B 0
12 *1006:CLK *1072:A 9.90431e-05
13 *1031:A *881:B 0.000112418
14 *313:8 *881:B 2.32013e-05
*RES
1 *1003:Q *349:4 9.3 
2 *349:4 *349:6 4.5 
3 *349:6 *882:B 17.3179 
4 *349:6 *881:B 19.3536 
5 *349:4 *1072:A 10.9786 
*END

*D_NET *350 0.00158602
*CONN
*I *841:A I *D sky130_fd_sc_hd__or2_1
*I *840:A I *D sky130_fd_sc_hd__nand2_1
*I *1052:X O *D sky130_fd_sc_hd__clkbuf_1
*CAP
1 *841:A 0.000281276
2 *840:A 3.71762e-05
3 *1052:X 0.000236709
4 *350:6 0.00055516
5 *350:6 *752:A 3.18676e-05
6 *840:B *840:A 5.31567e-06
7 *840:B *350:6 0.00011674
8 *842:B *841:A 3.98091e-06
9 *942:A1 *840:A 0
10 *942:A1 *841:A 0.000139616
11 *942:A2 *841:A 5.71472e-05
12 *1053:A *350:6 5.71472e-05
13 *169:6 *841:A 1.72894e-05
14 *169:6 *350:6 4.0342e-06
15 *169:23 *841:A 4.25576e-05
*RES
1 *1052:X *350:6 13.9429 
2 *350:6 *840:A 10.0321 
3 *350:6 *841:A 14.8 
*END

*D_NET *351 0.00361917
*CONN
*I *1073:A I *D sky130_fd_sc_hd__buf_2
*I *789:B I *D sky130_fd_sc_hd__nand2_1
*I *790:B I *D sky130_fd_sc_hd__or2_1
*I *1004:Q O *D sky130_fd_sc_hd__dfrtp_1
*CAP
1 *1073:A 0.000656086
2 *789:B 0
3 *790:B 0.000110638
4 *1004:Q 5.80299e-05
5 *351:25 0.00093737
6 *351:6 0.000449952
7 *790:B *759:A 5.66157e-05
8 *790:B *370:80 5.02836e-05
9 *351:6 *763:A 2.59355e-05
10 *351:25 *763:A 2.89114e-05
11 *780:A *1073:A 0
12 *781:B *1073:A 7.50601e-05
13 *782:B *1073:A 0.000272672
14 *896:A3 *790:B 1.02504e-05
15 *896:A3 *1073:A 0
16 *896:A3 *351:25 0
17 *897:A3 *1073:A 0
18 *898:B *1073:A 5.58941e-05
19 *898:B *351:25 5.06883e-05
20 *920:A *1073:A 5.52238e-05
21 *921:A *1073:A 0
22 *921:C *1073:A 0
23 *1004:RESET_B *351:6 1.55885e-05
24 *1015:A *790:B 7.83587e-05
25 *1015:A *351:25 6.30173e-05
26 *1032:A *1073:A 5.71472e-05
27 *110:6 *1073:A 5.33005e-05
28 *110:23 *1073:A 0.000342495
29 *111:12 *1073:A 0
30 *224:12 *1073:A 0
31 *301:28 *351:25 0.000106403
32 *314:10 *790:B 9.25014e-06
33 *314:10 *1073:A 0
*RES
1 *1004:Q *351:6 10.2464 
2 *351:6 *790:B 21.1571 
3 *351:6 *351:25 10.4821 
4 *351:25 *789:B 13.8 
5 *351:25 *1073:A 27.3179 
*END

*D_NET *352 0.00216893
*CONN
*I *1074:A I *D sky130_fd_sc_hd__buf_2
*I *776:B I *D sky130_fd_sc_hd__or2_1
*I *775:B I *D sky130_fd_sc_hd__nand2_1
*I *1005:Q O *D sky130_fd_sc_hd__dfrtp_1
*CAP
1 *1074:A 0.000216263
2 *776:B 3.96353e-05
3 *775:B 0.000163993
4 *1005:Q 0
5 *352:23 0.000452733
6 *352:4 0.000360828
7 *1074:A *370:63 0.000189655
8 *1074:A *370:106 2.14474e-05
9 *352:23 *764:A 1.74352e-05
10 *352:23 *370:63 0.000146474
11 acc[23] *1074:A 0
12 *918:A1 *776:B 0.00018372
13 *918:A2 *776:B 9.41642e-05
14 *920:B *1074:A 0
15 *1005:D *775:B 5.62995e-05
16 *1005:D *352:23 9.77274e-05
17 *1006:D *1074:A 4.57352e-05
18 *1033:A *1074:A 1.02504e-05
19 *104:12 *776:B 1.5424e-05
20 *104:19 *776:B 5.71472e-05
*RES
1 *1005:Q *352:4 9.3 
2 *352:4 *775:B 21.1929 
3 *352:4 *352:23 8.625 
4 *352:23 *776:B 15.5679 
5 *352:23 *1074:A 18.7821 
*END

*D_NET *353 0.00216228
*CONN
*I *780:B I *D sky130_fd_sc_hd__or2_1
*I *785:C1 I *D sky130_fd_sc_hd__o211a_1
*I *1075:A I *D sky130_fd_sc_hd__buf_2
*I *779:B I *D sky130_fd_sc_hd__nand2_1
*I *1006:Q O *D sky130_fd_sc_hd__dfrtp_1
*CAP
1 *780:B 0
2 *785:C1 8.00103e-05
3 *1075:A 3.16789e-05
4 *779:B 0
5 *1006:Q 8.92016e-05
6 *353:20 0.000152879
7 *353:16 0.000502884
8 *353:8 0.000390876
9 *785:C1 *778:B 7.15962e-05
10 *1075:A *766:A 0.000102207
11 *353:8 *778:B 0
12 *353:16 *778:B 3.06878e-06
13 *778:A *785:C1 0.000188586
14 *778:A *353:8 0
15 *778:A *353:16 1.24368e-05
16 *780:A *353:16 8.07313e-05
17 *780:A *353:20 1.31516e-05
18 *781:A *353:20 5.58941e-05
19 *787:A *353:20 0
20 *921:A *353:16 4.58835e-05
21 *921:A *353:20 0.000154529
22 *316:29 *1075:A 0.000186669
23 *316:29 *353:20 0
*RES
1 *1006:Q *353:8 10.675 
2 *353:8 *353:16 8.8125 
3 *353:16 *353:20 7.50893 
4 *353:20 *779:B 9.3 
5 *353:20 *1075:A 11.0679 
6 *353:16 *785:C1 16.3804 
7 *353:8 *780:B 9.3 
*END

*D_NET *354 0.00348467
*CONN
*I *1076:A I *D sky130_fd_sc_hd__buf_2
*I *778:B I *D sky130_fd_sc_hd__xnor2_1
*I *786:A2 I *D sky130_fd_sc_hd__a211o_1
*I *785:A2 I *D sky130_fd_sc_hd__o211a_1
*I *1007:Q O *D sky130_fd_sc_hd__dfrtp_1
*CAP
1 *1076:A 7.33965e-05
2 *778:B 0.00036411
3 *786:A2 0.000130701
4 *785:A2 2.16119e-05
5 *1007:Q 2.48428e-05
6 *354:19 0.000517197
7 *354:8 0.000691798
8 *354:6 0.00074604
9 *1076:A *769:A 0.000106542
10 *354:6 *1077:A 2.28598e-05
11 *354:8 *1077:A 6.05161e-06
12 *778:A *778:B 4.07528e-05
13 *778:A *785:A2 2.51862e-05
14 *778:A *354:8 2.36352e-05
15 *785:B1 *786:A2 0.000100823
16 *785:C1 *778:B 7.15962e-05
17 *786:B1 *786:A2 1.31516e-05
18 *1007:CLK *354:8 0.000205769
19 *1041:A *1076:A 7.58664e-05
20 *316:29 *786:A2 7.39147e-05
21 *318:18 *786:A2 0.000145753
22 *353:8 *778:B 0
23 *353:16 *778:B 3.06878e-06
*RES
1 *1007:Q *354:6 9.83571 
2 *354:6 *354:8 12.0357 
3 *354:8 *785:A2 9.86696 
4 *354:8 *354:19 0.428571 
5 *354:19 *786:A2 21.0857 
6 *354:19 *778:B 14.2821 
7 *354:6 *1076:A 20.8536 
*END

*D_NET *355 0.00480039
*CONN
*I *1077:A I *D sky130_fd_sc_hd__buf_2
*I *772:B I *D sky130_fd_sc_hd__nand2_1
*I *773:B I *D sky130_fd_sc_hd__or2_1
*I *1008:Q O *D sky130_fd_sc_hd__dfrtp_1
*CAP
1 *1077:A 0.000904965
2 *772:B 3.35064e-05
3 *773:B 0
4 *1008:Q 0.000481016
5 *355:19 0.000999205
6 *355:12 0.00054175
7 *1077:A *769:A 0.000574896
8 *1077:A *904:B 6.0038e-05
9 *1077:A *1080:A 0.000137983
10 *772:A *772:B 0
11 *773:A *355:19 1.58163e-05
12 *903:B *355:12 0
13 *908:B *1077:A 0
14 *910:A1 *1077:A 0.000187244
15 *911:A2 *1077:A 0.00015304
16 *1007:RESET_B *1077:A 0
17 *1011:D *1077:A 5.52302e-05
18 *101:18 *355:19 9.60939e-05
19 *101:40 *355:19 8.76257e-05
20 *227:17 *1077:A 9.56804e-05
21 *228:25 *355:12 0.000171368
22 *305:73 *772:B 0.00010096
23 *305:73 *1077:A 1.39726e-05
24 *305:73 *355:19 2.14757e-05
25 *319:16 *1077:A 2.74834e-05
26 *319:16 *355:19 1.21258e-05
27 *354:6 *1077:A 2.28598e-05
28 *354:8 *1077:A 6.05161e-06
*RES
1 *1008:Q *355:12 24.7821 
2 *355:12 *773:B 9.3 
3 *355:12 *355:19 2.17857 
4 *355:19 *772:B 10.675 
5 *355:19 *1077:A 37.2821 
*END

*D_NET *356 0.00302399
*CONN
*I *1078:A I *D sky130_fd_sc_hd__buf_2
*I *899:B I *D sky130_fd_sc_hd__nor2_1
*I *900:B I *D sky130_fd_sc_hd__nand2_1
*I *1009:Q O *D sky130_fd_sc_hd__dfrtp_1
*CAP
1 *1078:A 0.000378827
2 *899:B 0
3 *900:B 2.00323e-05
4 *1009:Q 0.000115612
5 *356:18 0.000237888
6 *356:10 0.000712294
7 *1078:A *769:A 9.67796e-05
8 *1078:A *904:B 5.33005e-05
9 *1078:A *905:B 3.34295e-05
10 *1078:A *912:B 0.000106299
11 *1078:A *371:32 2.84494e-05
12 *356:10 *371:24 3.4879e-05
13 *356:10 *371:32 3.69697e-05
14 *356:18 *769:A 5.94433e-06
15 *899:A *356:18 6.02956e-05
16 *900:A *900:B 5.71472e-05
17 *900:A *356:18 6.9276e-05
18 *912:A *1078:A 3.90609e-05
19 *1024:A *1078:A 0.000216997
20 *1038:A *356:18 1.24368e-05
21 *1057:A *1078:A 0.00012196
22 *306:8 *1078:A 0.000383033
23 *306:8 *356:10 7.6644e-05
24 *322:12 *1078:A 0.000126439
*RES
1 *1009:Q *356:10 15.7821 
2 *356:10 *356:18 7.94643 
3 *356:18 *900:B 9.83571 
4 *356:18 *899:B 9.3 
5 *356:10 *1078:A 25.925 
*END

*D_NET *357 0.0018848
*CONN
*I *809:B I *D sky130_fd_sc_hd__nor2_1
*I *1079:A I *D sky130_fd_sc_hd__buf_2
*I *808:B I *D sky130_fd_sc_hd__and2_1
*I *982:Q O *D sky130_fd_sc_hd__dfrtp_1
*CAP
1 *809:B 0
2 *1079:A 0.00057063
3 *808:B 0
4 *982:Q 7.53074e-05
5 *357:15 0.00061263
6 *357:8 0.000117308
7 *808:A *357:15 5.52238e-05
8 *970:A *1079:A 1.15281e-05
9 *970:B *1079:A 2.27416e-05
10 *971:A *1079:A 9.90367e-05
11 *971:B *1079:A 4.88637e-05
12 *980:D *1079:A 7.03103e-05
13 *982:RESET_B *1079:A 0
14 *137:10 *1079:A 1.97381e-05
15 *137:10 *357:8 5.33334e-05
16 *137:10 *357:15 6.05161e-06
17 *138:12 *357:8 5.03772e-05
18 *138:12 *357:15 7.17235e-05
*RES
1 *982:Q *357:8 11.0857 
2 *357:8 *808:B 9.3 
3 *357:8 *357:15 1.35714 
4 *357:15 *1079:A 28.3893 
5 *357:15 *809:B 9.3 
*END

*D_NET *358 0.00220419
*CONN
*I *1080:A I *D sky130_fd_sc_hd__buf_2
*I *904:B I *D sky130_fd_sc_hd__nor2_1
*I *905:B I *D sky130_fd_sc_hd__nand2_1
*I *1010:Q O *D sky130_fd_sc_hd__dfrtp_1
*CAP
1 *1080:A 0.00011832
2 *904:B 0.000102116
3 *905:B 2.38425e-05
4 *1010:Q 0.000273206
5 *358:10 0.000203421
6 *358:8 0.000468989
7 *904:B *769:A 5.83233e-05
8 acc[30] *1080:A 1.58163e-05
9 *904:A *904:B 2.59355e-05
10 *912:A *905:B 7.79781e-06
11 *912:A *358:10 6.57244e-05
12 *1010:RESET_B *1080:A 0.000112875
13 *1010:RESET_B *358:10 3.51442e-05
14 *1057:A *905:B 2.84398e-05
15 *1057:A *1080:A 5.78355e-05
16 *1057:A *358:10 0.000121606
17 *1077:A *904:B 6.0038e-05
18 *1077:A *1080:A 0.000137983
19 *1078:A *904:B 5.33005e-05
20 *1078:A *905:B 3.34295e-05
21 *231:6 *904:B 1.92789e-05
22 *232:6 *904:B 0.00018077
*RES
1 *1010:Q *358:8 16.8 
2 *358:8 *358:10 2.85714 
3 *358:10 *905:B 14.5321 
4 *358:10 *904:B 25.7107 
5 *358:8 *1080:A 16.8 
*END

*D_NET *359 0.00121696
*CONN
*I *912:B I *D sky130_fd_sc_hd__xnor2_1
*I *1081:A I *D sky130_fd_sc_hd__buf_2
*I *1011:Q O *D sky130_fd_sc_hd__dfrtp_1
*CAP
1 *912:B 4.95367e-05
2 *1081:A 0
3 *1011:Q 0.000266142
4 *359:10 0.000315678
5 *1024:A *359:10 0.000129868
6 *1057:A *912:B 0.00020455
7 *1057:A *359:10 0.000128154
8 *1078:A *912:B 0.000106299
9 *319:16 *359:10 1.67323e-05
*RES
1 *1011:Q *359:10 18.0321 
2 *359:10 *1081:A 13.8 
3 *359:10 *912:B 16.3536 
*END

*D_NET *360 0.00644288
*CONN
*I *818:B I *D sky130_fd_sc_hd__xor2_1
*I *819:A2 I *D sky130_fd_sc_hd__o22ai_1
*I *817:A2 I *D sky130_fd_sc_hd__a21o_1
*I *832:A2 I *D sky130_fd_sc_hd__o221ai_4
*I *1082:A I *D sky130_fd_sc_hd__buf_2
*I *983:Q O *D sky130_fd_sc_hd__dfrtp_4
*CAP
1 *818:B 0.000330232
2 *819:A2 0
3 *817:A2 0.000258932
4 *832:A2 9.23544e-05
5 *1082:A 0.00052842
6 *983:Q 0.000267561
7 *360:40 0.000258932
8 *360:38 0.000383557
9 *360:25 0.000653984
10 *360:10 0.00130429
11 *1082:A *829:B 8.15843e-05
12 *1082:A *978:A 0
13 *1082:A *362:21 0.000125918
14 *1082:A *363:10 0.000202128
15 *1082:A *368:173 0
16 *1082:A *369:52 0
17 *360:10 *368:173 0
18 *360:25 *1083:A 2.89114e-05
19 acc[4] *1082:A 0.000254653
20 acc[5] *1082:A 4.75911e-05
21 *819:B2 *817:A2 0.000174232
22 *828:A *360:25 2.89114e-05
23 *829:A *1082:A 0
24 *831:C *832:A2 1.55885e-05
25 *831:C *360:25 3.14078e-05
26 *832:A1 *818:B 1.76135e-05
27 *832:A1 *360:38 6.51946e-05
28 *832:B1 *832:A2 0
29 *832:B1 *360:38 0
30 *832:B2 *817:A2 5.33005e-05
31 *955:A *832:A2 5.52302e-05
32 *955:A *360:25 0.000216121
33 *969:A *818:B 8.07313e-05
34 *981:CLK *818:B 0
35 *983:RESET_B *360:10 0
36 *1043:A *1082:A 1.17968e-05
37 *1043:A *360:25 7.12625e-05
38 *1048:A *360:10 0.000153047
39 *1068:A *1082:A 0.000234417
40 *1068:A *360:10 5.85322e-05
41 *145:21 *818:B 0
42 *148:8 *360:38 0.000103267
43 *303:60 *818:B 0.000167998
44 *324:16 *817:A2 7.19247e-05
45 *330:18 *817:A2 1.32552e-05
*RES
1 *983:Q *360:10 18.8179 
2 *360:10 *1082:A 27.3179 
3 *360:10 *360:25 13.25 
4 *360:25 *832:A2 10.9786 
5 *360:25 *360:38 6.14286 
6 *360:38 *360:40 4.5 
7 *360:40 *817:A2 14.2643 
8 *360:40 *819:A2 9.3 
9 *360:38 *818:B 19.9607 
*END

*D_NET *361 0.00123536
*CONN
*I *843:A I *D sky130_fd_sc_hd__or2_1
*I *844:A I *D sky130_fd_sc_hd__nand2_1
*I *1053:X O *D sky130_fd_sc_hd__clkbuf_1
*CAP
1 *843:A 4.25871e-05
2 *844:A 0.000116284
3 *1053:X 0.000149054
4 *361:8 0.000307925
5 *361:8 *368:10 0
6 *843:B *843:A 1.24368e-05
7 *845:B *844:A 2.58997e-05
8 *845:B *361:8 8.16036e-05
9 *945:B *844:A 0
10 *1061:A *361:8 0
11 *1062:A *844:A 5.58941e-05
12 *1062:A *361:8 0.00014209
13 *173:10 *844:A 8.67816e-05
14 *338:10 *844:A 1.02504e-05
15 *338:19 *844:A 0.00020455
*RES
1 *1053:X *361:8 17.5679 
2 *361:8 *844:A 17.4964 
3 *361:8 *843:A 14.3357 
*END

*D_NET *362 0.00127624
*CONN
*I *1083:A I *D sky130_fd_sc_hd__buf_2
*I *828:B I *D sky130_fd_sc_hd__nand2_1
*I *829:B I *D sky130_fd_sc_hd__or2_1
*I *984:Q O *D sky130_fd_sc_hd__dfrtp_1
*CAP
1 *1083:A 1.40355e-05
2 *828:B 0
3 *829:B 5.73177e-05
4 *984:Q 0.000141629
5 *362:21 0.000109365
6 *362:8 0.000294277
7 *828:A *362:21 1.46624e-05
8 *829:A *829:B 5.29461e-05
9 *830:A *362:8 9.31209e-05
10 *1043:A *1083:A 5.52302e-05
11 *1082:A *829:B 8.15843e-05
12 *1082:A *362:21 0.000125918
13 *157:8 *362:21 0.000150625
14 *157:18 *829:B 9.25014e-06
15 *157:18 *362:21 4.73656e-05
16 *360:25 *1083:A 2.89114e-05
*RES
1 *984:Q *362:8 15.5679 
2 *362:8 *829:B 15.7464 
3 *362:8 *362:21 7.66071 
4 *362:21 *828:B 9.3 
5 *362:21 *1083:A 9.83571 
*END

*D_NET *363 0.00093698
*CONN
*I *826:B I *D sky130_fd_sc_hd__or2_1
*I *1084:A I *D sky130_fd_sc_hd__buf_2
*I *825:B I *D sky130_fd_sc_hd__nand2_1
*I *985:Q O *D sky130_fd_sc_hd__dfrtp_1
*CAP
1 *826:B 5.20918e-05
2 *1084:A 0
3 *825:B 0.000109819
4 *985:Q 0
5 *363:10 0.000230019
6 *363:4 0.000172292
7 *825:B *976:A 0
8 *825:A *363:10 0
9 *826:A *826:B 2.89016e-05
10 *827:A *825:B 4.22908e-05
11 *827:B *825:B 4.22908e-05
12 *1082:A *363:10 0.000202128
13 *156:10 *825:B 5.71472e-05
*RES
1 *985:Q *363:4 9.3 
2 *363:4 *363:10 11.5536 
3 *363:10 *825:B 11.925 
4 *363:10 *1084:A 9.3 
5 *363:4 *826:B 10.2643 
*END

*D_NET *364 0.00228104
*CONN
*I *963:A2 I *D sky130_fd_sc_hd__a21oi_1
*I *820:B I *D sky130_fd_sc_hd__xnor2_1
*I *1085:A I *D sky130_fd_sc_hd__buf_2
*I *833:A2 I *D sky130_fd_sc_hd__a21oi_1
*I *986:Q O *D sky130_fd_sc_hd__dfrtp_1
*CAP
1 *963:A2 0.000131542
2 *820:B 0
3 *1085:A 9.20539e-05
4 *833:A2 0
5 *986:Q 5.96762e-05
6 *364:28 0.00017973
7 *364:14 0.000209189
8 *364:6 0.000224999
9 acc[6] *1085:A 2.44318e-05
10 *820:A *1085:A 2.28598e-05
11 *820:A *364:14 0.00020475
12 *833:B1 *1085:A 5.52302e-05
13 *963:B1 *963:A2 0.000185643
14 *963:B1 *364:6 6.05161e-06
15 *963:B1 *364:28 4.13595e-05
16 *964:B *963:A2 0.000101473
17 *1045:A *1085:A 0.000396898
18 *1045:A *364:14 8.673e-05
19 *149:12 *963:A2 0.000117956
20 *327:22 *1085:A 0.000140465
21 *332:58 *364:14 0
*RES
1 *986:Q *364:6 10.2464 
2 *364:6 *364:14 12.0893 
3 *364:14 *833:A2 9.3 
4 *364:14 *1085:A 13.1214 
5 *364:6 *364:28 0.946429 
6 *364:28 *820:B 9.3 
7 *364:28 *963:A2 13.7107 
*END

*D_NET *365 0.00291151
*CONN
*I *1086:A I *D sky130_fd_sc_hd__buf_2
*I *822:B I *D sky130_fd_sc_hd__nor2_1
*I *821:B I *D sky130_fd_sc_hd__and2_1
*I *987:Q O *D sky130_fd_sc_hd__dfrtp_1
*CAP
1 *1086:A 9.53605e-05
2 *822:B 0
3 *821:B 0.000190046
4 *987:Q 0.000543737
5 *365:16 0.000411443
6 *365:12 0.000860495
7 *365:12 *978:A 4.01768e-05
8 acc[7] *1086:A 4.38128e-05
9 acc[7] *365:16 5.52302e-05
10 *821:A *821:B 0.000169581
11 *821:A *365:12 0
12 *821:A *365:16 1.15281e-05
13 *822:A *365:16 5.7661e-06
14 *824:B *821:B 3.07555e-05
15 *964:A *821:B 0.000150618
16 *987:RESET_B *365:12 1.12381e-05
17 *1047:A *821:B 4.46186e-06
18 *1047:A *365:12 0
19 *1047:A *365:16 0.00010096
20 *150:12 *821:B 7.48452e-05
21 *151:8 *821:B 5.52302e-05
22 *151:8 *365:16 2.72319e-05
23 *151:16 *821:B 0
24 *151:16 *365:16 1.97695e-05
25 *329:6 *365:16 9.22103e-06
*RES
1 *987:Q *365:12 25.6036 
2 *365:12 *365:16 4.25 
3 *365:16 *821:B 23.8179 
4 *365:16 *822:B 9.3 
5 *365:12 *1086:A 11.0857 
*END

*D_NET *366 0.00294063
*CONN
*I *1087:A I *D sky130_fd_sc_hd__buf_2
*I *805:B I *D sky130_fd_sc_hd__nand2_1
*I *806:B I *D sky130_fd_sc_hd__or2_1
*I *988:Q O *D sky130_fd_sc_hd__dfrtp_1
*CAP
1 *1087:A 0.00102759
2 *805:B 0
3 *806:B 8.74216e-05
4 *988:Q 0
5 *366:10 0.000288962
6 *366:6 0.00122913
7 *366:10 *979:A 0
8 *806:A *806:B 5.52238e-05
9 *813:A *1087:A 0.000125057
10 *817:B1 *366:10 0
11 *965:A *1087:A 1.72894e-05
12 *134:10 *806:B 5.52238e-05
13 *137:24 *1087:A 0
14 *137:24 *366:10 0
15 *303:60 *806:B 2.37575e-05
16 *309:10 *1087:A 2.65105e-05
17 *330:18 *366:10 4.46186e-06
*RES
1 *988:Q *366:6 13.8 
2 *366:6 *366:10 7.96429 
3 *366:10 *806:B 11.2107 
4 *366:10 *805:B 9.3 
5 *366:6 *1087:A 30.0679 
*END

*D_NET *367 0.00226558
*CONN
*I *799:B I *D sky130_fd_sc_hd__nand2_1
*I *800:B I *D sky130_fd_sc_hd__or2_1
*I *1088:A I *D sky130_fd_sc_hd__buf_2
*I *989:Q O *D sky130_fd_sc_hd__dfrtp_1
*CAP
1 *799:B 0
2 *800:B 7.01424e-05
3 *1088:A 0.000526632
4 *989:Q 0.000150219
5 *367:27 9.67426e-05
6 *367:10 0.000703451
7 *800:B *748:A 0
8 *800:B *368:142 0.00014183
9 *1088:A *369:12 0.000118775
10 *367:27 *368:142 2.14658e-05
11 acc[9] *1088:A 5.41609e-05
12 *800:A *800:B 4.50908e-05
13 *803:A *367:10 0
14 *989:D *367:10 9.90431e-05
15 *128:10 *367:10 4.15914e-05
16 *328:23 *1088:A 0
17 *331:10 *1088:A 0.00019644
18 *332:58 *1088:A 0
19 *332:58 *367:10 0
*RES
1 *989:Q *367:10 16.3893 
2 *367:10 *1088:A 25.4607 
3 *367:10 *367:27 5.03571 
4 *367:27 *800:B 11.5143 
5 *367:27 *799:B 9.3 
*END

*D_NET *368 0.0199263
*CONN
*I *972:A I *D sky130_fd_sc_hd__inv_2
*I *748:A I *D sky130_fd_sc_hd__inv_2
*I *751:A I *D sky130_fd_sc_hd__inv_2
*I *755:A I *D sky130_fd_sc_hd__inv_2
*I *750:A I *D sky130_fd_sc_hd__inv_2
*I *754:A I *D sky130_fd_sc_hd__inv_2
*I *749:A I *D sky130_fd_sc_hd__inv_2
*I *753:A I *D sky130_fd_sc_hd__inv_2
*I *756:A I *D sky130_fd_sc_hd__inv_2
*I *752:A I *D sky130_fd_sc_hd__inv_2
*I *1020:X O *D sky130_fd_sc_hd__buf_4
*CAP
1 *972:A 0
2 *748:A 1.91209e-05
3 *751:A 3.39029e-05
4 *755:A 0.000762083
5 *750:A 2.49165e-05
6 *754:A 0
7 *749:A 2.06597e-05
8 *753:A 0.000498708
9 *756:A 0.000485703
10 *752:A 0.000215566
11 *1020:X 0
12 *368:173 0.00174158
13 *368:142 0.00234112
14 *368:108 0.00104919
15 *368:100 0.00111853
16 *368:82 0.000199049
17 *368:74 0.000531321
18 *368:65 0.000679963
19 *368:42 0.00113856
20 *368:10 0.00116695
21 *368:4 0.000518509
22 *368:173 *974:A 0.00060491
23 *368:173 *369:39 0.000210935
24 *368:173 *369:52 3.53786e-05
25 *798:A *368:142 2.89114e-05
26 *798:B *368:100 3.03304e-05
27 *798:B *368:142 0.000126572
28 *800:A *368:142 3.48705e-05
29 *800:B *748:A 0
30 *800:B *368:142 0.00014183
31 *801:B *368:142 1.32552e-05
32 *802:A *368:142 9.76261e-05
33 *813:B *368:173 4.1331e-06
34 *825:A *368:173 7.81028e-05
35 *826:A *368:173 1.58163e-05
36 *828:A *368:173 2.49484e-05
37 *829:A *368:173 0.000110286
38 *834:A1 *368:173 9.90367e-05
39 *834:B2 *368:173 0.000251339
40 *839:B *755:A 0
41 *840:B *752:A 5.52238e-05
42 *845:A *368:10 0
43 *845:B *368:10 0
44 *849:B *753:A 0
45 *850:A *368:10 0
46 *850:A *368:65 0
47 *856:A2 *368:65 3.92854e-05
48 *856:C1 *368:65 0.000123827
49 *857:B1 *368:65 2.90047e-05
50 *942:A2 *756:A 0
51 *942:A2 *368:10 0
52 *945:A *368:10 7.80802e-05
53 *945:A *368:42 0.000345637
54 *945:B *368:10 0
55 *950:A1 *368:142 0.000308184
56 *952:A2 *368:100 9.90367e-05
57 *952:A2 *368:108 0.000176234
58 *952:B1_N *368:142 1.98839e-05
59 *953:A *750:A 2.27416e-05
60 *953:B *368:74 4.58194e-05
61 *953:B *368:100 0.000189345
62 *958:B *368:173 5.76121e-05
63 *959:B *368:173 0.00019242
64 *981:CLK *368:173 0
65 *981:D *368:173 0
66 *981:RESET_B *368:173 0.000104974
67 *983:RESET_B *368:173 6.97972e-05
68 *984:RESET_B *368:173 0.000177227
69 *986:CLK *368:108 0.000383416
70 *989:RESET_B *368:173 5.52302e-05
71 *990:RESET_B *368:74 0.000139913
72 *990:RESET_B *368:100 1.33343e-05
73 *991:RESET_B *368:82 3.79467e-05
74 *992:RESET_B *755:A 0.00015234
75 *993:RESET_B *756:A 0
76 *994:D *753:A 0
77 *994:D *368:10 0.000125731
78 *995:D *753:A 0
79 *996:CLK *755:A 0.00033477
80 *996:CLK *368:108 0.000126439
81 *996:RESET_B *755:A 1.92905e-05
82 *997:CLK *756:A 0.000130264
83 *997:D *756:A 7.37159e-05
84 *997:RESET_B *756:A 0.000227539
85 *1027:A *368:173 0
86 *1048:A *368:173 0
87 *1060:A *368:82 0.00034421
88 *1061:A *752:A 0
89 *1068:A *368:173 0
90 *1082:A *368:173 0
91 *127:10 *368:142 6.12745e-05
92 *167:6 *751:A 2.59355e-05
93 *168:14 *755:A 0
94 *173:10 *368:10 0
95 *174:10 *368:10 0
96 *179:10 *368:65 0.000146474
97 *253:12 *368:10 0
98 *302:16 *368:108 0
99 *302:32 *368:10 0
100 *302:78 *753:A 0.000177555
101 *326:10 *368:173 7.6644e-05
102 *332:14 *753:A 0.000104671
103 *332:37 *368:10 9.60939e-05
104 *332:37 *368:42 0.000358971
105 *332:37 *368:65 5.33005e-05
106 *332:37 *368:74 1.98839e-05
107 *334:10 *368:82 0
108 *345:21 *368:173 0
109 *350:6 *752:A 3.18676e-05
110 *360:10 *368:173 0
111 *361:8 *368:10 0
112 *367:27 *368:142 2.14658e-05
*RES
1 *1020:X *368:4 9.3 
2 *368:4 *368:10 13.0089 
3 *368:10 *752:A 16.7911 
4 *368:10 *756:A 24.0054 
5 *368:4 *368:42 7.91071 
6 *368:42 *753:A 23.3714 
7 *368:42 *368:65 14.1071 
8 *368:65 *749:A 9.72857 
9 *368:65 *368:74 1.76786 
10 *368:74 *368:82 13.8036 
11 *368:82 *754:A 9.3 
12 *368:82 *750:A 9.83571 
13 *368:74 *368:100 6.32143 
14 *368:100 *368:108 11.9643 
15 *368:108 *755:A 29.9071 
16 *368:108 *751:A 14.3357 
17 *368:100 *368:142 12.2321 
18 *368:142 *748:A 9.72857 
19 *368:142 *368:173 46.9464 
20 *368:173 *972:A 9.3 
*END

*D_NET *369 0.0106213
*CONN
*I *979:A I *D sky130_fd_sc_hd__inv_2
*I *978:A I *D sky130_fd_sc_hd__inv_2
*I *974:A I *D sky130_fd_sc_hd__inv_2
*I *975:A I *D sky130_fd_sc_hd__inv_2
*I *976:A I *D sky130_fd_sc_hd__inv_2
*I *977:A I *D sky130_fd_sc_hd__inv_2
*I *1021:X O *D sky130_fd_sc_hd__buf_2
*CAP
1 *979:A 0.00105748
2 *978:A 0.000224197
3 *974:A 0.000348468
4 *975:A 3.27275e-05
5 *976:A 2.23854e-05
6 *977:A 0
7 *1021:X 0.000146556
8 *369:52 0.000545253
9 *369:48 0.00040708
10 *369:39 0.00070993
11 *369:27 0.00200906
12 *369:12 0.000429417
13 *807:B *979:A 0.000127446
14 *824:A *369:39 5.52302e-05
15 *825:A *369:52 0.00027098
16 *825:B *976:A 0
17 *827:A *978:A 6.05161e-06
18 *831:B *979:A 0
19 *834:B1 *979:A 0
20 *834:B1 *369:27 0
21 *834:B1 *369:39 0
22 *834:B2 *369:39 0.000325756
23 *835:B1 *979:A 0.00013712
24 *956:B *974:A 0
25 *960:A1 *369:27 0
26 *960:A2 *369:39 6.57815e-05
27 *961:C *369:39 0.000183713
28 *962:B *369:27 3.31648e-05
29 *984:D *974:A 0
30 *985:RESET_B *369:52 0.000174324
31 *986:D *369:27 3.81325e-05
32 *986:RESET_B *369:12 0.000126759
33 *987:RESET_B *978:A 0.000144773
34 *988:RESET_B *979:A 0.000121339
35 *989:RESET_B *979:A 0
36 *1044:A *369:52 7.72412e-05
37 *1082:A *978:A 0
38 *1082:A *369:52 0
39 *1088:A *369:12 0.000118775
40 *134:18 *979:A 6.85697e-05
41 *149:12 *369:39 5.80706e-06
42 *151:16 *369:39 9.69119e-06
43 *153:8 *369:39 0.00010326
44 *154:8 *978:A 2.95726e-05
45 *154:8 *369:39 0.000285486
46 *154:8 *369:48 3.67142e-05
47 *156:10 *978:A 8.57023e-05
48 *156:10 *369:39 0.00049041
49 *156:10 *369:48 8.76257e-05
50 *159:23 *974:A 0
51 *263:10 *369:27 9.25014e-06
52 *324:6 *974:A 0.00018372
53 *326:10 *975:A 2.59355e-05
54 *326:10 *369:52 6.81083e-05
55 *330:18 *974:A 0.00018372
56 *330:18 *979:A 0
57 *332:58 *979:A 0
58 *332:58 *369:12 0.000117144
59 *332:58 *369:27 0
60 *365:12 *978:A 4.01768e-05
61 *366:10 *979:A 0
62 *368:173 *974:A 0.00060491
63 *368:173 *369:39 0.000210935
64 *368:173 *369:52 3.53786e-05
*RES
1 *1021:X *369:12 22.9071 
2 *369:12 *977:A 9.3 
3 *369:12 *369:27 9.58929 
4 *369:27 *369:39 30.2679 
5 *369:39 *976:A 9.72857 
6 *369:39 *369:48 0.946429 
7 *369:48 *369:52 9.78571 
8 *369:52 *975:A 14.3357 
9 *369:52 *974:A 23.2821 
10 *369:48 *978:A 23.0857 
11 *369:27 *979:A 33.8714 
*END

*D_NET *370 0.0202146
*CONN
*I *761:A I *D sky130_fd_sc_hd__inv_2
*I *760:A I *D sky130_fd_sc_hd__inv_2
*I *766:A I *D sky130_fd_sc_hd__inv_2
*I *765:A I *D sky130_fd_sc_hd__inv_2
*I *763:A I *D sky130_fd_sc_hd__inv_2
*I *759:A I *D sky130_fd_sc_hd__inv_2
*I *764:A I *D sky130_fd_sc_hd__inv_2
*I *762:A I *D sky130_fd_sc_hd__inv_2
*I *758:A I *D sky130_fd_sc_hd__inv_2
*I *757:A I *D sky130_fd_sc_hd__inv_2
*I *1022:X O *D sky130_fd_sc_hd__buf_4
*CAP
1 *761:A 0
2 *760:A 0.000280857
3 *766:A 0.00110391
4 *765:A 0
5 *763:A 4.00745e-05
6 *759:A 0.000502529
7 *764:A 6.0589e-05
8 *762:A 1.59848e-05
9 *758:A 0.000391283
10 *757:A 0.000418098
11 *1022:X 2.9242e-05
12 *370:134 0.00140305
13 *370:106 0.00115592
14 *370:80 0.0010469
15 *370:63 0.000872718
16 *370:55 0.000933582
17 *370:36 0.000633965
18 *370:32 0.00200126
19 *370:21 0.00131493
20 *370:8 0.000536169
21 *781:A *766:A 9.60875e-05
22 *786:C1 *766:A 2.89016e-05
23 *787:A *766:A 5.52238e-05
24 *790:B *759:A 5.66157e-05
25 *790:B *370:80 5.02836e-05
26 *875:B *760:A 4.46186e-06
27 *876:A *760:A 6.8646e-06
28 *882:A *370:32 6.16864e-05
29 *882:A *370:55 6.73591e-05
30 *882:A *370:134 1.19402e-05
31 *883:A *370:134 0.000271898
32 *889:A1 *370:32 0
33 *893:A *370:32 0.000645598
34 *893:A *370:134 4.80729e-05
35 *894:A2 *370:32 1.0033e-05
36 *914:B *370:32 0.000156275
37 *915:A *370:80 0
38 *917:A *370:80 9.90367e-05
39 *918:A2 *370:63 0.000165262
40 *920:A *766:A 0.000466926
41 *920:A *370:55 0.00010776
42 *920:A *370:106 9.90431e-05
43 *920:B *370:55 0.00014285
44 *998:RESET_B *757:A 2.1768e-05
45 *1002:D *760:A 0
46 *1002:RESET_B *760:A 0.000179656
47 *1003:RESET_B *370:32 9.47456e-05
48 *1003:RESET_B *370:36 6.05161e-06
49 *1003:RESET_B *370:55 1.98839e-05
50 *1004:CLK *370:32 0.000168939
51 *1004:RESET_B *763:A 5.33005e-05
52 *1005:D *764:A 5.71472e-05
53 *1006:D *370:55 9.60875e-05
54 *1006:RESET_B *370:63 6.80593e-05
55 *1015:A *763:A 7.43578e-06
56 *1022:A *370:8 1.33343e-05
57 *1030:A *370:134 2.84109e-05
58 *1031:A *370:55 4.21613e-05
59 *1031:A *370:134 0
60 *1033:A *370:106 1.02504e-05
61 *1034:A *766:A 5.54547e-05
62 *1036:A *766:A 8.07313e-05
63 *1067:A *760:A 0.000608347
64 *1074:A *370:63 0.000189655
65 *1074:A *370:106 2.14474e-05
66 *1075:A *766:A 0.000102207
67 *110:6 *766:A 0.00016834
68 *118:25 *370:80 0
69 *198:18 *757:A 2.30245e-05
70 *198:18 *370:21 7.0061e-05
71 *198:18 *370:32 0.000180555
72 *210:6 *370:36 5.33433e-05
73 *210:6 *370:55 2.28499e-05
74 *210:6 *370:134 5.33005e-05
75 *218:10 *370:32 7.6644e-05
76 *222:12 *370:32 0.000238107
77 *240:10 *370:63 3.34366e-05
78 *240:10 *370:80 3.34672e-05
79 *301:28 *759:A 0
80 *311:8 *760:A 5.52302e-05
81 *312:8 *370:134 0.000151071
82 *313:8 *762:A 9.7049e-06
83 *313:8 *370:55 0.000266212
84 *314:10 *370:80 0.000192214
85 *315:10 *766:A 4.58976e-05
86 *315:10 *370:63 0
87 *315:10 *370:106 3.18676e-05
88 *316:8 *766:A 0.000219711
89 *316:29 *766:A 4.33058e-05
90 *318:8 *766:A 9.22103e-06
91 *318:18 *766:A 5.33005e-05
92 *332:43 *757:A 0.000202842
93 *332:52 *370:8 5.52238e-05
94 *348:23 *370:134 0.000388632
95 *351:6 *763:A 2.59355e-05
96 *351:25 *763:A 2.89114e-05
97 *352:23 *764:A 1.74352e-05
98 *352:23 *370:63 0.000146474
*RES
1 *1022:X *370:8 14.3357 
2 *370:8 *757:A 21.1929 
3 *370:8 *370:21 1.94643 
4 *370:21 *758:A 19.675 
5 *370:21 *370:32 21.9821 
6 *370:32 *370:36 5.44643 
7 *370:36 *762:A 9.72857 
8 *370:36 *370:55 15.4821 
9 *370:55 *370:63 12.2679 
10 *370:63 *764:A 10.6571 
11 *370:63 *370:80 14.4464 
12 *370:80 *759:A 22.5321 
13 *370:80 *763:A 14.7464 
14 *370:55 *370:106 6.17857 
15 *370:106 *765:A 9.3 
16 *370:106 *766:A 31.1393 
17 *370:32 *370:134 21.3036 
18 *370:134 *760:A 26.55 
19 *370:134 *761:A 9.3 
*END

*D_NET *371 0.00770387
*CONN
*I *973:A I *D sky130_fd_sc_hd__inv_2
*I *767:A I *D sky130_fd_sc_hd__inv_2
*I *768:A I *D sky130_fd_sc_hd__inv_2
*I *771:A I *D sky130_fd_sc_hd__inv_2
*I *769:A I *D sky130_fd_sc_hd__inv_2
*I *770:A I *D sky130_fd_sc_hd__inv_2
*I *1023:X O *D sky130_fd_sc_hd__buf_2
*CAP
1 *973:A 0.000169409
2 *767:A 0.000516313
3 *768:A 0
4 *771:A 0
5 *769:A 0.000697409
6 *770:A 0
7 *1023:X 0
8 *371:32 0.000809097
9 *371:24 0.000755326
10 *371:14 0.000815562
11 *371:10 0.000836953
12 *371:4 0.000318125
13 acc[30] *769:A 0
14 *814:B *371:24 4.22908e-05
15 *899:A *769:A 9.7049e-06
16 *900:A *769:A 3.18676e-05
17 *903:A *767:A 0.000230475
18 *903:B *767:A 0.000126446
19 *904:B *769:A 5.83233e-05
20 *912:A *769:A 0.000713865
21 *970:A *371:32 4.1331e-06
22 *980:CLK *767:A 0
23 *980:CLK *371:14 0.000186662
24 *980:CLK *371:24 0
25 *1007:RESET_B *769:A 0
26 *1008:RESET_B *767:A 0
27 *1009:RESET_B *371:24 0
28 *1011:RESET_B *371:32 3.69047e-06
29 *1038:A *769:A 2.04305e-05
30 *1038:A *371:32 5.52238e-05
31 *1041:A *769:A 0
32 *1057:A *371:32 0.00013966
33 *1076:A *769:A 0.000106542
34 *1077:A *769:A 0.000574896
35 *1078:A *769:A 9.67796e-05
36 *1078:A *371:32 2.84494e-05
37 *227:17 *769:A 6.98575e-05
38 *306:8 *769:A 0.000142317
39 *306:8 *371:32 1.91418e-05
40 *320:6 *769:A 1.3701e-05
41 *333:25 *371:32 3.34295e-05
42 *356:10 *371:24 3.4879e-05
43 *356:10 *371:32 3.69697e-05
44 *356:18 *769:A 5.94433e-06
*RES
1 *1023:X *371:4 9.3 
2 *371:4 *371:10 6.67857 
3 *371:10 *371:14 7.91071 
4 *371:14 *371:24 19.9107 
5 *371:24 *371:32 11.7857 
6 *371:32 *770:A 9.3 
7 *371:32 *769:A 38.5679 
8 *371:24 *771:A 9.3 
9 *371:14 *768:A 9.3 
10 *371:10 *767:A 21.8179 
11 *371:4 *973:A 12.2107 
*END

*D_NET *372 0.0028273
*CONN
*I *847:A I *D sky130_fd_sc_hd__nor2_1
*I *846:A I *D sky130_fd_sc_hd__nand2_1
*I *848:A I *D sky130_fd_sc_hd__or2_1
*I *1054:X O *D sky130_fd_sc_hd__buf_1
*CAP
1 *847:A 0.000104016
2 *846:A 0
3 *848:A 0.00017889
4 *1054:X 5.94445e-05
5 *372:37 0.000521865
6 *372:8 0.000656183
7 *847:B *847:A 3.16154e-05
8 *847:B *372:37 7.17614e-05
9 *848:B *848:A 0.000271725
10 *849:B *847:A 2.84026e-05
11 *849:B *372:37 0.000146983
12 *953:A *372:37 4.22676e-05
13 *995:RESET_B *372:37 3.39021e-05
14 *1054:A *848:A 2.39313e-05
15 *175:8 *847:A 0.000119758
16 *175:8 *372:37 1.38796e-05
17 *332:37 *847:A 0.000281662
18 *340:8 *372:37 1.24368e-05
19 *340:12 *372:37 7.15591e-05
20 *340:30 *372:37 0.000157016
*RES
1 *1054:X *372:8 10.2643 
2 *372:8 *848:A 12.7107 
3 *372:8 *372:37 26.0893 
4 *372:37 *846:A 9.3 
5 *372:37 *847:A 13.3536 
*END

*D_NET *373 0.00246147
*CONN
*I *867:A I *D sky130_fd_sc_hd__or2_1
*I *866:A I *D sky130_fd_sc_hd__nand2_1
*I *872:A1 I *D sky130_fd_sc_hd__a31o_1
*I *1055:X O *D sky130_fd_sc_hd__buf_1
*CAP
1 *867:A 8.11454e-05
2 *866:A 0
3 *872:A1 1.99857e-05
4 *1055:X 0.000165813
5 *373:21 0.000330232
6 *373:6 0.000434885
7 *868:A *867:A 3.48705e-05
8 *868:A *373:21 6.29133e-05
9 *868:B *867:A 0.000144497
10 *872:B1 *373:21 5.52238e-05
11 *1064:A *373:6 0.000276211
12 *197:6 *867:A 4.73286e-05
13 *341:23 *867:A 0.000420532
14 *341:23 *373:21 3.53302e-05
15 *341:27 *872:A1 1.04232e-05
16 *341:27 *373:6 2.14658e-05
17 *341:27 *373:21 0.000320611
*RES
1 *1055:X *373:6 12.7107 
2 *373:6 *872:A1 9.72857 
3 *373:6 *373:21 6.03571 
4 *373:21 *866:A 9.3 
5 *373:21 *867:A 13.55 
*END

*D_NET *374 0.00115059
*CONN
*I *935:A1 I *D sky130_fd_sc_hd__a21o_1
*I *871:A I *D sky130_fd_sc_hd__and3_1
*I *859:A I *D sky130_fd_sc_hd__xnor2_1
*I *1056:X O *D sky130_fd_sc_hd__buf_1
*CAP
1 *935:A1 6.66256e-05
2 *871:A 0.000112898
3 *859:A 0.000176882
4 *1056:X 0
5 *374:15 0.000188942
6 *374:4 0.000186301
7 *859:B *871:A 0
8 *865:B *935:A1 9.71197e-05
9 *871:C *871:A 7.83366e-05
10 *935:A2 *871:A 1.00375e-05
11 *1056:A *859:A 0.000133022
12 *188:8 *859:A 1.02821e-05
13 *188:8 *871:A 2.89114e-05
14 *188:8 *935:A1 6.12335e-05
*RES
1 *1056:X *374:4 9.3 
2 *374:4 *859:A 13.0321 
3 *374:4 *374:15 0.428571 
4 *374:15 *871:A 21.0857 
5 *374:15 *935:A1 11.0857 
*END
