*SPEF "ieee 1481-1999"
*DESIGN "cla8"
*DATE "04:06:04 Saturday September 19, 2026"
*VENDOR "The OpenROAD Project"
*PROGRAM "OpenROAD"
*VERSION "edf00dff99f6c40d67a30c0e22a8191c5d2ed9d6"
*DESIGN_FLOW "NAME_SCOPE LOCAL" "PIN_CAP NONE"
*DIVIDER /
*DELIMITER :
*BUS_DELIMITER []
*T_UNIT 1 NS
*C_UNIT 1 PF
*R_UNIT 1 OHM
*L_UNIT 1 HENRY

*NAME_MAP
*3 a[0]
*4 a[1]
*5 a[2]
*6 a[3]
*7 a[4]
*8 a[5]
*9 a[6]
*10 a[7]
*11 b[0]
*12 b[1]
*13 b[2]
*14 b[3]
*15 b[4]
*16 b[5]
*17 b[6]
*18 b[7]
*19 cin
*20 cout
*21 sum[0]
*22 sum[1]
*23 sum[2]
*24 sum[3]
*25 sum[4]
*26 sum[5]
*27 sum[6]
*28 sum[7]
*29 _00_
*30 _01_
*31 _02_
*32 _03_
*33 _04_
*34 _05_
*35 _06_
*36 _07_
*37 _08_
*38 _09_
*39 _10_
*40 _11_
*41 _12_
*42 _13_
*43 _14_
*44 _15_
*45 _16_
*46 _17_
*47 _18_
*48 _19_
*49 _20_
*50 _21_
*51 _22_
*52 _23_
*53 _24_
*54 _25_
*55 _26_
*56 _27_
*57 _28_
*58 _29_
*59 _30_
*60 _31_
*61 _32_
*62 _33_
*63 _34_
*64 _35_
*65 _36_
*66 _37_
*67 _38_
*68 net1
*69 net10
*70 net11
*71 net12
*72 net13
*73 net14
*74 net15
*75 net16
*76 net17
*77 net18
*78 net19
*79 net2
*80 net20
*81 net21
*82 net22
*83 net23
*84 net24
*85 net25
*86 net26
*87 net3
*88 net4
*89 net5
*90 net6
*91 net7
*92 net8
*93 net9
*94 FILLER_0_15
*95 FILLER_0_23
*96 FILLER_0_29
*97 FILLER_0_3
*98 FILLER_0_35
*99 FILLER_0_41
*100 FILLER_0_48
*101 FILLER_0_57
*102 FILLER_0_65
*103 FILLER_10_19
*104 FILLER_10_27
*105 FILLER_10_29
*106 FILLER_10_33
*107 FILLER_10_37
*108 FILLER_10_41
*109 FILLER_10_45
*110 FILLER_10_62
*111 FILLER_10_7
*112 FILLER_11_15
*113 FILLER_11_23
*114 FILLER_11_27
*115 FILLER_11_29
*116 FILLER_11_3
*117 FILLER_11_34
*118 FILLER_11_42
*119 FILLER_11_48
*120 FILLER_11_55
*121 FILLER_11_57
*122 FILLER_1_15
*123 FILLER_1_21
*124 FILLER_1_3
*125 FILLER_1_33
*126 FILLER_1_45
*127 FILLER_1_53
*128 FILLER_1_57
*129 FILLER_2_26
*130 FILLER_2_29
*131 FILLER_2_40
*132 FILLER_2_52
*133 FILLER_2_64
*134 FILLER_3_15
*135 FILLER_3_3
*136 FILLER_3_38
*137 FILLER_3_46
*138 FILLER_3_65
*139 FILLER_4_29
*140 FILLER_4_33
*141 FILLER_4_41
*142 FILLER_4_53
*143 FILLER_4_58
*144 FILLER_4_64
*145 FILLER_5_18
*146 FILLER_5_30
*147 FILLER_5_42
*148 FILLER_5_54
*149 FILLER_5_57
*150 FILLER_5_6
*151 FILLER_5_63
*152 FILLER_6_18
*153 FILLER_6_26
*154 FILLER_6_29
*155 FILLER_6_41
*156 FILLER_6_53
*157 FILLER_6_6
*158 FILLER_6_61
*159 FILLER_7_12
*160 FILLER_7_26
*161 FILLER_7_38
*162 FILLER_7_50
*163 FILLER_7_6
*164 FILLER_7_60
*165 FILLER_8_24
*166 FILLER_8_29
*167 FILLER_8_3
*168 FILLER_8_35
*169 FILLER_8_39
*170 FILLER_8_45
*171 FILLER_8_66
*172 FILLER_9_18
*173 FILLER_9_24
*174 FILLER_9_6
*175 FILLER_9_66
*176 PHY_EDGE_ROW_0_Left_12
*177 PHY_EDGE_ROW_0_Right_0
*178 PHY_EDGE_ROW_10_Left_22
*179 PHY_EDGE_ROW_10_Right_10
*180 PHY_EDGE_ROW_11_Left_23
*181 PHY_EDGE_ROW_11_Right_11
*182 PHY_EDGE_ROW_1_Left_13
*183 PHY_EDGE_ROW_1_Right_1
*184 PHY_EDGE_ROW_2_Left_14
*185 PHY_EDGE_ROW_2_Right_2
*186 PHY_EDGE_ROW_3_Left_15
*187 PHY_EDGE_ROW_3_Right_3
*188 PHY_EDGE_ROW_4_Left_16
*189 PHY_EDGE_ROW_4_Right_4
*190 PHY_EDGE_ROW_5_Left_17
*191 PHY_EDGE_ROW_5_Right_5
*192 PHY_EDGE_ROW_6_Left_18
*193 PHY_EDGE_ROW_6_Right_6
*194 PHY_EDGE_ROW_7_Left_19
*195 PHY_EDGE_ROW_7_Right_7
*196 PHY_EDGE_ROW_8_Left_20
*197 PHY_EDGE_ROW_8_Right_8
*198 PHY_EDGE_ROW_9_Left_21
*199 PHY_EDGE_ROW_9_Right_9
*200 TAP_TAPCELL_ROW_0_24
*201 TAP_TAPCELL_ROW_0_25
*202 TAP_TAPCELL_ROW_10_35
*203 TAP_TAPCELL_ROW_11_36
*204 TAP_TAPCELL_ROW_11_37
*205 TAP_TAPCELL_ROW_1_26
*206 TAP_TAPCELL_ROW_2_27
*207 TAP_TAPCELL_ROW_3_28
*208 TAP_TAPCELL_ROW_4_29
*209 TAP_TAPCELL_ROW_5_30
*210 TAP_TAPCELL_ROW_6_31
*211 TAP_TAPCELL_ROW_7_32
*212 TAP_TAPCELL_ROW_8_33
*213 TAP_TAPCELL_ROW_9_34
*214 _39_
*215 _40_
*216 _41_
*217 _42_
*218 _43_
*219 _44_
*220 _45_
*221 _46_
*222 _47_
*223 _48_
*224 _49_
*225 _50_
*226 _51_
*227 _52_
*228 _53_
*229 _54_
*230 _55_
*231 _56_
*232 _57_
*233 _58_
*234 _59_
*235 _60_
*236 _61_
*237 _62_
*238 _63_
*239 _64_
*240 _65_
*241 _66_
*242 _67_
*243 _68_
*244 _69_
*245 _70_
*246 _71_
*247 _72_
*248 _73_
*249 _74_
*250 _75_
*251 _76_
*252 _77_
*253 _78_
*254 _79_
*255 _80_
*256 _81_
*257 _82_
*258 _83_
*259 _84_
*260 _85_
*261 _86_
*262 input1
*263 input10
*264 input11
*265 input12
*266 input13
*267 input14
*268 input15
*269 input16
*270 input17
*271 input2
*272 input3
*273 input4
*274 input5
*275 input6
*276 input7
*277 input8
*278 input9
*279 output18
*280 output19
*281 output20
*282 output21
*283 output22
*284 output23
*285 output24
*286 output25
*287 output26

*PORTS
a[0] I
a[1] I
a[2] I
a[3] I
a[4] I
a[5] I
a[6] I
a[7] I
b[0] I
b[1] I
b[2] I
b[3] I
b[4] I
b[5] I
b[6] I
b[7] I
cin I
cout O
sum[0] O
sum[1] O
sum[2] O
sum[3] O
sum[4] O
sum[5] O
sum[6] O
sum[7] O

*D_NET *3 0.000468019
*CONN
*P a[0] I
*I *262:A I *D sky130_fd_sc_hd__clkbuf_1
*CAP
1 a[0] 0.000200232
2 *262:A 0.000200232
3 *262:A *278:A 6.75554e-05
*RES
1 a[0] *262:A 5.5535 
*END

*D_NET *4 0.000889753
*CONN
*P a[1] I
*I *271:A I *D sky130_fd_sc_hd__clkbuf_1
*CAP
1 a[1] 0.000441961
2 *271:A 0.000441961
3 *271:A *263:A 0
4 *271:A *79:14 5.83121e-06
*RES
1 a[1] *271:A 11.25 
*END

*D_NET *5 0.000502057
*CONN
*P a[2] I
*I *272:A I *D sky130_fd_sc_hd__buf_1
*CAP
1 a[2] 0.00022553
2 *272:A 0.00022553
3 *272:A *264:A 2.85068e-05
4 *272:A *266:A 0
5 *272:A *274:A 2.24901e-05
*RES
1 a[2] *272:A 5.35677 
*END

*D_NET *6 0.000572527
*CONN
*P a[3] I
*I *273:A I *D sky130_fd_sc_hd__clkbuf_1
*CAP
1 a[3] 0.000272764
2 *273:A 0.000272764
3 *273:A *265:A 2.69997e-05
*RES
1 a[3] *273:A 7.0893 
*END

*D_NET *7 0.000535548
*CONN
*P a[4] I
*I *274:A I *D sky130_fd_sc_hd__clkbuf_1
*CAP
1 a[4] 0.000242276
2 *274:A 0.000242276
3 *274:A *266:A 2.85068e-05
4 *272:A *274:A 2.24901e-05
*RES
1 a[4] *274:A 6.8343 
*END

*D_NET *8 0.00078218
*CONN
*P a[5] I
*I *275:A I *D sky130_fd_sc_hd__clkbuf_1
*CAP
1 a[5] 0.00039109
2 *275:A 0.00039109
3 *275:A *267:A 0
*RES
1 a[5] *275:A 10.35 
*END

*D_NET *9 0.000771091
*CONN
*P a[6] I
*I *276:A I *D sky130_fd_sc_hd__clkbuf_1
*CAP
1 a[6] 0.000385545
2 *276:A 0.000385545
3 *276:A sum[5] 0
4 *276:A *268:A 0
5 *276:A *285:A 0
*RES
1 a[6] *276:A 10.455 
*END

*D_NET *10 0.000564463
*CONN
*P a[7] I
*I *277:A I *D sky130_fd_sc_hd__clkbuf_1
*CAP
1 a[7] 0.00020473
2 *277:A 0.00020473
3 *277:A sum[1] 7.51497e-05
4 *277:A sum[7] 0
5 *277:A *269:A 7.98535e-05
*RES
1 a[7] *277:A 5.2183 
*END

*D_NET *11 0.00037104
*CONN
*P b[0] I
*I *278:A I *D sky130_fd_sc_hd__clkbuf_1
*CAP
1 b[0] 0.000113909
2 *278:A 0.000113909
3 *278:A *270:A 7.56675e-05
4 *278:A *68:12 0
5 *262:A *278:A 6.75554e-05
*RES
1 b[0] *278:A 4.7885 
*END

*D_NET *12 0.000791351
*CONN
*P b[1] I
*I *263:A I *D sky130_fd_sc_hd__clkbuf_1
*CAP
1 b[1] 0.000392171
2 *263:A 0.000392171
3 *263:A sum[2] 0
4 *263:A *282:A 0
5 *263:A *79:14 7.00889e-06
6 *271:A *263:A 0
*RES
1 b[1] *263:A 10.35 
*END

*D_NET *13 0.000623243
*CONN
*P b[2] I
*I *264:A I *D sky130_fd_sc_hd__buf_1
*CAP
1 b[2] 0.00028255
2 *264:A 0.00028255
3 *264:A *265:A 2.96366e-05
4 *272:A *264:A 2.85068e-05
*RES
1 b[2] *264:A 7.5993 
*END

*D_NET *14 0.000651011
*CONN
*P b[3] I
*I *265:A I *D sky130_fd_sc_hd__clkbuf_1
*CAP
1 b[3] 0.000297187
2 *265:A 0.000297187
3 *265:A *71:8 0
4 *264:A *265:A 2.96366e-05
5 *273:A *265:A 2.69997e-05
*RES
1 b[3] *265:A 7.8543 
*END

*D_NET *15 0.000638842
*CONN
*P b[4] I
*I *266:A I *D sky130_fd_sc_hd__clkbuf_1
*CAP
1 b[4] 0.000293923
2 *266:A 0.000293923
3 *266:A sum[4] 2.24901e-05
4 *266:A *242:A 0
5 *266:A *284:A 0
6 *272:A *266:A 0
7 *274:A *266:A 2.85068e-05
*RES
1 b[4] *266:A 6.63177 
*END

*D_NET *16 0.000791765
*CONN
*P b[5] I
*I *267:A I *D sky130_fd_sc_hd__clkbuf_1
*CAP
1 b[5] 0.000380863
2 *267:A 0.000380863
3 *267:A sum[5] 0
4 *267:A *73:10 3.00381e-05
5 *275:A *267:A 0
*RES
1 b[5] *267:A 10.35 
*END

*D_NET *17 0.000781329
*CONN
*P b[6] I
*I *268:A I *D sky130_fd_sc_hd__clkbuf_1
*CAP
1 b[6] 0.000390665
2 *268:A 0.000390665
3 *276:A *268:A 0
*RES
1 b[6] *268:A 10.35 
*END

*D_NET *18 0.000631048
*CONN
*P b[7] I
*I *269:A I *D sky130_fd_sc_hd__clkbuf_1
*CAP
1 b[7] 0.000238992
2 *269:A 0.000238992
3 *269:A sum[7] 7.32103e-05
4 *269:A *261:A1 0
5 *277:A *269:A 7.98535e-05
*RES
1 b[7] *269:A 6.8285 
*END

*D_NET *19 0.000570464
*CONN
*P cin I
*I *270:A I *D sky130_fd_sc_hd__buf_1
*CAP
1 cin 0.000180718
2 *270:A 0.000180718
3 *270:A sum[0] 7.32103e-05
4 *270:A *280:A 0
5 *270:A *76:12 6.01508e-05
6 *278:A *270:A 7.56675e-05
*RES
1 cin *270:A 6.3185 
*END

*D_NET *20 0.000551521
*CONN
*P cout O
*I *279:X O *D sky130_fd_sc_hd__buf_2
*CAP
1 cout 0.000238186
2 *279:X 0.000238186
3 cout sum[6] 7.51497e-05
*RES
1 *279:X cout 5.86677 
*END

*D_NET *21 0.000505749
*CONN
*P sum[0] O
*I *280:X O *D sky130_fd_sc_hd__buf_2
*CAP
1 sum[0] 0.000158194
2 *280:X 0.000158194
3 sum[0] sum[1] 8.28789e-05
4 sum[0] *281:A 3.32709e-05
5 *270:A sum[0] 7.32103e-05
*RES
1 *280:X sum[0] 5.35677 
*END

*D_NET *22 0.00042759
*CONN
*P sum[1] O
*I *281:X O *D sky130_fd_sc_hd__buf_2
*CAP
1 sum[1] 0.000128925
2 *281:X 0.000128925
3 sum[1] *281:A 1.17114e-05
4 sum[0] sum[1] 8.28789e-05
5 *277:A sum[1] 7.51497e-05
*RES
1 *281:X sum[1] 4.84677 
*END

*D_NET *23 0.000812338
*CONN
*P sum[2] O
*I *282:X O *D sky130_fd_sc_hd__buf_2
*CAP
1 sum[2] 0.000406169
2 *282:X 0.000406169
3 sum[2] sum[3] 0
4 *263:A sum[2] 0
*RES
1 *282:X sum[2] 11.865 
*END

*D_NET *24 0.000876668
*CONN
*P sum[3] O
*I *283:X O *D sky130_fd_sc_hd__buf_2
*CAP
1 sum[3] 0.000438334
2 *283:X 0.000438334
3 sum[2] sum[3] 0
*RES
1 *283:X sum[3] 10.53 
*END

*D_NET *25 0.000657357
*CONN
*P sum[4] O
*I *284:X O *D sky130_fd_sc_hd__buf_2
*CAP
1 sum[4] 0.000317434
2 *284:X 0.000317434
3 *266:A sum[4] 2.24901e-05
*RES
1 *284:X sum[4] 7.1793 
*END

*D_NET *26 0.000877828
*CONN
*P sum[5] O
*I *285:X O *D sky130_fd_sc_hd__buf_2
*CAP
1 sum[5] 0.000438914
2 *285:X 0.000438914
3 *267:A sum[5] 0
4 *276:A sum[5] 0
*RES
1 *285:X sum[5] 10.53 
*END

*D_NET *27 0.000696922
*CONN
*P sum[6] O
*I *286:X O *D sky130_fd_sc_hd__buf_2
*CAP
1 sum[6] 0.000248357
2 *286:X 0.000248357
3 sum[6] sum[7] 8.53361e-05
4 sum[6] *279:A 3.97211e-05
5 sum[6] *286:A 0
6 cout sum[6] 7.51497e-05
*RES
1 *286:X sum[6] 5.72657 
*END

*D_NET *28 0.000491186
*CONN
*P sum[7] O
*I *287:X O *D sky130_fd_sc_hd__buf_2
*CAP
1 sum[7] 0.000149684
2 *287:X 0.000149684
3 sum[7] *279:A 3.32709e-05
4 sum[6] sum[7] 8.53361e-05
5 *269:A sum[7] 7.32103e-05
6 *277:A sum[7] 0
*RES
1 *287:X sum[7] 5.35677 
*END

*D_NET *29 0.000186884
*CONN
*I *217:A I *D sky130_fd_sc_hd__nor2_1
*I *214:Y O *D sky130_fd_sc_hd__nor2_1
*CAP
1 *217:A 6.57535e-05
2 *214:Y 6.57535e-05
3 *217:A *214:B 5.53774e-05
4 *217:A *230:A 0
*RES
1 *214:Y *217:A 4.355 
*END

*D_NET *30 0.00155478
*CONN
*I *245:A1 I *D sky130_fd_sc_hd__a211o_1
*I *247:B1 I *D sky130_fd_sc_hd__o31ai_2
*I *215:X O *D sky130_fd_sc_hd__or2_1
*CAP
1 *245:A1 0.000281888
2 *247:B1 0
3 *215:X 0.000165359
4 *30:14 0.000447248
5 *245:A1 *218:B 0.00012574
6 *245:A1 *245:B1 1.85674e-05
7 *245:A1 *245:C1 6.2939e-05
8 *245:A1 *246:B1 7.23533e-05
9 *245:A1 *33:10 0.000137924
10 *245:A1 *34:14 3.25722e-05
11 *30:14 *217:B 0
12 *30:14 *218:B 8.65961e-05
13 *30:14 *229:B1_N 4.43871e-06
14 *30:14 *230:B 1.83847e-05
15 *30:14 *245:C1 4.35348e-05
16 *30:14 *247:A3 5.02217e-05
17 *30:14 *31:19 7.00889e-06
18 *30:14 *34:14 0
*RES
1 *215:X *30:14 8.825 
2 *30:14 *247:B1 1.6 
3 *30:14 *245:A1 10.865 
*END

*D_NET *31 0.0022662
*CONN
*I *245:C1 I *D sky130_fd_sc_hd__a211o_1
*I *247:A3 I *D sky130_fd_sc_hd__o31ai_2
*I *217:B I *D sky130_fd_sc_hd__nor2_1
*I *216:X O *D sky130_fd_sc_hd__and2_1
*CAP
1 *245:C1 0.000385454
2 *247:A3 7.12794e-05
3 *217:B 0.000180981
4 *216:X 5.74818e-05
5 *31:19 0.000550752
6 *31:6 0.000332481
7 *217:B *214:A 0
8 *217:B *220:A 0
9 *217:B *229:B1_N 0
10 *217:B *230:B 0
11 *217:B *71:8 0
12 *217:B *88:21 0
13 *245:C1 *227:A 3.26889e-05
14 *245:C1 *229:A2 5.35124e-05
15 *245:C1 *245:B1 3.95724e-05
16 *245:C1 *33:18 1.35621e-05
17 *245:C1 *43:6 0.000260721
18 *247:A3 *34:14 0
19 *247:A3 *71:8 0
20 *247:A3 *87:10 0
21 *31:6 *215:A 8.65905e-05
22 *31:19 *215:A 3.74161e-05
23 *245:A1 *245:C1 6.2939e-05
24 *30:14 *217:B 0
25 *30:14 *245:C1 4.35348e-05
26 *30:14 *247:A3 5.02217e-05
27 *30:14 *31:19 7.00889e-06
*RES
1 *216:X *31:6 2.395 
2 *31:6 *217:B 8.51 
3 *31:6 *31:19 1.14 
4 *31:19 *247:A3 6.98 
5 *31:19 *245:C1 8.77 
*END

*D_NET *32 0.000255549
*CONN
*I *230:A I *D sky130_fd_sc_hd__xnor2_1
*I *217:Y O *D sky130_fd_sc_hd__nor2_1
*CAP
1 *230:A 0.000127775
2 *217:Y 0.000127775
3 *217:A *230:A 0
*RES
1 *217:Y *230:A 5.045 
*END

*D_NET *33 0.00188453
*CONN
*I *245:A2 I *D sky130_fd_sc_hd__a211o_1
*I *229:B1_N I *D sky130_fd_sc_hd__o21ba_1
*I *220:A I *D sky130_fd_sc_hd__nor2_1
*I *218:X O *D sky130_fd_sc_hd__and2_1
*CAP
1 *245:A2 0
2 *229:B1_N 4.5928e-05
3 *220:A 0.000165136
4 *218:X 0.00015908
5 *33:18 0.000492293
6 *33:10 0.00044031
7 *220:A *220:B 0
8 *220:A *230:B 4.70256e-05
9 *220:A *231:A 0.000117825
10 *220:A *231:B 0
11 *229:B1_N *220:B 0
12 *229:B1_N *231:B 0
13 *33:10 *246:A1 5.83121e-06
14 *33:10 *246:B1 1.26626e-05
15 *33:10 *34:14 1.90242e-05
16 *33:10 *36:12 0
17 *33:10 *40:21 0
18 *33:10 *57:12 1.47347e-05
19 *33:18 *220:B 2.96553e-05
20 *33:18 *229:A2 1.5957e-05
21 *33:18 *34:14 4.18603e-06
22 *33:18 *36:12 0
23 *33:18 *43:6 0.00015896
24 *217:B *220:A 0
25 *217:B *229:B1_N 0
26 *245:A1 *33:10 0.000137924
27 *245:C1 *33:18 1.35621e-05
28 *30:14 *229:B1_N 4.43871e-06
*RES
1 *218:X *33:10 6.63 
2 *33:10 *33:18 7.735 
3 *33:18 *220:A 7.02 
4 *33:18 *229:B1_N 4.47 
5 *33:10 *245:A2 3.6 
*END

*D_NET *34 0.00236126
*CONN
*I *229:A1 I *D sky130_fd_sc_hd__o21ba_1
*I *220:B I *D sky130_fd_sc_hd__nor2_1
*I *219:Y O *D sky130_fd_sc_hd__nor2_1
*CAP
1 *229:A1 0
2 *220:B 0.000281648
3 *219:Y 0.000467599
4 *34:14 0.000749248
5 *220:B *231:A 0
6 *220:B *231:B 0.000139231
7 *220:B *283:A 0.000116853
8 *220:B *36:12 0
9 *34:14 *218:A 0.00024195
10 *34:14 *218:B 4.63251e-05
11 *34:14 *246:B1 9.47454e-05
12 *34:14 *57:12 0.000124895
13 *34:14 *58:10 0
14 *34:14 *70:18 1.33293e-05
15 *220:A *220:B 0
16 *229:B1_N *220:B 0
17 *245:A1 *34:14 3.25722e-05
18 *247:A3 *34:14 0
19 *30:14 *34:14 0
20 *33:10 *34:14 1.90242e-05
21 *33:18 *220:B 2.96553e-05
22 *33:18 *34:14 4.18603e-06
*RES
1 *219:Y *34:14 11.745 
2 *34:14 *220:B 8.925 
3 *34:14 *229:A1 3.6 
*END

*D_NET *35 0.000367695
*CONN
*I *231:A I *D sky130_fd_sc_hd__xnor2_1
*I *220:Y O *D sky130_fd_sc_hd__nor2_1
*CAP
1 *231:A 9.96588e-05
2 *220:Y 9.96588e-05
3 *231:A *283:A 5.05521e-05
4 *220:A *231:A 0.000117825
5 *220:B *231:A 0
*RES
1 *220:Y *231:A 9.375 
*END

*D_NET *36 0.000887678
*CONN
*I *245:B1 I *D sky130_fd_sc_hd__a211o_1
*I *228:B1 I *D sky130_fd_sc_hd__a21oi_1
*I *227:A I *D sky130_fd_sc_hd__nor2_1
*I *221:X O *D sky130_fd_sc_hd__and2_1
*CAP
1 *245:B1 5.51932e-05
2 *228:B1 0
3 *227:A 9.85864e-05
4 *221:X 0.00016184
5 *36:12 0.00031562
6 *227:A *228:A2 4.18424e-05
7 *227:A *40:10 4.78613e-05
8 *227:A *43:6 1.08758e-05
9 *245:B1 *228:A2 1.37328e-05
10 *245:B1 *43:6 9.80032e-06
11 *36:12 *227:B 0
12 *36:12 *282:A 9.60582e-07
13 *36:12 *40:10 4.05358e-05
14 *220:B *36:12 0
15 *245:A1 *245:B1 1.85674e-05
16 *245:C1 *227:A 3.26889e-05
17 *245:C1 *245:B1 3.95724e-05
18 *33:10 *36:12 0
19 *33:18 *36:12 0
*RES
1 *221:X *36:12 7.685 
2 *36:12 *227:A 3.805 
3 *36:12 *228:B1 1.6 
4 *36:12 *245:B1 3.115 
*END

*D_NET *37 0.0013092
*CONN
*I *225:B1_N I *D sky130_fd_sc_hd__a21bo_1
*I *224:A I *D sky130_fd_sc_hd__nand2_1
*I *222:Y O *D sky130_fd_sc_hd__nand2_1
*CAP
1 *225:B1_N 6.41456e-05
2 *224:A 0.000241717
3 *222:Y 0.000124398
4 *37:10 0.000430261
5 *224:A *224:B 0.000116158
6 *224:A *233:A 0.000118294
7 *224:A *233:B 2.66935e-05
8 *224:A *76:12 5.05437e-05
9 *225:B1_N *76:12 4.08514e-05
10 *37:10 *224:B 0
11 *37:10 *280:A 9.61414e-05
12 *37:10 *38:8 0
*RES
1 *222:Y *37:10 7.745 
2 *37:10 *224:A 9.5 
3 *37:10 *225:B1_N 2.395 
*END

*D_NET *38 0.00088464
*CONN
*I *224:B I *D sky130_fd_sc_hd__nand2_1
*I *225:A2 I *D sky130_fd_sc_hd__a21bo_1
*I *223:X O *D sky130_fd_sc_hd__or2_1
*CAP
1 *224:B 0.000134929
2 *225:A2 1.86282e-05
3 *223:X 9.65907e-05
4 *38:8 0.000250148
5 *224:B *233:B 0
6 *224:B *280:A 0
7 *224:B *281:A 1.83847e-05
8 *225:A2 *233:A 0.0001249
9 *225:A2 *280:A 0.0001249
10 *38:8 *233:B 0
11 *224:A *224:B 0.000116158
12 *37:10 *224:B 0
13 *37:10 *38:8 0
*RES
1 *223:X *38:8 4.98 
2 *38:8 *225:A2 4.74 
3 *38:8 *224:B 6.195 
*END

*D_NET *39 0.000439537
*CONN
*I *233:B I *D sky130_fd_sc_hd__xnor2_1
*I *224:Y O *D sky130_fd_sc_hd__nand2_1
*CAP
1 *233:B 0.000199299
2 *224:Y 0.000199299
3 *233:B *281:A 1.42449e-05
4 *224:A *233:B 2.66935e-05
5 *224:B *233:B 0
6 *38:8 *233:B 0
*RES
1 *224:Y *233:B 9.975 
*END

*D_NET *40 0.00282402
*CONN
*I *232:A I *D sky130_fd_sc_hd__xor2_1
*I *246:A1 I *D sky130_fd_sc_hd__a21oi_1
*I *228:A1 I *D sky130_fd_sc_hd__a21oi_1
*I *225:X O *D sky130_fd_sc_hd__a21bo_1
*CAP
1 *232:A 7.90796e-05
2 *246:A1 0.000213707
3 *228:A1 0
4 *225:X 0.000765094
5 *40:21 0.000426301
6 *40:10 0.000898609
7 *232:A *246:A2 7.08554e-05
8 *246:A1 *246:A2 9.46955e-05
9 *40:10 *227:B 1.75688e-05
10 *40:10 *228:A2 1.07285e-05
11 *40:10 *233:A 6.47326e-05
12 *40:10 *280:A 8.57024e-05
13 *40:10 *42:23 2.71912e-06
14 *227:A *40:10 4.78613e-05
15 *33:10 *246:A1 5.83121e-06
16 *33:10 *40:21 0
17 *36:12 *40:10 4.05358e-05
*RES
1 *225:X *40:10 12.855 
2 *40:10 *228:A1 3.6 
3 *40:10 *40:21 3.635 
4 *40:21 *246:A1 4.48 
5 *40:21 *232:A 3.1 
*END

*D_NET *41 0.000396534
*CONN
*I *227:B I *D sky130_fd_sc_hd__nor2_1
*I *226:Y O *D sky130_fd_sc_hd__nor2_1
*CAP
1 *227:B 0.00017145
2 *226:Y 0.00017145
3 *227:B *221:A 2.937e-05
4 *227:B *42:23 6.69608e-06
5 *36:12 *227:B 0
6 *40:10 *227:B 1.75688e-05
*RES
1 *226:Y *227:B 9.735 
*END

*D_NET *42 0.00110775
*CONN
*I *232:B I *D sky130_fd_sc_hd__xor2_1
*I *246:A2 I *D sky130_fd_sc_hd__a21oi_1
*I *228:A2 I *D sky130_fd_sc_hd__a21oi_1
*I *227:Y O *D sky130_fd_sc_hd__nor2_1
*CAP
1 *232:B 0
2 *246:A2 0.000199547
3 *228:A2 7.11115e-05
4 *227:Y 0
5 *42:23 0.000362126
6 *42:4 0.000233691
7 *246:A2 *218:B 0
8 *227:A *228:A2 4.18424e-05
9 *227:B *42:23 6.69608e-06
10 *232:A *246:A2 7.08554e-05
11 *245:B1 *228:A2 1.37328e-05
12 *246:A1 *246:A2 9.46955e-05
13 *40:10 *228:A2 1.07285e-05
14 *40:10 *42:23 2.71912e-06
*RES
1 *227:Y *42:4 1.6 
2 *42:4 *228:A2 3.115 
3 *42:4 *42:23 6.085 
4 *42:23 *246:A2 5.515 
5 *42:23 *232:B 1.6 
*END

*D_NET *43 0.00114051
*CONN
*I *229:A2 I *D sky130_fd_sc_hd__o21ba_1
*I *231:B I *D sky130_fd_sc_hd__xnor2_1
*I *228:Y O *D sky130_fd_sc_hd__a21oi_1
*CAP
1 *229:A2 4.00507e-05
2 *231:B 7.70316e-05
3 *228:Y 0.000128643
4 *43:6 0.000245725
5 *220:A *231:B 0
6 *220:B *231:B 0.000139231
7 *227:A *43:6 1.08758e-05
8 *229:B1_N *231:B 0
9 *245:B1 *43:6 9.80032e-06
10 *245:C1 *229:A2 5.35124e-05
11 *245:C1 *43:6 0.000260721
12 *33:18 *229:A2 1.5957e-05
13 *33:18 *43:6 0.00015896
*RES
1 *228:Y *43:6 4.81 
2 *43:6 *231:B 7.235 
3 *43:6 *229:A2 2.69125 
*END

*D_NET *44 0.000272764
*CONN
*I *230:B I *D sky130_fd_sc_hd__xnor2_1
*I *229:X O *D sky130_fd_sc_hd__o21ba_1
*CAP
1 *230:B 0.000103677
2 *229:X 0.000103677
3 *217:B *230:B 0
4 *220:A *230:B 4.70256e-05
5 *30:14 *230:B 1.83847e-05
*RES
1 *229:X *230:B 9.03 
*END

*D_NET *45 0.000604454
*CONN
*I *261:A1 I *D sky130_fd_sc_hd__o221a_1
*I *234:X O *D sky130_fd_sc_hd__and2_1
*CAP
1 *261:A1 0.000152916
2 *234:X 0.000152916
3 *261:A1 *234:B 8.57024e-05
4 *261:A1 *46:10 0.000185405
5 *261:A1 *47:10 2.75145e-05
6 *269:A *261:A1 0
*RES
1 *234:X *261:A1 10.59 
*END

*D_NET *46 0.0025768
*CONN
*I *237:A I *D sky130_fd_sc_hd__nand2_1
*I *260:A I *D sky130_fd_sc_hd__nand2_1
*I *235:Y O *D sky130_fd_sc_hd__nand2_1
*CAP
1 *237:A 0.000425388
2 *260:A 0
3 *235:Y 0.000343883
4 *46:10 0.000769271
5 *237:A *237:B 0.000342784
6 *237:A *253:A 9.82856e-06
7 *237:A *254:A 0
8 *237:A *260:B 2.86265e-06
9 *237:A *279:A 2.96553e-05
10 *237:A *287:A 7.35729e-05
11 *237:A *74:8 0
12 *237:A *91:8 7.4027e-05
13 *46:10 *235:A 1.61831e-05
14 *46:10 *235:B 5.30673e-05
15 *46:10 *237:B 0
16 *46:10 *261:B2 0.000117832
17 *46:10 *279:A 4.91189e-05
18 *46:10 *286:A 0
19 *46:10 *47:10 0
20 *46:10 *75:23 1.1561e-05
21 *46:10 *92:23 7.23602e-05
22 *261:A1 *46:10 0.000185405
*RES
1 *235:Y *46:10 10.2 
2 *46:10 *260:A 3.6 
3 *46:10 *237:A 13.93 
*END

*D_NET *47 0.00193251
*CONN
*I *237:B I *D sky130_fd_sc_hd__nand2_1
*I *261:C1 I *D sky130_fd_sc_hd__o221a_1
*I *236:X O *D sky130_fd_sc_hd__or2_1
*CAP
1 *237:B 0.000265829
2 *261:C1 0
3 *236:X 0.000188736
4 *47:10 0.000454566
5 *237:B *251:A 5.12969e-06
6 *237:B *253:A 0.000147333
7 *237:B *253:B 0.000220151
8 *237:B *254:A 2.75145e-05
9 *237:B *254:B 4.00541e-06
10 *237:B *260:B 3.01779e-05
11 *237:B *261:B2 4.40812e-05
12 *237:B *286:A 1.07797e-05
13 *237:B *50:34 1.47256e-05
14 *47:10 *234:A 1.33293e-05
15 *47:10 *234:B 3.23663e-05
16 *47:10 *253:B 5.16418e-05
17 *47:10 *261:B2 4.18603e-06
18 *47:10 *286:A 4.76581e-05
19 *237:A *237:B 0.000342784
20 *261:A1 *47:10 2.75145e-05
21 *46:10 *237:B 0
22 *46:10 *47:10 0
*RES
1 *236:X *47:10 6.72 
2 *47:10 *261:C1 3.6 
3 *47:10 *237:B 10.515 
*END

*D_NET *48 0.000626178
*CONN
*I *253:A I *D sky130_fd_sc_hd__xnor2_1
*I *237:Y O *D sky130_fd_sc_hd__nand2_1
*CAP
1 *253:A 0.000176441
2 *237:Y 0.000176441
3 *253:A *253:B 0
4 *253:A *254:B 0
5 *253:A *257:A 3.0157e-06
6 *253:A *260:B 4.20097e-05
7 *253:A *287:A 0
8 *253:A *50:34 5.05521e-05
9 *253:A *74:8 2.05571e-05
10 *237:A *253:A 9.82856e-06
11 *237:B *253:A 0.000147333
*RES
1 *237:Y *253:A 10.905 
*END

*D_NET *49 0.00186424
*CONN
*I *261:A2 I *D sky130_fd_sc_hd__o221a_1
*I *254:A I *D sky130_fd_sc_hd__nand2_1
*I *252:B1 I *D sky130_fd_sc_hd__o211a_1
*I *238:X O *D sky130_fd_sc_hd__or2_1
*CAP
1 *261:A2 0.000161447
2 *254:A 6.69295e-05
3 *252:B1 0.000365709
4 *238:X 0
5 *49:10 0.000543975
6 *49:4 0.000272784
7 *252:B1 *239:A 1.00941e-05
8 *252:B1 *252:A1 4.66108e-05
9 *252:B1 *252:C1 4.1652e-06
10 *252:B1 *253:B 2.47094e-05
11 *252:B1 *50:23 1.7635e-05
12 *252:B1 *66:6 1.77595e-05
13 *252:B1 *74:8 1.08723e-05
14 *254:A *257:A 3.84221e-05
15 *254:A *260:B 2.75145e-05
16 *254:A *74:8 6.10014e-05
17 *254:A *91:8 0
18 *261:A2 *261:B1 9.4287e-05
19 *49:10 *238:A 4.82863e-05
20 *49:10 *238:B 0
21 *49:10 *261:B1 2.4526e-05
22 *237:A *254:A 0
23 *237:B *254:A 2.75145e-05
*RES
1 *238:X *49:4 1.6 
2 *49:4 *49:10 3.5 
3 *49:10 *252:B1 6.27413 
4 *49:10 *254:A 5.43 
5 *49:4 *261:A2 4.135 
*END

*D_NET *50 0.00226765
*CONN
*I *254:B I *D sky130_fd_sc_hd__nand2_1
*I *260:B I *D sky130_fd_sc_hd__nand2_1
*I *251:A I *D sky130_fd_sc_hd__nand2_1
*I *241:B I *D sky130_fd_sc_hd__nand2b_1
*I *239:Y O *D sky130_fd_sc_hd__nand2_1
*CAP
1 *254:B 1.39137e-05
2 *260:B 0.000355762
3 *251:A 3.63829e-05
4 *241:B 0.000130174
5 *239:Y 6.80366e-05
6 *50:34 0.000446395
7 *50:23 0.000255464
8 *50:8 0.000340572
9 *241:B *239:B 3.93893e-05
10 *241:B *241:A_N 0
11 *241:B *252:C1 3.60024e-06
12 *251:A *252:A2 4.76682e-05
13 *260:B *253:B 1.56428e-05
14 *260:B *287:A 2.11084e-05
15 *50:8 *239:B 1.83756e-05
16 *50:23 *239:B 4.11593e-05
17 *50:23 *252:A2 0.000153017
18 *50:23 *252:C1 4.05289e-05
19 *50:23 *285:A 0
20 *50:23 *91:8 1.01155e-05
21 *50:34 *252:A2 3.57349e-05
22 *237:A *260:B 2.86265e-06
23 *237:B *251:A 5.12969e-06
24 *237:B *254:B 4.00541e-06
25 *237:B *260:B 3.01779e-05
26 *237:B *50:34 1.47256e-05
27 *252:B1 *50:23 1.7635e-05
28 *253:A *254:B 0
29 *253:A *260:B 4.20097e-05
30 *253:A *50:34 5.05521e-05
31 *254:A *260:B 2.75145e-05
*RES
1 *239:Y *50:8 4.395 
2 *50:8 *241:B 5.7225 
3 *50:8 *50:23 5.165 
4 *50:23 *251:A 2.41 
5 *50:23 *50:34 1.485 
6 *50:34 *260:B 6.13 
7 *50:34 *254:B 1.96 
*END

*D_NET *51 0.00139588
*CONN
*I *256:A1 I *D sky130_fd_sc_hd__a21bo_1
*I *255:A I *D sky130_fd_sc_hd__nand2_1
*I *241:A_N I *D sky130_fd_sc_hd__nand2b_1
*I *240:X O *D sky130_fd_sc_hd__or2_1
*CAP
1 *256:A1 1.84282e-05
2 *255:A 0.000115045
3 *241:A_N 0.000106468
4 *240:X 0.000135408
5 *51:23 0.000235043
6 *51:8 0.000343446
7 *241:A_N *60:12 0
8 *255:A *258:B 4.19967e-05
9 *255:A *285:A 4.21518e-05
10 *255:A *60:23 0.00016031
11 *255:A *61:6 4.77757e-05
12 *255:A *61:19 0.000106558
13 *255:A *73:10 0
14 *256:A1 *285:A 5.83121e-06
15 *256:A1 *60:23 3.74161e-05
16 *51:23 *252:C1 0
17 *51:23 *258:B 0
18 *51:23 *60:12 0
19 *241:B *241:A_N 0
*RES
1 *240:X *51:8 5.085 
2 *51:8 *241:A_N 5.265 
3 *51:8 *51:23 3.635 
4 *51:23 *255:A 8.975 
5 *51:23 *256:A1 2.05 
*END

*D_NET *52 0.00032886
*CONN
*I *252:C1 I *D sky130_fd_sc_hd__o211a_1
*I *241:Y O *D sky130_fd_sc_hd__nand2b_1
*CAP
1 *252:C1 0.000107512
2 *241:Y 0.000107512
3 *252:C1 *252:A1 4.77757e-05
4 *252:C1 *66:6 1.77665e-05
5 *241:B *252:C1 3.60024e-06
6 *252:B1 *252:C1 4.1652e-06
7 *50:23 *252:C1 4.05289e-05
8 *51:23 *252:C1 0
*RES
1 *241:Y *252:C1 9.285 
*END

*D_NET *53 0.0016211
*CONN
*I *244:A I *D sky130_fd_sc_hd__nand2_1
*I *249:B1 I *D sky130_fd_sc_hd__o31ai_2
*I *242:Y O *D sky130_fd_sc_hd__nand2_1
*CAP
1 *244:A 0
2 *249:B1 0.000154269
3 *242:Y 0.000409584
4 *53:12 0.000563852
5 *249:B1 *240:A 0
6 *249:B1 *240:B 5.53249e-06
7 *249:B1 *249:A1 0
8 *249:B1 *259:B 0
9 *249:B1 *60:12 4.99619e-05
10 *53:12 *243:A 4.82919e-05
11 *53:12 *243:B 0.000268296
12 *53:12 *244:B 4.99619e-05
13 *53:12 *259:A 9.27255e-06
14 *53:12 *55:6 6.20787e-05
*RES
1 *242:Y *53:12 8.305 
2 *53:12 *249:B1 8.03 
3 *53:12 *244:A 1.6 
*END

*D_NET *54 0.000111545
*CONN
*I *244:B I *D sky130_fd_sc_hd__nand2_1
*I *243:X O *D sky130_fd_sc_hd__or2_1
*CAP
1 *244:B 5.81042e-06
2 *243:X 5.81042e-06
3 *244:B *55:6 4.99619e-05
4 *53:12 *244:B 4.99619e-05
*RES
1 *243:X *244:B 3.65 
*END

*D_NET *55 0.000873632
*CONN
*I *249:A1 I *D sky130_fd_sc_hd__o31ai_2
*I *259:A I *D sky130_fd_sc_hd__xnor2_1
*I *244:Y O *D sky130_fd_sc_hd__nand2_1
*CAP
1 *249:A1 0.000100625
2 *259:A 0.000106226
3 *244:Y 8.83715e-05
4 *55:6 0.000295222
5 *249:A1 *259:B 2.87867e-05
6 *249:A1 *57:12 4.18603e-06
7 *249:A1 *58:10 2.97004e-06
8 *259:A *243:A 1.16578e-05
9 *259:A *243:B 6.43121e-05
10 *55:6 *243:A 4.99619e-05
11 *244:B *55:6 4.99619e-05
12 *249:B1 *249:A1 0
13 *53:12 *259:A 9.27255e-06
14 *53:12 *55:6 6.20787e-05
*RES
1 *244:Y *55:6 3.43 
2 *55:6 *259:A 3.445 
3 *55:6 *249:A1 7.34 
*END

*D_NET *56 0.000238002
*CONN
*I *246:B1 I *D sky130_fd_sc_hd__a21oi_1
*I *245:X O *D sky130_fd_sc_hd__a211o_1
*CAP
1 *246:B1 2.91205e-05
2 *245:X 2.91205e-05
3 *245:A1 *246:B1 7.23533e-05
4 *33:10 *246:B1 1.26626e-05
5 *34:14 *246:B1 9.47454e-05
*RES
1 *245:X *246:B1 8.325 
*END

*D_NET *57 0.00146586
*CONN
*I *248:A I *D sky130_fd_sc_hd__nor2_1
*I *249:A2 I *D sky130_fd_sc_hd__o31ai_2
*I *246:Y O *D sky130_fd_sc_hd__a21oi_1
*CAP
1 *248:A 0.000126268
2 *249:A2 0
3 *246:Y 0.000465405
4 *57:12 0.000591674
5 *248:A *249:A3 0.0001387
6 *57:12 *58:10 0
7 *57:12 *60:12 0
8 *249:A1 *57:12 4.18603e-06
9 *33:10 *57:12 1.47347e-05
10 *34:14 *57:12 0.000124895
*RES
1 *246:Y *57:12 12.8 
2 *57:12 *249:A2 1.6 
3 *57:12 *248:A 4.15 
*END

*D_NET *58 0.00129891
*CONN
*I *249:A3 I *D sky130_fd_sc_hd__o31ai_2
*I *248:B I *D sky130_fd_sc_hd__nor2_1
*I *247:Y O *D sky130_fd_sc_hd__o31ai_2
*CAP
1 *249:A3 0.000162504
2 *248:B 3.02694e-05
3 *247:Y 0.000385845
4 *58:10 0.000578618
5 *58:10 *87:10 0
6 *248:A *249:A3 0.0001387
7 *249:A1 *58:10 2.97004e-06
8 *34:14 *58:10 0
9 *57:12 *58:10 0
*RES
1 *247:Y *58:10 11.57 
2 *58:10 *248:B 2.05 
3 *58:10 *249:A3 4.84 
*END

*D_NET *59 0.00024253
*CONN
*I *259:B I *D sky130_fd_sc_hd__xnor2_1
*I *248:Y O *D sky130_fd_sc_hd__nor2_1
*CAP
1 *259:B 9.96957e-05
2 *248:Y 9.96957e-05
3 *259:B *242:A 0
4 *259:B *243:A 1.43521e-05
5 *259:B *89:12 0
6 *249:A1 *259:B 2.87867e-05
7 *249:B1 *259:B 0
*RES
1 *248:Y *259:B 8.835 
*END

*D_NET *60 0.00214509
*CONN
*I *252:A1 I *D sky130_fd_sc_hd__o211a_1
*I *256:A2 I *D sky130_fd_sc_hd__a21bo_1
*I *258:A I *D sky130_fd_sc_hd__xnor2_1
*I *249:Y O *D sky130_fd_sc_hd__o31ai_2
*CAP
1 *252:A1 0.000201811
2 *256:A2 0
3 *258:A 0
4 *249:Y 0.00034902
5 *60:23 0.000385965
6 *60:12 0.000533174
7 *252:A1 *238:B 1.99109e-05
8 *252:A1 *252:A2 2.10762e-05
9 *252:A1 *66:6 2.57107e-05
10 *60:12 *240:A 9.49203e-05
11 *60:12 *258:B 3.09164e-05
12 *60:12 *73:10 4.18603e-06
13 *60:23 *61:6 0.000136329
14 *241:A_N *60:12 0
15 *249:B1 *60:12 4.99619e-05
16 *252:B1 *252:A1 4.66108e-05
17 *252:C1 *252:A1 4.77757e-05
18 *255:A *60:23 0.00016031
19 *256:A1 *60:23 3.74161e-05
20 *51:23 *60:12 0
21 *57:12 *60:12 0
*RES
1 *249:Y *60:12 11.96 
2 *60:12 *258:A 1.6 
3 *60:12 *60:23 4.02 
4 *60:23 *256:A2 1.6 
5 *60:23 *252:A1 5.095 
*END

*D_NET *61 0.00131135
*CONN
*I *251:B I *D sky130_fd_sc_hd__nand2_1
*I *255:B I *D sky130_fd_sc_hd__nand2_1
*I *256:B1_N I *D sky130_fd_sc_hd__a21bo_1
*I *250:Y O *D sky130_fd_sc_hd__nand2_1
*CAP
1 *251:B 0.000162207
2 *255:B 0
3 *256:B1_N 0
4 *250:Y 0.000194166
5 *61:19 0.000238595
6 *61:6 0.000270554
7 *61:6 *285:A 4.77757e-05
8 *61:19 *285:A 0.000107392
9 *255:A *61:6 4.77757e-05
10 *255:A *61:19 0.000106558
11 *60:23 *61:6 0.000136329
*RES
1 *250:Y *61:6 4.81 
2 *61:6 *256:B1_N 1.6 
3 *61:6 *61:19 6.085 
4 *61:19 *255:B 1.6 
5 *61:19 *251:B 3.775 
*END

*D_NET *62 0.000766578
*CONN
*I *252:A2 I *D sky130_fd_sc_hd__o211a_1
*I *251:Y O *D sky130_fd_sc_hd__nand2_1
*CAP
1 *252:A2 0.000173211
2 *251:Y 0.000173211
3 *252:A2 *239:B 9.43571e-05
4 *252:A2 *261:B1 0
5 *252:A2 *66:6 5.45302e-06
6 *252:A2 *91:8 6.28498e-05
7 *251:A *252:A2 4.76682e-05
8 *252:A1 *252:A2 2.10762e-05
9 *50:23 *252:A2 0.000153017
10 *50:34 *252:A2 3.57349e-05
*RES
1 *251:Y *252:A2 10.6163 
*END

*D_NET *63 0.00135067
*CONN
*I *253:B I *D sky130_fd_sc_hd__xnor2_1
*I *252:X O *D sky130_fd_sc_hd__o211a_1
*CAP
1 *253:B 0.000263521
2 *252:X 0.000263521
3 *253:B *239:A 1.80896e-05
4 *253:B *257:A 7.58865e-05
5 *253:B *261:B1 0.000194694
6 *253:B *286:A 0.000222813
7 *237:B *253:B 0.000220151
8 *252:B1 *253:B 2.47094e-05
9 *253:A *253:B 0
10 *260:B *253:B 1.56428e-05
11 *47:10 *253:B 5.16418e-05
*RES
1 *252:X *253:B 17.815 
*END

*D_NET *64 0.000953456
*CONN
*I *257:A I *D sky130_fd_sc_hd__xnor2_1
*I *254:Y O *D sky130_fd_sc_hd__nand2_1
*CAP
1 *257:A 0.000246216
2 *254:Y 0.000246216
3 *257:A *239:A 5.05521e-05
4 *257:A *239:B 0.000131881
5 *257:A *257:B 0.000116158
6 *257:A *286:A 0
7 *257:A *91:8 4.51073e-05
8 *253:A *257:A 3.0157e-06
9 *253:B *257:A 7.58865e-05
10 *254:A *257:A 3.84221e-05
*RES
1 *254:Y *257:A 12.48 
*END

*D_NET *65 0.000461109
*CONN
*I *258:B I *D sky130_fd_sc_hd__xnor2_1
*I *255:Y O *D sky130_fd_sc_hd__nand2_1
*CAP
1 *258:B 0.000194098
2 *255:Y 0.000194098
3 *258:B *73:10 0
4 *255:A *258:B 4.19967e-05
5 *51:23 *258:B 0
6 *60:12 *258:B 3.09164e-05
*RES
1 *255:Y *258:B 9.975 
*END

*D_NET *66 0.00156366
*CONN
*I *261:B1 I *D sky130_fd_sc_hd__o221a_1
*I *257:B I *D sky130_fd_sc_hd__xnor2_1
*I *256:X O *D sky130_fd_sc_hd__a21bo_1
*CAP
1 *261:B1 0.000182459
2 *257:B 6.82871e-05
3 *256:X 0.000243726
4 *66:6 0.000494472
5 *257:B *239:A 0
6 *257:B *286:A 0
7 *261:B1 *238:A 2.75145e-05
8 *261:B1 *238:B 2.75145e-05
9 *66:6 *238:B 2.33274e-05
10 *252:A1 *66:6 2.57107e-05
11 *252:A2 *261:B1 0
12 *252:A2 *66:6 5.45302e-06
13 *252:B1 *66:6 1.77595e-05
14 *252:C1 *66:6 1.77665e-05
15 *253:B *261:B1 0.000194694
16 *257:A *257:B 0.000116158
17 *261:A2 *261:B1 9.4287e-05
18 *49:10 *261:B1 2.4526e-05
*RES
1 *256:X *66:6 4.465 
2 *66:6 *257:B 6.98 
3 *66:6 *261:B1 5.785 
*END

*D_NET *67 0.000265714
*CONN
*I *261:B2 I *D sky130_fd_sc_hd__o221a_1
*I *260:Y O *D sky130_fd_sc_hd__nand2_1
*CAP
1 *261:B2 4.98073e-05
2 *260:Y 4.98073e-05
3 *237:B *261:B2 4.40812e-05
4 *46:10 *261:B2 0.000117832
5 *47:10 *261:B2 4.18603e-06
*RES
1 *260:Y *261:B2 8.58 
*END

*D_NET *68 0.00101699
*CONN
*I *223:B I *D sky130_fd_sc_hd__or2_1
*I *222:B I *D sky130_fd_sc_hd__nand2_1
*I *262:X O *D sky130_fd_sc_hd__clkbuf_1
*CAP
1 *223:B 0.000195251
2 *222:B 0
3 *262:X 0.000181353
4 *68:12 0.000376604
5 *223:B *223:A 0.000214836
6 *223:B *93:10 4.89503e-05
7 *278:A *68:12 0
*RES
1 *262:X *68:12 7.775 
2 *68:12 *222:B 1.6 
3 *68:12 *223:B 5.89 
*END

*D_NET *69 0.000774613
*CONN
*I *221:A I *D sky130_fd_sc_hd__and2_1
*I *226:A I *D sky130_fd_sc_hd__nor2_1
*I *263:X O *D sky130_fd_sc_hd__clkbuf_1
*CAP
1 *221:A 6.51582e-05
2 *226:A 0
3 *263:X 0.000186154
4 *69:12 0.000251312
5 *221:A *221:B 2.71311e-05
6 *221:A *79:14 4.77719e-05
7 *69:12 *79:14 0.000167716
8 *227:B *221:A 2.937e-05
*RES
1 *263:X *69:12 9.47 
2 *69:12 *226:A 1.6 
3 *69:12 *221:A 3.1 
*END

*D_NET *70 0.00127113
*CONN
*I *219:A I *D sky130_fd_sc_hd__nor2_1
*I *218:A I *D sky130_fd_sc_hd__and2_1
*I *247:A1 I *D sky130_fd_sc_hd__o31ai_2
*I *264:X O *D sky130_fd_sc_hd__buf_1
*CAP
1 *219:A 0
2 *218:A 8.60792e-05
3 *247:A1 0
4 *264:X 0.000123109
5 *70:18 0.000182001
6 *70:12 0.000219031
7 *218:A *218:B 0.000226662
8 *218:A *87:23 8.8266e-05
9 *70:12 *87:10 7.89611e-05
10 *70:18 *218:B 1.1742e-05
11 *34:14 *218:A 0.00024195
12 *34:14 *70:18 1.33293e-05
*RES
1 *264:X *70:12 7.685 
2 *70:12 *70:18 1.86 
3 *70:18 *247:A1 1.6 
4 *70:18 *218:A 5.515 
5 *70:12 *219:A 1.6 
*END

*D_NET *71 0.00118407
*CONN
*I *215:A I *D sky130_fd_sc_hd__or2_1
*I *216:A I *D sky130_fd_sc_hd__and2_1
*I *214:A I *D sky130_fd_sc_hd__nor2_1
*I *265:X O *D sky130_fd_sc_hd__clkbuf_1
*CAP
1 *215:A 0.000148314
2 *216:A 0
3 *214:A 0.00017201
4 *265:X 9.5814e-05
5 *71:21 0.000148314
6 *71:8 0.000267824
7 *214:A *88:6 1.83847e-05
8 *214:A *88:21 7.89689e-05
9 *215:A *215:B 0.0001249
10 *71:8 *88:21 5.53249e-06
11 *217:B *214:A 0
12 *217:B *71:8 0
13 *247:A3 *71:8 0
14 *265:A *71:8 0
15 *31:6 *215:A 8.65905e-05
16 *31:19 *215:A 3.74161e-05
*RES
1 *265:X *71:8 4.98 
2 *71:8 *214:A 6.45 
3 *71:8 *71:21 2 
4 *71:21 *216:A 1.6 
5 *71:21 *215:A 4.48 
*END

*D_NET *72 0.00146581
*CONN
*I *243:A I *D sky130_fd_sc_hd__or2_1
*I *242:A I *D sky130_fd_sc_hd__nand2_1
*I *266:X O *D sky130_fd_sc_hd__clkbuf_1
*CAP
1 *243:A 0.00043003
2 *242:A 8.567e-05
3 *266:X 0.000107051
4 *72:6 0.000622751
5 *242:A *284:A 9.30717e-05
6 *242:A *89:12 2.97004e-06
7 *243:A *240:B 0
8 *243:A *284:A 0
9 *259:A *243:A 1.16578e-05
10 *259:B *242:A 0
11 *259:B *243:A 1.43521e-05
12 *266:A *242:A 0
13 *53:12 *243:A 4.82919e-05
14 *55:6 *243:A 4.99619e-05
*RES
1 *266:X *72:6 2.74 
2 *72:6 *242:A 7.235 
3 *72:6 *243:A 10.895 
*END

*D_NET *73 0.00155498
*CONN
*I *250:A I *D sky130_fd_sc_hd__nand2_1
*I *240:A I *D sky130_fd_sc_hd__or2_1
*I *267:X O *D sky130_fd_sc_hd__clkbuf_1
*CAP
1 *250:A 0
2 *240:A 0.000191396
3 *267:X 0.000316413
4 *73:10 0.000507809
5 *240:A *240:B 0.000242509
6 *240:A *90:10 5.53249e-06
7 *73:10 *90:10 0.000162176
8 *249:B1 *240:A 0
9 *255:A *73:10 0
10 *258:B *73:10 0
11 *267:A *73:10 3.00381e-05
12 *60:12 *240:A 9.49203e-05
13 *60:12 *73:10 4.18603e-06
*RES
1 *267:X *73:10 9.45 
2 *73:10 *240:A 8.085 
3 *73:10 *250:A 3.6 
*END

*D_NET *74 0.00151783
*CONN
*I *238:A I *D sky130_fd_sc_hd__or2_1
*I *239:A I *D sky130_fd_sc_hd__nand2_1
*I *268:X O *D sky130_fd_sc_hd__clkbuf_1
*CAP
1 *238:A 1.17533e-05
2 *239:A 0.000273846
3 *268:X 0.000127357
4 *74:8 0.000412956
5 *239:A *286:A 0.000181383
6 *74:8 *286:A 0.000263563
7 *74:8 *91:8 0
8 *237:A *74:8 0
9 *252:B1 *239:A 1.00941e-05
10 *252:B1 *74:8 1.08723e-05
11 *253:A *74:8 2.05571e-05
12 *253:B *239:A 1.80896e-05
13 *254:A *74:8 6.10014e-05
14 *257:A *239:A 5.05521e-05
15 *257:B *239:A 0
16 *261:B1 *238:A 2.75145e-05
17 *49:10 *238:A 4.82863e-05
*RES
1 *268:X *74:8 6.765 
2 *74:8 *239:A 8.535 
3 *74:8 *238:A 4.05 
*END

*D_NET *75 0.0013646
*CONN
*I *236:A I *D sky130_fd_sc_hd__or2_1
*I *234:A I *D sky130_fd_sc_hd__and2_1
*I *235:A I *D sky130_fd_sc_hd__nand2_1
*I *269:X O *D sky130_fd_sc_hd__clkbuf_1
*CAP
1 *236:A 0
2 *234:A 0.000125169
3 *235:A 0.000156616
4 *269:X 7.03278e-05
5 *75:23 0.000184661
6 *75:6 0.000286435
7 *234:A *234:B 0.000198939
8 *234:A *92:23 4.66108e-05
9 *235:A *235:B 0.000182414
10 *75:23 *92:23 7.23533e-05
11 *46:10 *235:A 1.61831e-05
12 *46:10 *75:23 1.1561e-05
13 *47:10 *234:A 1.33293e-05
*RES
1 *269:X *75:6 2.395 
2 *75:6 *235:A 5.005 
3 *75:6 *75:23 5.125 
4 *75:23 *234:A 4.135 
5 *75:23 *236:A 1.6 
*END

*D_NET *76 0.00107803
*CONN
*I *225:A1 I *D sky130_fd_sc_hd__a21bo_1
*I *233:A I *D sky130_fd_sc_hd__xnor2_1
*I *270:X O *D sky130_fd_sc_hd__buf_1
*CAP
1 *225:A1 0
2 *233:A 0.000103775
3 *270:X 0.000120359
4 *76:12 0.000224134
5 *233:A *280:A 4.47125e-05
6 *76:12 *280:A 0.000125579
7 *224:A *233:A 0.000118294
8 *224:A *76:12 5.05437e-05
9 *225:A2 *233:A 0.0001249
10 *225:B1_N *76:12 4.08514e-05
11 *270:A *76:12 6.01508e-05
12 *40:10 *233:A 6.47326e-05
*RES
1 *270:X *76:12 8.81 
2 *76:12 *233:A 4.81 
3 *76:12 *225:A1 1.6 
*END

*D_NET *77 0.000624943
*CONN
*I *279:A I *D sky130_fd_sc_hd__buf_2
*I *261:X O *D sky130_fd_sc_hd__o221a_1
*CAP
1 *279:A 0.000236588
2 *261:X 0.000236588
3 *279:A *286:A 0
4 sum[6] *279:A 3.97211e-05
5 sum[7] *279:A 3.32709e-05
6 *237:A *279:A 2.96553e-05
7 *46:10 *279:A 4.91189e-05
*RES
1 *261:X *279:A 11.325 
*END

*D_NET *78 0.00139163
*CONN
*I *280:A I *D sky130_fd_sc_hd__buf_2
*I *233:Y O *D sky130_fd_sc_hd__xnor2_1
*CAP
1 *280:A 0.00038733
2 *233:Y 0.00038733
3 *280:A *281:A 0.000139933
4 *224:B *280:A 0
5 *225:A2 *280:A 0.0001249
6 *233:A *280:A 4.47125e-05
7 *270:A *280:A 0
8 *37:10 *280:A 9.61414e-05
9 *40:10 *280:A 8.57024e-05
10 *76:12 *280:A 0.000125579
*RES
1 *233:Y *280:A 15.21 
*END

*D_NET *79 0.00123451
*CONN
*I *226:B I *D sky130_fd_sc_hd__nor2_1
*I *221:B I *D sky130_fd_sc_hd__and2_1
*I *271:X O *D sky130_fd_sc_hd__clkbuf_1
*CAP
1 *226:B 0
2 *221:B 9.78998e-05
3 *271:X 0.000391624
4 *79:14 0.000489524
5 *79:14 *282:A 0
6 *221:A *221:B 2.71311e-05
7 *221:A *79:14 4.77719e-05
8 *263:A *79:14 7.00889e-06
9 *271:A *79:14 5.83121e-06
10 *69:12 *79:14 0.000167716
*RES
1 *271:X *79:14 12.245 
2 *79:14 *221:B 3.46 
3 *79:14 *226:B 1.6 
*END

*D_NET *80 0.00208136
*CONN
*I *281:A I *D sky130_fd_sc_hd__buf_2
*I *232:X O *D sky130_fd_sc_hd__xor2_1
*CAP
1 *281:A 0.000931909
2 *232:X 0.000931909
3 sum[0] *281:A 3.32709e-05
4 sum[1] *281:A 1.17114e-05
5 *224:B *281:A 1.83847e-05
6 *233:B *281:A 1.42449e-05
7 *280:A *281:A 0.000139933
*RES
1 *232:X *281:A 19.005 
*END

*D_NET *81 0.000850132
*CONN
*I *282:A I *D sky130_fd_sc_hd__buf_2
*I *231:Y O *D sky130_fd_sc_hd__xnor2_1
*CAP
1 *282:A 0.000424586
2 *231:Y 0.000424586
3 *282:A *283:A 0
4 *263:A *282:A 0
5 *36:12 *282:A 9.60582e-07
6 *79:14 *282:A 0
*RES
1 *231:Y *282:A 13.05 
*END

*D_NET *82 0.000960136
*CONN
*I *283:A I *D sky130_fd_sc_hd__buf_2
*I *230:Y O *D sky130_fd_sc_hd__xnor2_1
*CAP
1 *283:A 0.000396365
2 *230:Y 0.000396365
3 *220:B *283:A 0.000116853
4 *231:A *283:A 5.05521e-05
5 *282:A *283:A 0
*RES
1 *230:Y *283:A 13.05 
*END

*D_NET *83 0.000669476
*CONN
*I *284:A I *D sky130_fd_sc_hd__buf_2
*I *259:Y O *D sky130_fd_sc_hd__xnor2_1
*CAP
1 *284:A 0.000288202
2 *259:Y 0.000288202
3 *242:A *284:A 9.30717e-05
4 *243:A *284:A 0
5 *266:A *284:A 0
*RES
1 *259:Y *284:A 12.015 
*END

*D_NET *84 0.00085947
*CONN
*I *285:A I *D sky130_fd_sc_hd__buf_2
*I *258:Y O *D sky130_fd_sc_hd__xnor2_1
*CAP
1 *285:A 0.00032816
2 *258:Y 0.00032816
3 *285:A *91:8 0
4 *255:A *285:A 4.21518e-05
5 *256:A1 *285:A 5.83121e-06
6 *276:A *285:A 0
7 *50:23 *285:A 0
8 *61:6 *285:A 4.77757e-05
9 *61:19 *285:A 0.000107392
*RES
1 *258:Y *285:A 12.36 
*END

*D_NET *85 0.0015526
*CONN
*I *286:A I *D sky130_fd_sc_hd__buf_2
*I *257:Y O *D sky130_fd_sc_hd__xnor2_1
*CAP
1 *286:A 0.000413201
2 *257:Y 0.000413201
3 sum[6] *286:A 0
4 *237:B *286:A 1.07797e-05
5 *239:A *286:A 0.000181383
6 *253:B *286:A 0.000222813
7 *257:A *286:A 0
8 *257:B *286:A 0
9 *279:A *286:A 0
10 *46:10 *286:A 0
11 *47:10 *286:A 4.76581e-05
12 *74:8 *286:A 0.000263563
*RES
1 *257:Y *286:A 16.02 
*END

*D_NET *86 0.000412518
*CONN
*I *287:A I *D sky130_fd_sc_hd__buf_2
*I *253:Y O *D sky130_fd_sc_hd__xnor2_1
*CAP
1 *287:A 0.000158918
2 *253:Y 0.000158918
3 *237:A *287:A 7.35729e-05
4 *253:A *287:A 0
5 *260:B *287:A 2.11084e-05
*RES
1 *253:Y *287:A 6.095 
*END

*D_NET *87 0.00174323
*CONN
*I *247:A2 I *D sky130_fd_sc_hd__o31ai_2
*I *218:B I *D sky130_fd_sc_hd__and2_1
*I *219:B I *D sky130_fd_sc_hd__nor2_1
*I *272:X O *D sky130_fd_sc_hd__buf_1
*CAP
1 *247:A2 0
2 *218:B 0.000132173
3 *219:B 0
4 *272:X 0.000313154
5 *87:23 0.000226316
6 *87:10 0.000407297
7 *218:A *218:B 0.000226662
8 *218:A *87:23 8.8266e-05
9 *245:A1 *218:B 0.00012574
10 *246:A2 *218:B 0
11 *247:A3 *87:10 0
12 *30:14 *218:B 8.65961e-05
13 *34:14 *218:B 4.63251e-05
14 *58:10 *87:10 0
15 *70:12 *87:10 7.89611e-05
16 *70:18 *218:B 1.1742e-05
*RES
1 *272:X *87:10 8.415 
2 *87:10 *219:B 3.6 
3 *87:10 *87:23 3.59 
4 *87:23 *218:B 6.07 
5 *87:23 *247:A2 1.6 
*END

*D_NET *88 0.000800468
*CONN
*I *215:B I *D sky130_fd_sc_hd__or2_1
*I *216:B I *D sky130_fd_sc_hd__and2_1
*I *214:B I *D sky130_fd_sc_hd__nor2_1
*I *273:X O *D sky130_fd_sc_hd__clkbuf_1
*CAP
1 *215:B 4.76177e-05
2 *216:B 0
3 *214:B 6.341e-05
4 *273:X 6.66587e-05
5 *88:21 0.000128583
6 *88:6 0.000211034
7 *214:A *88:6 1.83847e-05
8 *214:A *88:21 7.89689e-05
9 *215:A *215:B 0.0001249
10 *217:A *214:B 5.53774e-05
11 *217:B *88:21 0
12 *71:8 *88:21 5.53249e-06
*RES
1 *273:X *88:6 2.395 
2 *88:6 *214:B 2.92 
3 *88:6 *88:21 5.635 
4 *88:21 *216:B 1.6 
5 *88:21 *215:B 2.74 
*END

*D_NET *89 0.000939781
*CONN
*I *243:B I *D sky130_fd_sc_hd__or2_1
*I *242:B I *D sky130_fd_sc_hd__nand2_1
*I *274:X O *D sky130_fd_sc_hd__clkbuf_1
*CAP
1 *243:B 0.000183955
2 *242:B 0
3 *274:X 0.000118146
4 *89:12 0.000302102
5 *242:A *89:12 2.97004e-06
6 *259:A *243:B 6.43121e-05
7 *259:B *89:12 0
8 *53:12 *243:B 0.000268296
*RES
1 *274:X *89:12 7.43 
2 *89:12 *242:B 1.6 
3 *89:12 *243:B 6.805 
*END

*D_NET *90 0.00121534
*CONN
*I *250:B I *D sky130_fd_sc_hd__nand2_1
*I *240:B I *D sky130_fd_sc_hd__or2_1
*I *275:X O *D sky130_fd_sc_hd__clkbuf_1
*CAP
1 *250:B 0
2 *240:B 0.000205685
3 *275:X 0.00019411
4 *90:10 0.000399795
5 *240:A *240:B 0.000242509
6 *240:A *90:10 5.53249e-06
7 *243:A *240:B 0
8 *249:B1 *240:B 5.53249e-06
9 *73:10 *90:10 0.000162176
*RES
1 *275:X *90:10 7.47 
2 *90:10 *240:B 7.83 
3 *90:10 *250:B 3.6 
*END

*D_NET *91 0.0014127
*CONN
*I *238:B I *D sky130_fd_sc_hd__or2_1
*I *239:B I *D sky130_fd_sc_hd__nand2_1
*I *276:X O *D sky130_fd_sc_hd__clkbuf_1
*CAP
1 *238:B 0.000130405
2 *239:B 0.000133127
3 *276:X 0.000148811
4 *91:8 0.000412344
5 *237:A *91:8 7.4027e-05
6 *241:B *239:B 3.93893e-05
7 *252:A1 *238:B 1.99109e-05
8 *252:A2 *239:B 9.43571e-05
9 *252:A2 *91:8 6.28498e-05
10 *254:A *91:8 0
11 *257:A *239:B 0.000131881
12 *257:A *91:8 4.51073e-05
13 *261:B1 *238:B 2.75145e-05
14 *285:A *91:8 0
15 *49:10 *238:B 0
16 *50:8 *239:B 1.83756e-05
17 *50:23 *239:B 4.11593e-05
18 *50:23 *91:8 1.01155e-05
19 *66:6 *238:B 2.33274e-05
20 *74:8 *91:8 0
*RES
1 *276:X *91:8 6.51 
2 *91:8 *239:B 6.96 
3 *91:8 *238:B 5.55 
*END

*D_NET *92 0.00125735
*CONN
*I *236:B I *D sky130_fd_sc_hd__or2_1
*I *234:B I *D sky130_fd_sc_hd__and2_1
*I *235:B I *D sky130_fd_sc_hd__nand2_1
*I *277:X O *D sky130_fd_sc_hd__clkbuf_1
*CAP
1 *236:B 2.62298e-05
2 *234:B 5.57814e-05
3 *235:B 4.89312e-05
4 *277:X 0
5 *92:23 0.000207839
6 *92:4 0.000174759
7 *234:A *234:B 0.000198939
8 *234:A *92:23 4.66108e-05
9 *235:A *235:B 0.000182414
10 *261:A1 *234:B 8.57024e-05
11 *46:10 *235:B 5.30673e-05
12 *46:10 *92:23 7.23602e-05
13 *47:10 *234:B 3.23663e-05
14 *75:23 *92:23 7.23533e-05
*RES
1 *277:X *92:4 1.6 
2 *92:4 *235:B 3.355 
3 *92:4 *92:23 6.28 
4 *92:23 *234:B 3.775 
5 *92:23 *236:B 2.05 
*END

*D_NET *93 0.000572164
*CONN
*I *222:A I *D sky130_fd_sc_hd__nand2_1
*I *223:A I *D sky130_fd_sc_hd__or2_1
*I *278:X O *D sky130_fd_sc_hd__clkbuf_1
*CAP
1 *222:A 0
2 *223:A 2.07741e-05
3 *278:X 0.000133414
4 *93:10 0.000154189
5 *223:B *223:A 0.000214836
6 *223:B *93:10 4.89503e-05
*RES
1 *278:X *93:10 3.805 
2 *93:10 *223:A 2.74 
3 *93:10 *222:A 1.6 
*END
