*SPEF "ieee 1481-1999"
*DESIGN "acc8"
*DATE "12:27:25 Saturday September 19, 2026"
*VENDOR "The OpenROAD Project"
*PROGRAM "OpenROAD"
*VERSION "edf00dff99f6c40d67a30c0e22a8191c5d2ed9d6"
*DESIGN_FLOW "NAME_SCOPE LOCAL" "PIN_CAP NONE"
*DIVIDER /
*DELIMITER :
*BUS_DELIMITER []
*T_UNIT 1 NS
*C_UNIT 1 PF
*R_UNIT 1 OHM
*L_UNIT 1 HENRY

*NAME_MAP
*3 acc[0]
*4 acc[1]
*5 acc[2]
*6 acc[3]
*7 acc[4]
*8 acc[5]
*9 acc[6]
*10 acc[7]
*11 clk
*12 data_in[0]
*13 data_in[1]
*14 data_in[2]
*15 data_in[3]
*16 data_in[4]
*17 data_in[5]
*18 data_in[6]
*19 data_in[7]
*20 rst
*21 _00_
*22 _01_
*23 _02_
*24 _03_
*25 _04_
*26 _05_
*27 _06_
*28 _07_
*29 _08_
*30 _09_
*31 _10_
*32 _11_
*33 _12_
*34 _13_
*35 _14_
*36 _15_
*37 _16_
*38 _17_
*39 _18_
*40 _19_
*41 _20_
*42 _21_
*43 _22_
*44 _23_
*45 _24_
*46 _25_
*47 _26_
*48 _27_
*49 _28_
*50 _29_
*51 _30_
*52 _31_
*53 _32_
*54 _33_
*55 _34_
*56 _35_
*57 _36_
*58 _37_
*59 _38_
*60 _39_
*61 _40_
*62 _41_
*63 adder\.high\.sum\[0\]
*64 adder\.high\.sum\[1\]
*65 adder\.high\.sum\[2\]
*66 adder\.high\.sum\[3\]
*67 adder\.low\.p\[0\]
*68 adder\.low\.sum\[1\]
*69 adder\.low\.sum\[2\]
*70 adder\.low\.sum\[3\]
*71 clknet_0_clk
*72 clknet_1_0__leaf_clk
*73 clknet_1_1__leaf_clk
*74 net1
*75 net10
*76 net11
*77 net12
*78 net13
*79 net14
*80 net15
*81 net16
*82 net17
*83 net2
*84 net3
*85 net4
*86 net5
*87 net6
*88 net7
*89 net8
*90 net9
*91 FILLER_0_15
*92 FILLER_0_27
*93 FILLER_0_29
*94 FILLER_0_3
*95 FILLER_0_34
*96 FILLER_0_42
*97 FILLER_0_50
*98 FILLER_0_55
*99 FILLER_0_62
*100 FILLER_0_77
*101 FILLER_10_15
*102 FILLER_10_27
*103 FILLER_10_3
*104 FILLER_10_55
*105 FILLER_10_67
*106 FILLER_10_75
*107 FILLER_11_15
*108 FILLER_11_19
*109 FILLER_11_23
*110 FILLER_11_3
*111 FILLER_11_35
*112 FILLER_11_57
*113 FILLER_11_69
*114 FILLER_11_73
*115 FILLER_12_29
*116 FILLER_12_3
*117 FILLER_12_50
*118 FILLER_12_58
*119 FILLER_12_7
*120 FILLER_12_79
*121 FILLER_13_15
*122 FILLER_13_27
*123 FILLER_13_29
*124 FILLER_13_3
*125 FILLER_13_35
*126 FILLER_13_41
*127 FILLER_13_54
*128 FILLER_13_57
*129 FILLER_13_65
*130 FILLER_13_70
*131 FILLER_13_78
*132 FILLER_1_15
*133 FILLER_1_27
*134 FILLER_1_3
*135 FILLER_1_33
*136 FILLER_1_48
*137 FILLER_1_52
*138 FILLER_2_15
*139 FILLER_2_27
*140 FILLER_2_29
*141 FILLER_2_3
*142 FILLER_2_42
*143 FILLER_2_67
*144 FILLER_2_75
*145 FILLER_3_3
*146 FILLER_3_33
*147 FILLER_3_45
*148 FILLER_3_53
*149 FILLER_3_64
*150 FILLER_3_76
*151 FILLER_3_80
*152 FILLER_4_15
*153 FILLER_4_27
*154 FILLER_4_29
*155 FILLER_4_3
*156 FILLER_4_41
*157 FILLER_4_62
*158 FILLER_5_17
*159 FILLER_5_25
*160 FILLER_5_3
*161 FILLER_5_48
*162 FILLER_5_55
*163 FILLER_5_57
*164 FILLER_6_10
*165 FILLER_6_23
*166 FILLER_6_27
*167 FILLER_6_32
*168 FILLER_6_37
*169 FILLER_6_41
*170 FILLER_6_45
*171 FILLER_6_57
*172 FILLER_6_69
*173 FILLER_6_77
*174 FILLER_7_30
*175 FILLER_7_34
*176 FILLER_7_55
*177 FILLER_7_57
*178 FILLER_7_69
*179 FILLER_8_18
*180 FILLER_8_26
*181 FILLER_8_29
*182 FILLER_8_3
*183 FILLER_8_41
*184 FILLER_8_49
*185 FILLER_9_15
*186 FILLER_9_27
*187 FILLER_9_3
*188 FILLER_9_36
*189 FILLER_9_48
*190 FILLER_9_57
*191 FILLER_9_69
*192 PHY_EDGE_ROW_0_Left_14
*193 PHY_EDGE_ROW_0_Right_0
*194 PHY_EDGE_ROW_10_Left_24
*195 PHY_EDGE_ROW_10_Right_10
*196 PHY_EDGE_ROW_11_Left_25
*197 PHY_EDGE_ROW_11_Right_11
*198 PHY_EDGE_ROW_12_Left_26
*199 PHY_EDGE_ROW_12_Right_12
*200 PHY_EDGE_ROW_13_Left_27
*201 PHY_EDGE_ROW_13_Right_13
*202 PHY_EDGE_ROW_1_Left_15
*203 PHY_EDGE_ROW_1_Right_1
*204 PHY_EDGE_ROW_2_Left_16
*205 PHY_EDGE_ROW_2_Right_2
*206 PHY_EDGE_ROW_3_Left_17
*207 PHY_EDGE_ROW_3_Right_3
*208 PHY_EDGE_ROW_4_Left_18
*209 PHY_EDGE_ROW_4_Right_4
*210 PHY_EDGE_ROW_5_Left_19
*211 PHY_EDGE_ROW_5_Right_5
*212 PHY_EDGE_ROW_6_Left_20
*213 PHY_EDGE_ROW_6_Right_6
*214 PHY_EDGE_ROW_7_Left_21
*215 PHY_EDGE_ROW_7_Right_7
*216 PHY_EDGE_ROW_8_Left_22
*217 PHY_EDGE_ROW_8_Right_8
*218 PHY_EDGE_ROW_9_Left_23
*219 PHY_EDGE_ROW_9_Right_9
*220 TAP_TAPCELL_ROW_0_28
*221 TAP_TAPCELL_ROW_0_29
*222 TAP_TAPCELL_ROW_10_39
*223 TAP_TAPCELL_ROW_11_40
*224 TAP_TAPCELL_ROW_12_41
*225 TAP_TAPCELL_ROW_13_42
*226 TAP_TAPCELL_ROW_13_43
*227 TAP_TAPCELL_ROW_1_30
*228 TAP_TAPCELL_ROW_2_31
*229 TAP_TAPCELL_ROW_3_32
*230 TAP_TAPCELL_ROW_4_33
*231 TAP_TAPCELL_ROW_5_34
*232 TAP_TAPCELL_ROW_6_35
*233 TAP_TAPCELL_ROW_7_36
*234 TAP_TAPCELL_ROW_8_37
*235 TAP_TAPCELL_ROW_9_38
*236 _42_
*237 _43_
*238 _44_
*239 _45_
*240 _46_
*241 _47_
*242 _48_
*243 _49_
*244 _50_
*245 _51_
*246 _52_
*247 _53_
*248 _54_
*249 _55_
*250 _56_
*251 _57_
*252 _58_
*253 _59_
*254 _60_
*255 _61_
*256 _62_
*257 _63_
*258 _64_
*259 _65_
*260 _66_
*261 _67_
*262 _68_
*263 _69_
*264 _70_
*265 _71_
*266 _72_
*267 _73_
*268 _74_
*269 _75_
*270 _76_
*271 _77_
*272 _78_
*273 _79_
*274 _80_
*275 _81_
*276 _82_
*277 _83_
*278 _84_
*279 _85_
*280 _86_
*281 _87_
*282 _88_
*283 _89_
*284 _90_
*285 _91_
*286 _92_
*287 _93_
*288 _94_
*289 _95_
*290 _96_
*291 _97_
*292 _98_
*293 _99_
*294 clkbuf_0_clk
*295 clkbuf_1_0__f_clk
*296 clkbuf_1_1__f_clk
*297 input1
*298 input2
*299 input3
*300 input4
*301 input5
*302 input6
*303 input7
*304 input8
*305 input9
*306 output10
*307 output11
*308 output12
*309 output13
*310 output14
*311 output15
*312 output16
*313 output17

*PORTS
acc[0] O
acc[1] O
acc[2] O
acc[3] O
acc[4] O
acc[5] O
acc[6] O
acc[7] O
clk I
data_in[0] I
data_in[1] I
data_in[2] I
data_in[3] I
data_in[4] I
data_in[5] I
data_in[6] I
data_in[7] I
rst I

*D_NET *3 0.000635436
*CONN
*P acc[0] O
*I *306:X O *D sky130_fd_sc_hd__buf_2
*CAP
1 acc[0] 0.000204051
2 *306:X 0.000204051
3 acc[0] acc[1] 9.14922e-05
4 acc[0] *279:A 4.29654e-05
5 acc[0] *297:A 9.28756e-05
*RES
1 *306:X acc[0] 19.4092 
*END

*D_NET *4 0.00064016
*CONN
*P acc[1] O
*I *307:X O *D sky130_fd_sc_hd__buf_2
*CAP
1 acc[1] 0.000264739
2 *307:X 0.000264739
3 acc[1] *279:A 1.91894e-05
4 acc[0] acc[1] 9.14922e-05
*RES
1 *307:X acc[1] 18.4985 
*END

*D_NET *5 0.000974081
*CONN
*P acc[2] O
*I *308:X O *D sky130_fd_sc_hd__buf_2
*CAP
1 acc[2] 0.000459141
2 *308:X 0.000459141
3 acc[2] *299:A 0
4 acc[2] *308:A 5.57989e-05
*RES
1 *308:X acc[2] 22.05 
*END

*D_NET *6 0.000765133
*CONN
*P acc[3] O
*I *309:X O *D sky130_fd_sc_hd__buf_2
*CAP
1 acc[3] 0.000322356
2 *309:X 0.000322356
3 acc[3] *300:A 6.18446e-05
4 acc[3] *78:12 5.85758e-05
*RES
1 *309:X acc[3] 20.5501 
*END

*D_NET *7 0.000500677
*CONN
*P acc[4] O
*I *310:X O *D sky130_fd_sc_hd__buf_2
*CAP
1 acc[4] 0.000161016
2 *310:X 0.000161016
3 acc[4] acc[7] 9.28756e-05
4 acc[4] *297:A 0
5 acc[4] *301:A 7.66163e-05
6 acc[4] *90:10 9.15186e-06
*RES
1 *310:X acc[4] 18.1949 
*END

*D_NET *8 0.00107509
*CONN
*P acc[5] O
*I *311:X O *D sky130_fd_sc_hd__buf_2
*CAP
1 acc[5] 0.000494174
2 *311:X 0.000494174
3 acc[5] *302:A 0
4 acc[5] *311:A 8.67413e-05
*RES
1 *311:X acc[5] 23.4607 
*END

*D_NET *9 0.00101638
*CONN
*P acc[6] O
*I *312:X O *D sky130_fd_sc_hd__buf_2
*CAP
1 acc[6] 0.000508188
2 *312:X 0.000508188
3 acc[6] *312:A 0
*RES
1 *312:X acc[6] 23.4607 
*END

*D_NET *10 0.000645845
*CONN
*P acc[7] O
*I *313:X O *D sky130_fd_sc_hd__buf_2
*CAP
1 acc[7] 0.000205294
2 *313:X 0.000205294
3 acc[7] *304:A 8.57347e-05
4 acc[7] *305:A 0
5 acc[7] *82:10 4.15914e-05
6 acc[7] *90:8 1.50563e-05
7 acc[4] acc[7] 9.28756e-05
*RES
1 *313:X acc[7] 19.4092 
*END

*D_NET *11 0.00337653
*CONN
*P clk I
*I *294:A I *D sky130_fd_sc_hd__clkbuf_16
*CAP
1 clk 0.00158502
2 *294:A 0.00158502
3 *294:A *260:B 0.000148476
4 *294:A *289:CLK 0
5 *294:A *46:14 5.80217e-05
*RES
1 clk *294:A 29.8419 
*END

*D_NET *12 0.00139825
*CONN
*P data_in[0] I
*I *297:A I *D sky130_fd_sc_hd__clkbuf_1
*CAP
1 data_in[0] 0.000468069
2 *297:A 0.000468069
3 *297:A *301:A 0.000131118
4 *297:A *75:12 3.22243e-05
5 *297:A *86:10 0.000125057
6 *297:A *90:12 8.08376e-05
7 acc[0] *297:A 9.28756e-05
8 acc[4] *297:A 0
*RES
1 data_in[0] *297:A 24.5521 
*END

*D_NET *13 0.000843518
*CONN
*P data_in[1] I
*I *298:A I *D sky130_fd_sc_hd__clkbuf_1
*CAP
1 data_in[1] 0.000421759
2 *298:A 0.000421759
*RES
1 data_in[1] *298:A 21.8357 
*END

*D_NET *14 0.000844193
*CONN
*P data_in[2] I
*I *299:A I *D sky130_fd_sc_hd__buf_1
*CAP
1 data_in[2] 0.000419443
2 *299:A 0.000419443
3 *299:A *84:10 5.30637e-06
4 acc[2] *299:A 0
*RES
1 data_in[2] *299:A 21.8357 
*END

*D_NET *15 0.00079957
*CONN
*P data_in[3] I
*I *300:A I *D sky130_fd_sc_hd__clkbuf_1
*CAP
1 data_in[3] 0.000364061
2 *300:A 0.000364061
3 *300:A *78:22 0
4 *300:A *85:12 9.60337e-06
5 acc[3] *300:A 6.18446e-05
*RES
1 data_in[3] *300:A 19.0183 
*END

*D_NET *16 0.000534525
*CONN
*P data_in[4] I
*I *301:A I *D sky130_fd_sc_hd__clkbuf_1
*CAP
1 data_in[4] 0.000163395
2 *301:A 0.000163395
3 *301:A *90:10 0
4 *301:A *90:12 0
5 acc[4] *301:A 7.66163e-05
6 *297:A *301:A 0.000131118
*RES
1 data_in[4] *301:A 18.73 
*END

*D_NET *17 0.00100969
*CONN
*P data_in[5] I
*I *302:A I *D sky130_fd_sc_hd__clkbuf_1
*CAP
1 data_in[5] 0.000504847
2 *302:A 0.000504847
3 *302:A *303:A 0
4 acc[5] *302:A 0
*RES
1 data_in[5] *302:A 23.2643 
*END

*D_NET *18 0.00151621
*CONN
*P data_in[6] I
*I *303:A I *D sky130_fd_sc_hd__clkbuf_1
*CAP
1 data_in[6] 0.000721992
2 *303:A 0.000721992
3 *303:A *263:B 2.72967e-05
4 *303:A *52:12 1.07719e-05
5 *303:A *88:18 3.41609e-05
6 *302:A *303:A 0
*RES
1 data_in[6] *303:A 26.1036 
*END

*D_NET *19 0.000572981
*CONN
*P data_in[7] I
*I *304:A I *D sky130_fd_sc_hd__clkbuf_1
*CAP
1 data_in[7] 0.000200756
2 *304:A 0.000200756
3 *304:A *305:A 8.57347e-05
4 *304:A *90:8 0
5 acc[7] *304:A 8.57347e-05
*RES
1 data_in[7] *304:A 19.3371 
*END

*D_NET *20 0.000580874
*CONN
*P rst I
*I *305:A I *D sky130_fd_sc_hd__clkbuf_4
*CAP
1 rst 0.000238297
2 *305:A 0.000238297
3 *305:A *90:8 1.85455e-05
4 acc[7] *305:A 0
5 *304:A *305:A 8.57347e-05
*RES
1 rst *305:A 19.1056 
*END

*D_NET *21 0.00021169
*CONN
*I *286:RESET_B I *D sky130_fd_sc_hd__dfrtp_1
*I *236:Y O *D sky130_fd_sc_hd__inv_2
*CAP
1 *286:RESET_B 5.33579e-05
2 *236:Y 5.33579e-05
3 *286:RESET_B *74:10 0
4 *286:RESET_B *90:12 0.000104974
*RES
1 *236:Y *286:RESET_B 19.6393 
*END

*D_NET *22 0.000341873
*CONN
*I *287:RESET_B I *D sky130_fd_sc_hd__dfrtp_1
*I *279:Y O *D sky130_fd_sc_hd__inv_2
*CAP
1 *287:RESET_B 8.11086e-05
2 *279:Y 8.11086e-05
3 *287:RESET_B *279:A 0.000179656
*RES
1 *279:Y *287:RESET_B 20.55 
*END

*D_NET *23 0.000604388
*CONN
*I *288:RESET_B I *D sky130_fd_sc_hd__dfrtp_1
*I *280:Y O *D sky130_fd_sc_hd__inv_2
*CAP
1 *288:RESET_B 0.000218435
2 *280:Y 0.000218435
3 *288:RESET_B *288:CLK 5.52238e-05
4 *288:RESET_B *77:6 0.000112294
*RES
1 *280:Y *288:RESET_B 13.4696 
*END

*D_NET *24 0.000284879
*CONN
*I *289:RESET_B I *D sky130_fd_sc_hd__dfrtp_1
*I *281:Y O *D sky130_fd_sc_hd__inv_2
*CAP
1 *289:RESET_B 0.000142439
2 *281:Y 0.000142439
3 *289:RESET_B *289:CLK 0
*RES
1 *281:Y *289:RESET_B 20.5232 
*END

*D_NET *25 0.000370143
*CONN
*I *290:RESET_B I *D sky130_fd_sc_hd__dfrtp_1
*I *282:Y O *D sky130_fd_sc_hd__inv_2
*CAP
1 *290:RESET_B 4.62424e-05
2 *282:Y 4.62424e-05
3 *290:RESET_B *280:A 0.000179656
4 *290:RESET_B *286:CLK 9.80029e-05
*RES
1 *282:Y *290:RESET_B 20.55 
*END

*D_NET *26 0.000343041
*CONN
*I *291:RESET_B I *D sky130_fd_sc_hd__dfrtp_1
*I *283:Y O *D sky130_fd_sc_hd__inv_2
*CAP
1 *291:RESET_B 0.000109073
2 *283:Y 0.000109073
3 *291:RESET_B *291:CLK 3.25247e-05
4 *291:RESET_B *80:8 9.23695e-05
*RES
1 *283:Y *291:RESET_B 20.5232 
*END

*D_NET *27 0.000273647
*CONN
*I *292:RESET_B I *D sky130_fd_sc_hd__dfrtp_1
*I *284:Y O *D sky130_fd_sc_hd__inv_2
*CAP
1 *292:RESET_B 0.00012089
2 *284:Y 0.00012089
3 *292:RESET_B *90:73 3.18676e-05
*RES
1 *284:Y *292:RESET_B 20.175 
*END

*D_NET *28 0.000349479
*CONN
*I *293:RESET_B I *D sky130_fd_sc_hd__dfrtp_1
*I *285:Y O *D sky130_fd_sc_hd__inv_2
*CAP
1 *293:RESET_B 0.000125218
2 *285:Y 0.000125218
3 *293:RESET_B *285:A 9.90431e-05
*RES
1 *285:Y *293:RESET_B 11.4161 
*END

*D_NET *29 0.00480235
*CONN
*I *264:A1 I *D sky130_fd_sc_hd__a31o_1
*I *266:C1 I *D sky130_fd_sc_hd__o211a_1
*I *259:A I *D sky130_fd_sc_hd__nand2_1
*I *239:A I *D sky130_fd_sc_hd__nand2_1
*I *237:Y O *D sky130_fd_sc_hd__nand2_1
*CAP
1 *264:A1 0.000187156
2 *266:C1 1.69531e-05
3 *259:A 0.000214884
4 *239:A 0.000179384
5 *237:Y 0.000254326
6 *29:36 0.000424607
7 *29:19 0.000757754
8 *29:6 0.000756082
9 *239:A *239:B 5.17385e-05
10 *239:A *31:6 1.93007e-05
11 *259:A *268:A2 0.000186765
12 *259:A *46:25 0.000148907
13 *259:A *46:34 1.34548e-05
14 *264:A1 *264:A2 0.000414124
15 *264:A1 *264:A3 1.98839e-05
16 *264:A1 *264:B1 3.50166e-05
17 *264:A1 *52:18 0.000352288
18 *266:C1 *267:A1 5.33005e-05
19 *266:C1 *267:A2 5.33005e-05
20 *29:6 *238:A 4.88637e-05
21 *29:6 *238:B 5.71472e-05
22 *29:6 *239:B 7.02611e-05
23 *29:19 *255:B 0.000345049
24 *29:36 *255:B 4.35131e-05
25 *29:36 *264:A2 8.80397e-05
26 *29:36 *52:18 1.02504e-05
*RES
1 *237:Y *29:6 12.7107 
2 *29:6 *239:A 11.8 
3 *29:6 *29:19 12.5179 
4 *29:19 *259:A 18.8714 
5 *29:19 *29:36 3.21429 
6 *29:36 *266:C1 14.3357 
7 *29:36 *264:A1 19.8536 
*END

*D_NET *30 0.000342649
*CONN
*I *239:B I *D sky130_fd_sc_hd__nand2_1
*I *238:X O *D sky130_fd_sc_hd__or2_1
*CAP
1 *239:B 0.000110325
2 *238:X 0.000110325
3 *239:A *239:B 5.17385e-05
4 *29:6 *239:B 7.02611e-05
*RES
1 *238:X *239:B 20.7786 
*END

*D_NET *31 0.00106816
*CONN
*I *254:C1 I *D sky130_fd_sc_hd__a311o_1
*I *253:A I *D sky130_fd_sc_hd__nand2_1
*I *239:Y O *D sky130_fd_sc_hd__nand2_1
*CAP
1 *254:C1 0.000111965
2 *253:A 4.85711e-05
3 *239:Y 0.000174447
4 *31:6 0.000334983
5 *253:A *252:A1 3.37871e-05
6 *254:C1 *253:B 0.000169492
7 *254:C1 *254:B1 1.94945e-05
8 *254:C1 *34:19 4.38096e-05
9 *254:C1 *46:14 0
10 *31:6 *252:A1 0.000112307
11 *239:A *31:6 1.93007e-05
*RES
1 *239:Y *31:6 12.7107 
2 *31:6 *253:A 10.2643 
3 *31:6 *254:C1 20.8536 
*END

*D_NET *32 0.00291114
*CONN
*I *251:A_N I *D sky130_fd_sc_hd__nand2b_1
*I *252:B1 I *D sky130_fd_sc_hd__a31o_1
*I *254:B1 I *D sky130_fd_sc_hd__a311o_1
*I *240:Y O *D sky130_fd_sc_hd__nor2_1
*CAP
1 *251:A_N 6.49329e-05
2 *252:B1 0.000372761
3 *254:B1 2.51575e-05
4 *240:Y 0.000180545
5 *32:14 0.000968201
6 *32:8 0.00081576
7 *251:A_N *251:B 0.000128154
8 *251:A_N *78:22 0
9 *252:B1 *252:A1 4.2855e-05
10 *252:B1 *295:A 0
11 *254:B1 *252:A3 1.41471e-05
12 *254:B1 *34:8 4.6025e-06
13 *254:B1 *34:19 1.01912e-05
14 *32:8 *250:A 0.000185643
15 *32:8 *42:6 3.48705e-05
16 *32:14 *251:B 4.38243e-05
17 *254:C1 *254:B1 1.94945e-05
*RES
1 *240:Y *32:8 16.3893 
2 *32:8 *32:14 5.19042 
3 *32:14 *254:B1 17.7323 
4 *32:14 *252:B1 18.3418 
5 *32:8 *251:A_N 15.4429 
*END

*D_NET *33 0.00102142
*CONN
*I *273:A1 I *D sky130_fd_sc_hd__o211ai_1
*I *249:B1 I *D sky130_fd_sc_hd__a211o_1
*I *241:X O *D sky130_fd_sc_hd__and2_1
*CAP
1 *273:A1 5.70525e-05
2 *249:B1 0.00020498
3 *241:X 0
4 *33:4 0.000262032
5 *249:B1 *249:A1 9.37676e-05
6 *249:B1 *249:C1 7.35398e-05
7 *249:B1 *273:C1 0
8 *249:B1 *308:A 9.69119e-06
9 *273:A1 *243:A 5.52302e-05
10 *273:A1 *273:A2 2.48363e-05
11 *273:A1 *274:B 0.000184945
12 *273:A1 *77:25 5.53449e-05
*RES
1 *241:X *33:4 9.3 
2 *33:4 *249:B1 22.5098 
3 *33:4 *273:A1 11.4964 
*END

*D_NET *34 0.00194618
*CONN
*I *252:A1 I *D sky130_fd_sc_hd__a31o_1
*I *275:A I *D sky130_fd_sc_hd__nand2_1
*I *254:A1 I *D sky130_fd_sc_hd__a311o_1
*I *242:Y O *D sky130_fd_sc_hd__nand2_1
*CAP
1 *252:A1 0.000322267
2 *275:A 3.31587e-05
3 *254:A1 0
4 *242:Y 0.000242445
5 *34:19 0.000454686
6 *34:8 0.000341706
7 *252:A1 *252:A2 1.02504e-05
8 *252:A1 *255:A 0.000128409
9 *252:A1 *255:B 0
10 *34:8 *288:CLK 0
11 *34:8 *41:35 7.95909e-05
12 *34:19 *275:B 8.61126e-05
13 *252:B1 *252:A1 4.2855e-05
14 *253:A *252:A1 3.37871e-05
15 *254:B1 *34:8 4.6025e-06
16 *254:B1 *34:19 1.01912e-05
17 *254:C1 *34:19 4.38096e-05
18 *31:6 *252:A1 0.000112307
*RES
1 *242:Y *34:8 18.175 
2 *34:8 *254:A1 13.8 
3 *34:8 *34:19 6.75 
4 *34:19 *275:A 9.83571 
5 *34:19 *252:A1 24.3893 
*END

*D_NET *35 0.000715674
*CONN
*I *273:A2 I *D sky130_fd_sc_hd__o211ai_1
*I *249:C1 I *D sky130_fd_sc_hd__a211o_1
*I *243:Y O *D sky130_fd_sc_hd__nor2_1
*CAP
1 *273:A2 0.000125836
2 *249:C1 0.000126112
3 *243:Y 0
4 *35:4 0.000251949
5 *249:C1 *249:A1 1.38796e-05
6 *273:A2 *273:B1 1.8461e-05
7 *273:A2 *274:B 1.13883e-05
8 *273:A2 *77:25 6.9672e-05
9 *249:B1 *249:C1 7.35398e-05
10 *273:A1 *273:A2 2.48363e-05
*RES
1 *243:Y *35:4 9.3 
2 *35:4 *249:C1 20.5054 
3 *35:4 *273:A2 11.3893 
*END

*D_NET *36 0.0031706
*CONN
*I *245:A I *D sky130_fd_sc_hd__inv_2
*I *248:C_N I *D sky130_fd_sc_hd__or3b_1
*I *249:A1 I *D sky130_fd_sc_hd__a211o_1
*I *273:B1 I *D sky130_fd_sc_hd__o211ai_1
*I *244:Y O *D sky130_fd_sc_hd__nand2_1
*CAP
1 *245:A 2.79508e-05
2 *248:C_N 0.000103526
3 *249:A1 0.000173364
4 *273:B1 0.00014535
5 *244:Y 0
6 *36:34 0.000394636
7 *36:21 0.000519558
8 *36:4 0.000228385
9 *245:A *271:A1 2.14658e-05
10 *248:C_N *271:B1 0.000201127
11 *248:C_N *287:CLK 4.35131e-05
12 *248:C_N *39:14 0
13 *248:C_N *72:10 0
14 *249:A1 *249:A2 0.000482019
15 *249:A1 *295:A 0.000226828
16 *273:B1 *244:A 3.18676e-05
17 *273:B1 *244:B 3.57366e-05
18 *273:B1 *273:C1 9.90367e-05
19 *36:21 *272:A 0
20 *36:21 *273:C1 6.30292e-05
21 *36:21 *295:A 9.25014e-06
22 *36:34 *271:A1 0.000141985
23 *36:34 *287:CLK 4.70078e-05
24 *36:34 *72:10 4.88515e-05
25 *249:B1 *249:A1 9.37676e-05
26 *249:C1 *249:A1 1.38796e-05
27 *273:A2 *273:B1 1.8461e-05
*RES
1 *244:Y *36:4 9.3 
2 *36:4 *273:B1 12.3357 
3 *36:4 *36:21 10.6429 
4 *36:21 *249:A1 15.2107 
5 *36:21 *36:34 5.46429 
6 *36:34 *248:C_N 21.1571 
7 *36:34 *245:A 9.83571 
*END

*D_NET *37 0.00104061
*CONN
*I *271:A1 I *D sky130_fd_sc_hd__o21ai_1
*I *245:Y O *D sky130_fd_sc_hd__inv_2
*CAP
1 *271:A1 0.000314428
2 *245:Y 0.000314428
3 *271:A1 *248:B 0.000123288
4 *271:A1 *272:A 0.00012501
5 *245:A *271:A1 2.14658e-05
6 *36:34 *271:A1 0.000141985
*RES
1 *245:Y *271:A1 32.6536 
*END

*D_NET *38 0.00116779
*CONN
*I *271:A2 I *D sky130_fd_sc_hd__o21ai_1
*I *248:B I *D sky130_fd_sc_hd__or3b_1
*I *246:Y O *D sky130_fd_sc_hd__nor2_1
*CAP
1 *271:A2 0
2 *248:B 0.000221864
3 *246:Y 6.16866e-05
4 *38:8 0.000283551
5 *248:B *272:A 9.74588e-05
6 *248:B *287:CLK 8.32497e-05
7 *38:8 *244:B 0.000180764
8 *38:8 *246:B 0.000115926
9 *271:A1 *248:B 0.000123288
*RES
1 *246:Y *38:8 11.4964 
2 *38:8 *248:B 22.9071 
3 *38:8 *271:A2 9.3 
*END

*D_NET *39 0.00236072
*CONN
*I *278:A I *D sky130_fd_sc_hd__and2_1
*I *271:B1 I *D sky130_fd_sc_hd__o21ai_1
*I *248:A I *D sky130_fd_sc_hd__or3b_1
*I *247:Y O *D sky130_fd_sc_hd__nand2_1
*CAP
1 *278:A 0
2 *271:B1 0.000289591
3 *248:A 0.000118904
4 *247:Y 0.000142759
5 *39:14 0.000688404
6 *39:6 0.000422667
7 *271:B1 *246:B 6.10501e-05
8 *271:B1 *287:CLK 4.43698e-05
9 *271:B1 *76:6 0.00018372
10 *39:6 *247:A 0.000142856
11 *39:6 *277:B 2.44318e-05
12 *39:6 *278:B 2.89114e-05
13 *39:14 *279:A 0
14 *39:14 *74:10 1.19309e-05
15 *248:C_N *271:B1 0.000201127
16 *248:C_N *39:14 0
*RES
1 *247:Y *39:6 12.3 
2 *39:6 *39:14 13.625 
3 *39:14 *248:A 11.0679 
4 *39:14 *271:B1 25.175 
5 *39:6 *278:A 9.3 
*END

*D_NET *40 0.00358614
*CONN
*I *272:A I *D sky130_fd_sc_hd__and2_1
*I *249:A2 I *D sky130_fd_sc_hd__a211o_1
*I *273:C1 I *D sky130_fd_sc_hd__o211ai_1
*I *248:X O *D sky130_fd_sc_hd__or3b_1
*CAP
1 *272:A 0.000302735
2 *249:A2 0.000236896
3 *273:C1 0.000187037
4 *248:X 4.23836e-05
5 *40:12 0.000772038
6 *40:6 0.000693224
7 *249:A2 *41:27 5.68722e-05
8 *272:A *272:B 4.57538e-05
9 *272:A *287:D 0
10 *272:A *295:A 0
11 *272:A *72:10 7.6644e-05
12 *272:A *83:12 5.26184e-05
13 *273:C1 *295:A 5.41794e-05
14 *40:12 *280:A 9.7659e-05
15 *40:12 *295:A 0.000101545
16 *40:12 *41:27 0
17 *248:B *272:A 9.74588e-05
18 *249:A1 *249:A2 0.000482019
19 *249:B1 *273:C1 0
20 *271:A1 *272:A 0.00012501
21 *273:B1 *273:C1 9.90367e-05
22 *36:21 *272:A 0
23 *36:21 *273:C1 6.30292e-05
*RES
1 *248:X *40:6 9.83571 
2 *40:6 *40:12 9.25 
3 *40:12 *273:C1 17.6036 
4 *40:12 *249:A2 19.175 
5 *40:6 *272:A 25.3357 
*END

*D_NET *41 0.00293295
*CONN
*I *252:A2 I *D sky130_fd_sc_hd__a31o_1
*I *254:A2 I *D sky130_fd_sc_hd__a311o_1
*I *275:B I *D sky130_fd_sc_hd__nand2_1
*I *274:A I *D sky130_fd_sc_hd__and2_1
*I *249:X O *D sky130_fd_sc_hd__a211o_1
*CAP
1 *252:A2 4.27804e-05
2 *254:A2 0
3 *275:B 0.000144082
4 *274:A 9.83447e-05
5 *249:X 0
6 *41:35 0.000467755
7 *41:27 0.000865751
8 *41:4 0.000597642
9 *252:A2 *295:A 0
10 *274:A *242:A 3.01126e-05
11 *274:A *274:B 5.37741e-06
12 *275:B *276:B 1.58163e-05
13 *275:B *46:14 0.000126439
14 *41:27 *242:A 0
15 *41:27 *290:D 0
16 *41:27 *295:A 0
17 *41:35 *252:A3 0.000292049
18 *41:35 *255:A 1.39726e-05
19 *249:A2 *41:27 5.68722e-05
20 *252:A1 *252:A2 1.02504e-05
21 *34:8 *41:35 7.95909e-05
22 *34:19 *275:B 8.61126e-05
23 *40:12 *41:27 0
*RES
1 *249:X *41:4 9.3 
2 *41:4 *274:A 19.8714 
3 *41:4 *41:27 12.4107 
4 *41:27 *41:35 13.4464 
5 *41:35 *275:B 17.1214 
6 *41:35 *254:A2 13.8 
7 *41:27 *252:A2 14.5321 
*END

*D_NET *42 0.0019528
*CONN
*I *254:A3 I *D sky130_fd_sc_hd__a311o_1
*I *252:A3 I *D sky130_fd_sc_hd__a31o_1
*I *251:B I *D sky130_fd_sc_hd__nand2b_1
*I *250:Y O *D sky130_fd_sc_hd__nand2_1
*CAP
1 *254:A3 2.63752e-05
2 *252:A3 0.000161858
3 *251:B 0.000131033
4 *250:Y 8.30773e-05
5 *42:21 0.000450027
6 *42:6 0.000475905
7 *251:B *46:14 0
8 *252:A3 *255:A 5.68722e-05
9 *42:6 *250:A 3.18676e-05
10 *42:21 *46:14 2.27416e-05
11 *251:A_N *251:B 0.000128154
12 *254:B1 *252:A3 1.41471e-05
13 *32:8 *42:6 3.48705e-05
14 *32:14 *251:B 4.38243e-05
15 *41:35 *252:A3 0.000292049
*RES
1 *250:Y *42:6 11.0679 
2 *42:6 *251:B 20.983 
3 *42:6 *42:21 4.64286 
4 *42:21 *252:A3 13.6929 
5 *42:21 *254:A3 9.72857 
*END

*D_NET *43 0.000620592
*CONN
*I *276:A I *D sky130_fd_sc_hd__xnor2_1
*I *251:Y O *D sky130_fd_sc_hd__nand2b_1
*CAP
1 *276:A 0.000230994
2 *251:Y 0.000230994
3 *276:A *276:B 0.000129868
4 *276:A *289:CLK 2.8266e-06
5 *276:A *46:14 2.59093e-05
*RES
1 *251:Y *276:A 32.0286 
*END

*D_NET *44 0.000582117
*CONN
*I *253:B I *D sky130_fd_sc_hd__nand2_1
*I *252:X O *D sky130_fd_sc_hd__a31o_1
*CAP
1 *253:B 0.00014445
2 *252:X 0.00014445
3 *253:B *255:A 0.000123724
4 *254:C1 *253:B 0.000169492
*RES
1 *252:X *253:B 30.5821 
*END

*D_NET *45 0.000905994
*CONN
*I *255:A I *D sky130_fd_sc_hd__and2_1
*I *253:Y O *D sky130_fd_sc_hd__nand2_1
*CAP
1 *255:A 0.000291508
2 *253:Y 0.000291508
3 *252:A1 *255:A 0.000128409
4 *252:A3 *255:A 5.68722e-05
5 *253:B *255:A 0.000123724
6 *41:35 *255:A 1.39726e-05
*RES
1 *253:Y *255:A 32.7786 
*END

*D_NET *46 0.00608222
*CONN
*I *264:A2 I *D sky130_fd_sc_hd__a31o_1
*I *255:B I *D sky130_fd_sc_hd__and2_1
*I *268:A1 I *D sky130_fd_sc_hd__a21oi_1
*I *259:B I *D sky130_fd_sc_hd__nand2_1
*I *254:X O *D sky130_fd_sc_hd__a311o_1
*CAP
1 *264:A2 0.000252044
2 *255:B 0.000338656
3 *268:A1 0
4 *259:B 0
5 *254:X 0.000578537
6 *46:34 0.000699661
7 *46:25 0.000406331
8 *46:14 0.000875906
9 *255:B *290:D 3.67257e-05
10 *255:B *295:A 0.000442078
11 *255:B *296:A 0.000382025
12 *264:A2 *264:A3 5.52302e-05
13 *264:A2 *265:A 4.46186e-06
14 *264:A2 *292:CLK 0
15 *264:A2 *296:A 0.000331057
16 *264:A2 *52:18 1.08359e-05
17 *264:A2 *81:20 1.39726e-05
18 *46:14 *276:B 0.000128154
19 *46:14 *289:CLK 0
20 *46:25 *268:A2 0.000185124
21 *46:34 *268:B1 5.52238e-05
22 *251:B *46:14 0
23 *252:A1 *255:B 0
24 *254:C1 *46:14 0
25 *259:A *46:25 0.000148907
26 *259:A *46:34 1.34548e-05
27 *264:A1 *264:A2 0.000414124
28 *275:B *46:14 0.000126439
29 *276:A *46:14 2.59093e-05
30 *294:A *46:14 5.80217e-05
31 *29:19 *255:B 0.000345049
32 *29:36 *255:B 4.35131e-05
33 *29:36 *264:A2 8.80397e-05
34 *42:21 *46:14 2.27416e-05
*RES
1 *254:X *46:14 29.8357 
2 *46:14 *259:B 9.3 
3 *46:14 *46:25 5.91071 
4 *46:25 *268:A1 9.3 
5 *46:25 *46:34 5.85714 
6 *46:34 *255:B 25.6036 
7 *46:34 *264:A2 21.2464 
*END

*D_NET *47 0.00302627
*CONN
*I *264:B1 I *D sky130_fd_sc_hd__a31o_1
*I *267:A1 I *D sky130_fd_sc_hd__a21o_1
*I *258:A_N I *D sky130_fd_sc_hd__nand2b_1
*I *256:Y O *D sky130_fd_sc_hd__nor2_1
*CAP
1 *264:B1 0.000161354
2 *267:A1 0.000254731
3 *258:A_N 0
4 *256:Y 0.000272578
5 *47:14 0.000464969
6 *47:10 0.00064417
7 *264:B1 *261:A 0.000116173
8 *264:B1 *264:A3 1.47972e-05
9 *264:B1 *88:18 2.2816e-05
10 *267:A1 *266:A1 0.000112282
11 *267:A1 *267:A2 5.3157e-05
12 *267:A1 *267:B1 3.78277e-05
13 *47:10 *264:A3 5.33005e-05
14 *47:10 *48:6 0.000225982
15 *47:10 *48:12 9.30093e-05
16 *47:10 *52:12 9.11048e-06
17 *47:10 *81:20 5.32169e-05
18 *47:10 *87:12 1.08359e-05
19 *47:14 *48:12 0.000337644
20 *264:A1 *264:B1 3.50166e-05
21 *266:C1 *267:A1 5.33005e-05
*RES
1 *256:Y *47:10 18.0321 
2 *47:10 *47:14 8.875 
3 *47:14 *258:A_N 9.3 
4 *47:14 *267:A1 14.3893 
5 *47:10 *264:B1 16.3 
*END

*D_NET *48 0.0028436
*CONN
*I *264:A3 I *D sky130_fd_sc_hd__a31o_1
*I *266:A1 I *D sky130_fd_sc_hd__o211a_1
*I *258:B I *D sky130_fd_sc_hd__nand2b_1
*I *257:Y O *D sky130_fd_sc_hd__nand2_1
*CAP
1 *264:A3 0.000154215
2 *266:A1 0.000133164
3 *258:B 5.15806e-06
4 *257:Y 8.4284e-05
5 *48:12 0.000357499
6 *48:6 0.000457675
7 *264:A3 *261:A 1.64621e-05
8 *264:A3 *261:B 2.6269e-05
9 *264:A3 *81:20 0.000168007
10 *264:A3 *88:18 5.49489e-05
11 *266:A1 *267:B1 3.50166e-05
12 *266:A1 *268:A2 5.47047e-05
13 *48:6 *256:B 1.59373e-05
14 *48:6 *257:A 0.000143375
15 *48:6 *261:A 1.02821e-05
16 *48:6 *261:B 6.05161e-06
17 *48:6 *87:12 9.83388e-05
18 *48:12 *291:D 0
19 *48:12 *311:A 0
20 *48:12 *51:14 7.83659e-05
21 *48:12 *87:12 3.17148e-05
22 *264:A1 *264:A3 1.98839e-05
23 *264:A2 *264:A3 5.52302e-05
24 *264:B1 *264:A3 1.47972e-05
25 *267:A1 *266:A1 0.000112282
26 *47:10 *264:A3 5.33005e-05
27 *47:10 *48:6 0.000225982
28 *47:10 *48:12 9.30093e-05
29 *47:14 *48:12 0.000337644
*RES
1 *257:Y *48:6 12.3 
2 *48:6 *48:12 14.5893 
3 *48:12 *258:B 9.42946 
4 *48:12 *266:A1 12.3357 
5 *48:6 *264:A3 13.2643 
*END

*D_NET *49 0.000189098
*CONN
*I *260:A I *D sky130_fd_sc_hd__xnor2_1
*I *258:Y O *D sky130_fd_sc_hd__nand2b_1
*CAP
1 *260:A 9.45489e-05
2 *258:Y 9.45489e-05
*RES
1 *258:Y *260:A 19.9571 
*END

*D_NET *50 0.000315282
*CONN
*I *260:B I *D sky130_fd_sc_hd__xnor2_1
*I *259:Y O *D sky130_fd_sc_hd__nand2_1
*CAP
1 *260:B 8.34029e-05
2 *259:Y 8.34029e-05
3 *294:A *260:B 0.000148476
*RES
1 *259:Y *260:B 29.5464 
*END

*D_NET *51 0.00296954
*CONN
*I *263:A_N I *D sky130_fd_sc_hd__and2b_1
*I *266:A2 I *D sky130_fd_sc_hd__o211a_1
*I *267:B1 I *D sky130_fd_sc_hd__a21o_1
*I *261:Y O *D sky130_fd_sc_hd__nor2_1
*CAP
1 *263:A_N 0.000208004
2 *266:A2 0
3 *267:B1 0.000283776
4 *261:Y 0.000279471
5 *51:18 0.000443802
6 *51:14 0.000647501
7 *263:A_N *52:18 0.000280928
8 *263:A_N *88:18 6.72876e-05
9 *267:B1 *267:A2 0.000181673
10 *51:14 *291:D 0
11 *51:14 *296:A 0.000163338
12 *51:18 *52:18 0.000262554
13 *266:A1 *267:B1 3.50166e-05
14 *267:A1 *267:B1 3.78277e-05
15 *48:12 *51:14 7.83659e-05
*RES
1 *261:Y *51:14 26.8357 
2 *51:14 *51:18 7.96429 
3 *51:18 *267:B1 13.7643 
4 *51:18 *266:A2 9.3 
5 *51:14 *263:A_N 17.8714 
*END

*D_NET *52 0.0025251
*CONN
*I *263:B I *D sky130_fd_sc_hd__and2b_1
*I *266:B1 I *D sky130_fd_sc_hd__o211a_1
*I *267:A2 I *D sky130_fd_sc_hd__a21o_1
*I *262:Y O *D sky130_fd_sc_hd__nand2_1
*CAP
1 *263:B 2.19529e-05
2 *266:B1 0
3 *267:A2 5.49739e-05
4 *262:Y 0.000176148
5 *52:18 0.000293317
6 *52:12 0.000436444
7 *263:B *88:18 8.66063e-05
8 *52:12 *311:A 0
9 *52:12 *81:20 1.00332e-05
10 *52:12 *87:12 2.28428e-05
11 *52:12 *88:18 0.000170619
12 *52:18 *265:A 0
13 *263:A_N *52:18 0.000280928
14 *264:A1 *52:18 0.000352288
15 *264:A2 *52:18 1.08359e-05
16 *266:C1 *267:A2 5.33005e-05
17 *267:A1 *267:A2 5.3157e-05
18 *267:B1 *267:A2 0.000181673
19 *303:A *263:B 2.72967e-05
20 *303:A *52:12 1.07719e-05
21 *29:36 *52:18 1.02504e-05
22 *47:10 *52:12 9.11048e-06
23 *51:18 *52:18 0.000262554
*RES
1 *262:Y *52:12 21.8179 
2 *52:12 *52:18 16.1071 
3 *52:18 *267:A2 11.5143 
4 *52:18 *266:B1 9.3 
5 *52:12 *263:B 10.2464 
*END

*D_NET *53 0.000483615
*CONN
*I *265:A I *D sky130_fd_sc_hd__xnor2_1
*I *263:X O *D sky130_fd_sc_hd__and2b_1
*CAP
1 *265:A 0.000181337
2 *263:X 0.000181337
3 *265:A *265:B 9.90431e-05
4 *265:A *81:20 1.74352e-05
5 *264:A2 *265:A 4.46186e-06
6 *52:18 *265:A 0
*RES
1 *263:X *265:A 30.9036 
*END

*D_NET *54 0.000248965
*CONN
*I *265:B I *D sky130_fd_sc_hd__xnor2_1
*I *264:X O *D sky130_fd_sc_hd__a31o_1
*CAP
1 *265:B 3.68645e-05
2 *264:X 3.68645e-05
3 *265:B *81:20 7.61932e-05
4 *265:A *265:B 9.90431e-05
*RES
1 *264:X *265:B 19.9571 
*END

*D_NET *55 0.000781142
*CONN
*I *268:A2 I *D sky130_fd_sc_hd__a21oi_1
*I *266:X O *D sky130_fd_sc_hd__o211a_1
*CAP
1 *268:A2 0.000177274
2 *266:X 0.000177274
3 *259:A *268:A2 0.000186765
4 *266:A1 *268:A2 5.47047e-05
5 *46:25 *268:A2 0.000185124
*RES
1 *266:X *268:A2 31.5464 
*END

*D_NET *56 0.000632706
*CONN
*I *268:B1 I *D sky130_fd_sc_hd__a21oi_1
*I *267:X O *D sky130_fd_sc_hd__a21o_1
*CAP
1 *268:B1 0.000253579
2 *267:X 0.000253579
3 *268:B1 *270:A 7.0324e-05
4 *268:B1 *293:CLK 0
5 *268:B1 *296:A 0
6 *46:34 *268:B1 5.52238e-05
*RES
1 *267:X *268:B1 31.9393 
*END

*D_NET *57 0.000714198
*CONN
*I *270:A I *D sky130_fd_sc_hd__xnor2_1
*I *268:Y O *D sky130_fd_sc_hd__a21oi_1
*CAP
1 *270:A 0.000321937
2 *268:Y 0.000321937
3 *270:A *293:CLK 0
4 *270:A *296:A 0
5 *268:B1 *270:A 7.0324e-05
*RES
1 *268:Y *270:A 32.1357 
*END

*D_NET *58 0.00116541
*CONN
*I *270:B I *D sky130_fd_sc_hd__xnor2_1
*I *269:Y O *D sky130_fd_sc_hd__xnor2_1
*CAP
1 *270:B 0.000548723
2 *269:Y 0.000548723
3 *270:B *293:CLK 0
4 *270:B *293:D 6.79595e-05
*RES
1 *269:Y *270:B 37.475 
*END

*D_NET *59 0.000228129
*CONN
*I *272:B I *D sky130_fd_sc_hd__and2_1
*I *271:Y O *D sky130_fd_sc_hd__o21ai_1
*CAP
1 *272:B 9.11878e-05
2 *271:Y 9.11878e-05
3 *272:B *287:D 0
4 *272:A *272:B 4.57538e-05
*RES
1 *271:Y *272:B 29.5464 
*END

*D_NET *60 0.00144702
*CONN
*I *274:B I *D sky130_fd_sc_hd__and2_1
*I *273:Y O *D sky130_fd_sc_hd__o211ai_1
*CAP
1 *274:B 0.000383109
2 *273:Y 0.000383109
3 *274:B *242:A 0.000200413
4 *274:B *243:A 0.0001469
5 *274:B *84:10 3.34295e-05
6 *274:B *84:14 9.83442e-05
7 *273:A1 *274:B 0.000184945
8 *273:A2 *274:B 1.13883e-05
9 *274:A *274:B 5.37741e-06
*RES
1 *273:Y *274:B 35.5107 
*END

*D_NET *61 0.000515688
*CONN
*I *276:B I *D sky130_fd_sc_hd__xnor2_1
*I *275:Y O *D sky130_fd_sc_hd__nand2_1
*CAP
1 *276:B 0.000120925
2 *275:Y 0.000120925
3 *275:B *276:B 1.58163e-05
4 *276:A *276:B 0.000129868
5 *46:14 *276:B 0.000128154
*RES
1 *275:Y *276:B 30.1893 
*END

*D_NET *62 0.000247659
*CONN
*I *278:B I *D sky130_fd_sc_hd__and2_1
*I *277:X O *D sky130_fd_sc_hd__or2_1
*CAP
1 *278:B 0.000109374
2 *277:X 0.000109374
3 *39:6 *278:B 2.89114e-05
*RES
1 *277:X *278:B 20.3857 
*END

*D_NET *63 0.000386915
*CONN
*I *290:D I *D sky130_fd_sc_hd__dfrtp_1
*I *255:X O *D sky130_fd_sc_hd__and2_1
*CAP
1 *290:D 0.000175095
2 *255:X 0.000175095
3 *255:B *290:D 3.67257e-05
4 *41:27 *290:D 0
*RES
1 *255:X *290:D 30.1893 
*END

*D_NET *64 0.000938114
*CONN
*I *291:D I *D sky130_fd_sc_hd__dfrtp_1
*I *260:Y O *D sky130_fd_sc_hd__xnor2_1
*CAP
1 *291:D 0.00031589
2 *260:Y 0.00031589
3 *291:D *289:CLK 0
4 *291:D *291:CLK 7.77751e-05
5 *291:D *80:8 0.000228558
6 *48:12 *291:D 0
7 *51:14 *291:D 0
*RES
1 *260:Y *291:D 33.85 
*END

*D_NET *65 0.000444077
*CONN
*I *292:D I *D sky130_fd_sc_hd__dfrtp_1
*I *265:Y O *D sky130_fd_sc_hd__xnor2_1
*CAP
1 *292:D 0.000197556
2 *265:Y 0.000197556
3 *292:D *292:CLK 2.89114e-05
4 *292:D *81:20 2.00529e-05
*RES
1 *265:Y *292:D 21.2071 
*END

*D_NET *66 0.000360652
*CONN
*I *293:D I *D sky130_fd_sc_hd__dfrtp_1
*I *270:Y O *D sky130_fd_sc_hd__xnor2_1
*CAP
1 *293:D 0.000146346
2 *270:Y 0.000146346
3 *270:B *293:D 6.79595e-05
*RES
1 *270:Y *293:D 20.7964 
*END

*D_NET *67 0.000203942
*CONN
*I *286:D I *D sky130_fd_sc_hd__dfrtp_1
*I *278:X O *D sky130_fd_sc_hd__and2_1
*CAP
1 *286:D 0.000101971
2 *278:X 0.000101971
3 *286:D *74:10 0
4 *286:D *79:10 0
*RES
1 *278:X *286:D 29.2429 
*END

*D_NET *68 0.000430616
*CONN
*I *287:D I *D sky130_fd_sc_hd__dfrtp_1
*I *272:X O *D sky130_fd_sc_hd__and2_1
*CAP
1 *287:D 0.000215308
2 *272:X 0.000215308
3 *272:A *287:D 0
4 *272:B *287:D 0
*RES
1 *272:X *287:D 30.6 
*END

*D_NET *69 0.000733627
*CONN
*I *288:D I *D sky130_fd_sc_hd__dfrtp_1
*I *274:X O *D sky130_fd_sc_hd__and2_1
*CAP
1 *288:D 0.000366814
2 *274:X 0.000366814
3 *288:D *242:A 0
*RES
1 *274:X *288:D 32.2429 
*END

*D_NET *70 0.000288623
*CONN
*I *289:D I *D sky130_fd_sc_hd__dfrtp_1
*I *276:Y O *D sky130_fd_sc_hd__xnor2_1
*CAP
1 *289:D 0.000115738
2 *276:Y 0.000115738
3 *289:D *289:CLK 5.71472e-05
*RES
1 *276:Y *289:D 20.7964 
*END

*D_NET *71 0.00494461
*CONN
*I *296:A I *D sky130_fd_sc_hd__clkbuf_16
*I *295:A I *D sky130_fd_sc_hd__clkbuf_16
*I *294:X O *D sky130_fd_sc_hd__clkbuf_16
*CAP
1 *296:A 0.000607355
2 *295:A 0.000651001
3 *294:X 0
4 *71:6 0.00125836
5 *295:A *280:A 0.000156695
6 *295:A *286:CLK 0
7 *295:A *310:A 0
8 *295:A *72:10 0
9 *295:A *79:10 0
10 *296:A *293:CLK 0
11 *296:A *90:81 0.000560901
12 *249:A1 *295:A 0.000226828
13 *252:A2 *295:A 0
14 *252:B1 *295:A 0
15 *255:B *295:A 0.000442078
16 *255:B *296:A 0.000382025
17 *264:A2 *296:A 0.000331057
18 *268:B1 *296:A 0
19 *270:A *296:A 0
20 *272:A *295:A 0
21 *273:C1 *295:A 5.41794e-05
22 *36:21 *295:A 9.25014e-06
23 *40:12 *295:A 0.000101545
24 *41:27 *295:A 0
25 *51:14 *296:A 0.000163338
*RES
1 *294:X *71:6 13.8 
2 *71:6 *295:A 29.1571 
3 *71:6 *296:A 28.4964 
*END

*D_NET *72 0.00471124
*CONN
*I *287:CLK I *D sky130_fd_sc_hd__dfrtp_1
*I *286:CLK I *D sky130_fd_sc_hd__dfrtp_1
*I *290:CLK I *D sky130_fd_sc_hd__dfrtp_1
*I *288:CLK I *D sky130_fd_sc_hd__dfrtp_1
*I *295:X O *D sky130_fd_sc_hd__clkbuf_16
*CAP
1 *287:CLK 0.00023496
2 *286:CLK 0.000329003
3 *290:CLK 0
4 *288:CLK 0.000555257
5 *295:X 0
6 *72:16 0.00108034
7 *72:10 0.00113324
8 *72:4 0.000514113
9 *286:CLK *280:A 3.28534e-05
10 *286:CLK *79:10 0.000173083
11 *286:CLK *90:29 8.52442e-05
12 *288:CLK *77:6 2.27416e-05
13 *72:10 *280:A 5.35423e-05
14 *248:B *287:CLK 8.32497e-05
15 *248:C_N *287:CLK 4.35131e-05
16 *248:C_N *72:10 0
17 *271:B1 *287:CLK 4.43698e-05
18 *272:A *72:10 7.6644e-05
19 *288:RESET_B *288:CLK 5.52238e-05
20 *290:RESET_B *286:CLK 9.80029e-05
21 *295:A *286:CLK 0
22 *295:A *72:10 0
23 *34:8 *288:CLK 0
24 *36:34 *287:CLK 4.70078e-05
25 *36:34 *72:10 4.88515e-05
*RES
1 *295:X *72:4 9.3 
2 *72:4 *72:10 9.32143 
3 *72:10 *72:16 10.6964 
4 *72:16 *288:CLK 27.3714 
5 *72:16 *290:CLK 9.3 
6 *72:10 *286:CLK 20.5857 
7 *72:4 *287:CLK 22.8179 
*END

*D_NET *73 0.00579501
*CONN
*I *292:CLK I *D sky130_fd_sc_hd__dfrtp_1
*I *293:CLK I *D sky130_fd_sc_hd__dfrtp_1
*I *291:CLK I *D sky130_fd_sc_hd__dfrtp_1
*I *289:CLK I *D sky130_fd_sc_hd__dfrtp_1
*I *296:X O *D sky130_fd_sc_hd__clkbuf_16
*CAP
1 *292:CLK 0.000188238
2 *293:CLK 0.000400635
3 *291:CLK 0.00022697
4 *289:CLK 0.000460222
5 *296:X 0
6 *73:34 0.000739287
7 *73:8 0.00125096
8 *73:4 0.000714178
9 *289:CLK *281:A 0.000302462
10 *291:CLK *281:A 2.58997e-05
11 *291:CLK *311:A 0
12 *292:CLK *81:20 1.92905e-05
13 *73:8 *90:81 0.00090577
14 *73:34 *90:81 0.000361914
15 *264:A2 *292:CLK 0
16 *268:B1 *293:CLK 0
17 *270:A *293:CLK 0
18 *270:B *293:CLK 0
19 *276:A *289:CLK 2.8266e-06
20 *289:D *289:CLK 5.71472e-05
21 *289:RESET_B *289:CLK 0
22 *291:D *289:CLK 0
23 *291:D *291:CLK 7.77751e-05
24 *291:RESET_B *291:CLK 3.25247e-05
25 *292:D *292:CLK 2.89114e-05
26 *294:A *289:CLK 0
27 *296:A *293:CLK 0
28 *46:14 *289:CLK 0
*RES
1 *296:X *73:4 9.3 
2 *73:4 *73:8 15.3036 
3 *73:8 *289:CLK 23.9786 
4 *73:8 *291:CLK 18.3179 
5 *73:4 *73:34 7.91071 
6 *73:34 *293:CLK 20.6036 
7 *73:34 *292:CLK 17.1929 
*END

*D_NET *74 0.000790463
*CONN
*I *247:A I *D sky130_fd_sc_hd__nand2_1
*I *277:A I *D sky130_fd_sc_hd__or2_1
*I *297:X O *D sky130_fd_sc_hd__clkbuf_1
*CAP
1 *247:A 3.96667e-05
2 *277:A 0
3 *297:X 0.000249598
4 *74:10 0.000289265
5 *247:A *277:B 5.71472e-05
6 *74:10 *279:A 0
7 *74:10 *90:12 0
8 *286:D *74:10 0
9 *286:RESET_B *74:10 0
10 *39:6 *247:A 0.000142856
11 *39:14 *74:10 1.19309e-05
*RES
1 *297:X *74:10 22.675 
2 *74:10 *277:A 9.3 
3 *74:10 *247:A 10.6571 
*END

*D_NET *75 0.00093061
*CONN
*I *306:A I *D sky130_fd_sc_hd__buf_2
*I *247:B I *D sky130_fd_sc_hd__nand2_1
*I *277:B I *D sky130_fd_sc_hd__or2_1
*I *286:Q O *D sky130_fd_sc_hd__dfrtp_1
*CAP
1 *306:A 0
2 *247:B 0
3 *277:B 9.33067e-05
4 *286:Q 0.000198771
5 *75:14 0.000129341
6 *75:12 0.000234805
7 *75:12 *279:A 0.000151333
8 *75:12 *90:12 9.25014e-06
9 *247:A *277:B 5.71472e-05
10 *297:A *75:12 3.22243e-05
11 *39:6 *277:B 2.44318e-05
*RES
1 *286:Q *75:12 21.6036 
2 *75:12 *75:14 0.535714 
3 *75:14 *277:B 11.0857 
4 *75:14 *247:B 9.3 
5 *75:12 *306:A 9.3 
*END

*D_NET *76 0.00371513
*CONN
*I *307:A I *D sky130_fd_sc_hd__buf_2
*I *246:B I *D sky130_fd_sc_hd__nor2_1
*I *244:B I *D sky130_fd_sc_hd__nand2_1
*I *287:Q O *D sky130_fd_sc_hd__dfrtp_1
*CAP
1 *307:A 0.000398646
2 *246:B 0.000120991
3 *244:B 0.000280064
4 *287:Q 0
5 *76:6 0.00113631
6 *76:4 0.0011339
7 *244:B *244:A 4.82464e-05
8 *246:B *244:A 1.97695e-05
9 *271:B1 *246:B 6.10501e-05
10 *271:B1 *76:6 0.00018372
11 *273:B1 *244:B 3.57366e-05
12 *38:8 *244:B 0.000180764
13 *38:8 *246:B 0.000115926
*RES
1 *287:Q *76:4 9.3 
2 *76:4 *76:6 8.75 
3 *76:6 *244:B 13.4429 
4 *76:6 *246:B 12.5321 
5 *76:4 *307:A 15.7107 
*END

*D_NET *77 0.00400987
*CONN
*I *242:B I *D sky130_fd_sc_hd__nand2_1
*I *243:B I *D sky130_fd_sc_hd__nor2_1
*I *308:A I *D sky130_fd_sc_hd__buf_2
*I *241:B I *D sky130_fd_sc_hd__and2_1
*I *288:Q O *D sky130_fd_sc_hd__dfrtp_1
*CAP
1 *242:B 4.34709e-05
2 *243:B 0
3 *308:A 0.000249981
4 *241:B 0
5 *288:Q 0.00076449
6 *77:25 0.000372585
7 *77:14 0.000413166
8 *77:6 0.00109852
9 *242:B *280:A 4.61598e-05
10 *308:A *84:10 0
11 *77:6 *280:A 1.40306e-05
12 *77:14 *242:A 0.000318309
13 *77:14 *243:A 9.99853e-05
14 *77:14 *84:14 0.000139208
15 *77:25 *243:A 0.000124418
16 acc[2] *308:A 5.57989e-05
17 *249:B1 *308:A 9.69119e-06
18 *273:A1 *77:25 5.53449e-05
19 *273:A2 *77:25 6.9672e-05
20 *288:CLK *77:6 2.27416e-05
21 *288:RESET_B *77:6 0.000112294
*RES
1 *288:Q *77:6 18.8714 
2 *77:6 *77:14 15.6607 
3 *77:14 *241:B 9.3 
4 *77:14 *77:25 3.03571 
5 *77:25 *308:A 22.5143 
6 *77:25 *243:B 9.3 
7 *77:6 *242:B 10.3357 
*END

*D_NET *78 0.00123321
*CONN
*I *309:A I *D sky130_fd_sc_hd__buf_2
*I *250:B I *D sky130_fd_sc_hd__nand2_1
*I *240:B I *D sky130_fd_sc_hd__nor2_1
*I *289:Q O *D sky130_fd_sc_hd__dfrtp_1
*CAP
1 *309:A 0
2 *250:B 2.07967e-05
3 *240:B 0
4 *289:Q 0.000176083
5 *78:22 0.000383621
6 *78:12 0.000538907
7 *250:B *250:A 5.52302e-05
8 *78:22 *85:12 0
9 acc[3] *78:12 5.85758e-05
10 *251:A_N *78:22 0
11 *300:A *78:22 0
*RES
1 *289:Q *78:12 21.6036 
2 *78:12 *78:22 14.375 
3 *78:22 *240:B 9.3 
4 *78:22 *250:B 9.83571 
5 *78:12 *309:A 9.3 
*END

*D_NET *79 0.00269393
*CONN
*I *310:A I *D sky130_fd_sc_hd__buf_2
*I *237:B I *D sky130_fd_sc_hd__nand2_1
*I *238:B I *D sky130_fd_sc_hd__or2_1
*I *290:Q O *D sky130_fd_sc_hd__dfrtp_1
*CAP
1 *310:A 0.000694252
2 *237:B 0
3 *238:B 7.09026e-05
4 *290:Q 0.000412289
5 *79:12 7.09026e-05
6 *79:10 0.00110654
7 *238:B *238:A 5.71472e-05
8 *238:B *86:10 5.16637e-05
9 *286:CLK *79:10 0.000173083
10 *286:D *79:10 0
11 *295:A *310:A 0
12 *295:A *79:10 0
13 *29:6 *238:B 5.71472e-05
*RES
1 *290:Q *79:10 20.05 
2 *79:10 *79:12 4.5 
3 *79:12 *238:B 11.0857 
4 *79:12 *237:B 9.3 
5 *79:10 *310:A 25.4071 
*END

*D_NET *80 0.00273455
*CONN
*I *256:B I *D sky130_fd_sc_hd__nor2_1
*I *257:B I *D sky130_fd_sc_hd__nand2_1
*I *311:A I *D sky130_fd_sc_hd__buf_2
*I *291:Q O *D sky130_fd_sc_hd__dfrtp_1
*CAP
1 *256:B 7.56948e-05
2 *257:B 0
3 *311:A 0.000239798
4 *291:Q 0.000793682
5 *80:10 0.000255833
6 *80:8 0.000885412
7 *256:B *256:A 5.38444e-06
8 *256:B *257:A 4.10796e-05
9 *256:B *261:A 8.29398e-06
10 *311:A *87:12 0
11 *80:10 *257:A 5.7661e-06
12 acc[5] *311:A 8.67413e-05
13 *291:CLK *311:A 0
14 *291:D *80:8 0.000228558
15 *291:RESET_B *80:8 9.23695e-05
16 *48:6 *256:B 1.59373e-05
17 *48:12 *311:A 0
18 *52:12 *311:A 0
*RES
1 *291:Q *80:8 19.3 
2 *80:8 *80:10 0.428571 
3 *80:10 *311:A 22.5143 
4 *80:10 *257:B 9.3 
5 *80:8 *256:B 11.0857 
*END

*D_NET *81 0.00352905
*CONN
*I *312:A I *D sky130_fd_sc_hd__buf_2
*I *262:B I *D sky130_fd_sc_hd__nand2_1
*I *261:B I *D sky130_fd_sc_hd__nor2_1
*I *292:Q O *D sky130_fd_sc_hd__dfrtp_1
*CAP
1 *312:A 0.00011492
2 *262:B 0
3 *261:B 1.96283e-05
4 *292:Q 0.000329379
5 *81:20 0.00103733
6 *81:6 0.001462
7 *261:B *261:A 5.33005e-05
8 *81:20 *261:A 4.25176e-05
9 *81:20 *88:18 5.94522e-05
10 acc[6] *312:A 0
11 *264:A2 *81:20 1.39726e-05
12 *264:A3 *261:B 2.6269e-05
13 *264:A3 *81:20 0.000168007
14 *265:A *81:20 1.74352e-05
15 *265:B *81:20 7.61932e-05
16 *292:CLK *81:20 1.92905e-05
17 *292:D *81:20 2.00529e-05
18 *47:10 *81:20 5.32169e-05
19 *48:6 *261:B 6.05161e-06
20 *52:12 *81:20 1.00332e-05
*RES
1 *292:Q *81:6 13.1214 
2 *81:6 *81:20 22.4464 
3 *81:20 *261:B 9.83571 
4 *81:20 *262:B 9.3 
5 *81:6 *312:A 20.2464 
*END

*D_NET *82 0.000501723
*CONN
*I *313:A I *D sky130_fd_sc_hd__buf_2
*I *269:B I *D sky130_fd_sc_hd__xnor2_1
*I *293:Q O *D sky130_fd_sc_hd__dfrtp_1
*CAP
1 *313:A 0
2 *269:B 9.24093e-05
3 *293:Q 6.11326e-05
4 *82:10 0.000153542
5 *82:10 *90:8 0.000153047
6 acc[7] *82:10 4.15914e-05
*RES
1 *293:Q *82:10 20.2464 
2 *82:10 *269:B 10.675 
3 *82:10 *313:A 9.3 
*END

*D_NET *83 0.000680368
*CONN
*I *246:A I *D sky130_fd_sc_hd__nor2_1
*I *244:A I *D sky130_fd_sc_hd__nand2_1
*I *298:X O *D sky130_fd_sc_hd__clkbuf_1
*CAP
1 *246:A 0
2 *244:A 0.000110476
3 *298:X 0.000153458
4 *83:12 0.000263933
5 *244:B *244:A 4.82464e-05
6 *246:B *244:A 1.97695e-05
7 *272:A *83:12 5.26184e-05
8 *273:B1 *244:A 3.18676e-05
*RES
1 *298:X *83:12 20.7821 
2 *83:12 *244:A 11.925 
3 *83:12 *246:A 9.3 
*END

*D_NET *84 0.00229386
*CONN
*I *242:A I *D sky130_fd_sc_hd__nand2_1
*I *243:A I *D sky130_fd_sc_hd__nor2_1
*I *241:A I *D sky130_fd_sc_hd__and2_1
*I *299:X O *D sky130_fd_sc_hd__buf_1
*CAP
1 *242:A 0.000249034
2 *243:A 5.71611e-05
3 *241:A 0
4 *299:X 0.000175081
5 *84:14 9.69865e-05
6 *84:10 0.00046394
7 *273:A1 *243:A 5.52302e-05
8 *274:A *242:A 3.01126e-05
9 *274:B *242:A 0.000200413
10 *274:B *243:A 0.0001469
11 *274:B *84:10 3.34295e-05
12 *274:B *84:14 9.83442e-05
13 *288:D *242:A 0
14 *299:A *84:10 5.30637e-06
15 *308:A *84:10 0
16 *41:27 *242:A 0
17 *77:14 *242:A 0.000318309
18 *77:14 *243:A 9.99853e-05
19 *77:14 *84:14 0.000139208
20 *77:25 *243:A 0.000124418
*RES
1 *299:X *84:10 16.3893 
2 *84:10 *84:14 5.85714 
3 *84:14 *241:A 9.3 
4 *84:14 *243:A 12.0321 
5 *84:10 *242:A 19.6214 
*END

*D_NET *85 0.000785993
*CONN
*I *250:A I *D sky130_fd_sc_hd__nand2_1
*I *240:A I *D sky130_fd_sc_hd__nor2_1
*I *300:X O *D sky130_fd_sc_hd__clkbuf_1
*CAP
1 *250:A 0.000100183
2 *240:A 0
3 *300:X 0.000151642
4 *85:12 0.000251825
5 *250:B *250:A 5.52302e-05
6 *300:A *85:12 9.60337e-06
7 *32:8 *250:A 0.000185643
8 *42:6 *250:A 3.18676e-05
9 *78:22 *85:12 0
*RES
1 *300:X *85:12 20.8893 
2 *85:12 *240:A 9.3 
3 *85:12 *250:A 12.3357 
*END

*D_NET *86 0.00156871
*CONN
*I *237:A I *D sky130_fd_sc_hd__nand2_1
*I *238:A I *D sky130_fd_sc_hd__or2_1
*I *301:X O *D sky130_fd_sc_hd__clkbuf_1
*CAP
1 *237:A 0
2 *238:A 4.53033e-05
3 *301:X 0.000597686
4 *86:10 0.000642989
5 *238:B *238:A 5.71472e-05
6 *238:B *86:10 5.16637e-05
7 *297:A *86:10 0.000125057
8 *29:6 *238:A 4.88637e-05
*RES
1 *301:X *86:10 20.1393 
2 *86:10 *238:A 10.6571 
3 *86:10 *237:A 9.3 
*END

*D_NET *87 0.000728438
*CONN
*I *256:A I *D sky130_fd_sc_hd__nor2_1
*I *257:A I *D sky130_fd_sc_hd__nand2_1
*I *302:X O *D sky130_fd_sc_hd__clkbuf_1
*CAP
1 *256:A 1.25174e-05
2 *257:A 5.00136e-05
3 *302:X 0.000101228
4 *87:12 0.000163759
5 *256:A *261:A 1.02132e-05
6 *87:12 *261:A 3.13687e-05
7 *256:B *256:A 5.38444e-06
8 *256:B *257:A 4.10796e-05
9 *311:A *87:12 0
10 *47:10 *87:12 1.08359e-05
11 *48:6 *257:A 0.000143375
12 *48:6 *87:12 9.83388e-05
13 *48:12 *87:12 3.17148e-05
14 *52:12 *87:12 2.28428e-05
15 *80:10 *257:A 5.7661e-06
*RES
1 *302:X *87:12 20.8893 
2 *87:12 *257:A 11.0857 
3 *87:12 *256:A 9.72857 
*END

*D_NET *88 0.00171069
*CONN
*I *262:A I *D sky130_fd_sc_hd__nand2_1
*I *261:A I *D sky130_fd_sc_hd__nor2_1
*I *303:X O *D sky130_fd_sc_hd__clkbuf_1
*CAP
1 *262:A 0
2 *261:A 0.00011233
3 *303:X 0.000350763
4 *88:18 0.000463093
5 *256:A *261:A 1.02132e-05
6 *256:B *261:A 8.29398e-06
7 *261:B *261:A 5.33005e-05
8 *263:A_N *88:18 6.72876e-05
9 *263:B *88:18 8.66063e-05
10 *264:A3 *261:A 1.64621e-05
11 *264:A3 *88:18 5.49489e-05
12 *264:B1 *261:A 0.000116173
13 *264:B1 *88:18 2.2816e-05
14 *303:A *88:18 3.41609e-05
15 *48:6 *261:A 1.02821e-05
16 *52:12 *88:18 0.000170619
17 *81:20 *261:A 4.25176e-05
18 *81:20 *88:18 5.94522e-05
19 *87:12 *261:A 3.13687e-05
*RES
1 *303:X *88:18 24.7464 
2 *88:18 *261:A 12.3357 
3 *88:18 *262:A 9.3 
*END

*D_NET *89 0.000540644
*CONN
*I *269:A I *D sky130_fd_sc_hd__xnor2_1
*I *304:X O *D sky130_fd_sc_hd__clkbuf_1
*CAP
1 *269:A 0.000236581
2 *304:X 0.000236581
3 *269:A *90:8 6.74815e-05
*RES
1 *304:X *269:A 31.0107 
*END

*D_NET *90 0.0128179
*CONN
*I *284:A I *D sky130_fd_sc_hd__inv_2
*I *283:A I *D sky130_fd_sc_hd__inv_2
*I *281:A I *D sky130_fd_sc_hd__inv_2
*I *285:A I *D sky130_fd_sc_hd__inv_2
*I *236:A I *D sky130_fd_sc_hd__inv_2
*I *282:A I *D sky130_fd_sc_hd__inv_2
*I *280:A I *D sky130_fd_sc_hd__inv_2
*I *279:A I *D sky130_fd_sc_hd__inv_2
*I *305:X O *D sky130_fd_sc_hd__clkbuf_4
*CAP
1 *284:A 0
2 *283:A 0
3 *281:A 0.000461192
4 *285:A 3.75792e-05
5 *236:A 0
6 *282:A 0
7 *280:A 0.000774747
8 *279:A 0.000575942
9 *305:X 0
10 *90:81 0.0013207
11 *90:73 0.00102766
12 *90:29 0.00166178
13 *90:12 0.00157364
14 *90:10 0.00041091
15 *90:8 0.000669114
16 *90:4 0.000499443
17 acc[0] *279:A 4.29654e-05
18 acc[1] *279:A 1.91894e-05
19 acc[4] *90:10 9.15186e-06
20 acc[7] *90:8 1.50563e-05
21 *242:B *280:A 4.61598e-05
22 *269:A *90:8 6.74815e-05
23 *286:CLK *280:A 3.28534e-05
24 *286:CLK *90:29 8.52442e-05
25 *286:RESET_B *90:12 0.000104974
26 *287:RESET_B *279:A 0.000179656
27 *289:CLK *281:A 0.000302462
28 *290:RESET_B *280:A 0.000179656
29 *291:CLK *281:A 2.58997e-05
30 *292:RESET_B *90:73 3.18676e-05
31 *293:RESET_B *285:A 9.90431e-05
32 *295:A *280:A 0.000156695
33 *296:A *90:81 0.000560901
34 *297:A *90:12 8.08376e-05
35 *301:A *90:10 0
36 *301:A *90:12 0
37 *304:A *90:8 0
38 *305:A *90:8 1.85455e-05
39 *39:14 *279:A 0
40 *40:12 *280:A 9.7659e-05
41 *72:10 *280:A 5.35423e-05
42 *73:8 *90:81 0.00090577
43 *73:34 *90:81 0.000361914
44 *74:10 *279:A 0
45 *74:10 *90:12 0
46 *75:12 *279:A 0.000151333
47 *75:12 *90:12 9.25014e-06
48 *77:6 *280:A 1.40306e-05
49 *82:10 *90:8 0.000153047
*RES
1 *305:X *90:4 9.3 
2 *90:4 *90:8 11.6071 
3 *90:8 *90:10 4.98214 
4 *90:10 *90:12 3.16071 
5 *90:12 *279:A 25.4607 
6 *90:12 *90:29 15.6429 
7 *90:29 *280:A 34.4429 
8 *90:29 *282:A 9.3 
9 *90:10 *236:A 13.8 
10 *90:8 *285:A 14.7464 
11 *90:4 *90:73 3.32143 
12 *90:73 *90:81 20.7857 
13 *90:81 *281:A 28.3536 
14 *90:81 *283:A 9.3 
15 *90:73 *284:A 9.3 
*END
